16
Lattice="-8.07154e-07 4.220863767496 4.220863767552 4.2208648255 4.03562e-07 4.220864321986 4.220864825428 4.220864321856 4.0342e-07" Properties=species:S:1:pos:R:3 pbc="T T T"
Mg       1.05521611       1.05521606       1.05521606
Mg       1.05521571       3.16564794       3.16564794
Mg       3.16564852       1.05521626       3.16564822
Mg       3.16564812       3.16564815       5.27608010
Mg       3.16564852       3.16564822       1.05521626
Mg       3.16564812       5.27608010       3.16564815
Mg       5.27608094       3.16564842       3.16564842
Mg       5.27608053       5.27608031       5.27608031
O        3.16564832       3.16564818       3.16564818
O        3.16564792       5.27608007       5.27608007
O        5.27608073       3.16564838       5.27608034
O        5.27608033       5.27608027       7.38651223
O        5.27608073       5.27608034       3.16564838
O        5.27608033       7.38651223       5.27608027
O        7.38651315       5.27608055       5.27608055
O        7.38651274       7.38651243       7.38651243
