54
Lattice="-1.210731e-06 6.331295651244 6.331295651328 6.3312972382499995 6.05343e-07 6.331296482979001 6.3312972381420005 6.331296482784 6.0513e-07" Properties=species:S:1:pos:R:3 pbc="T T T"
Mg       1.05521611       1.05521606       1.05521606
Mg       1.05521571       3.16564794       3.16564794
Mg       1.05521530       5.27607983       5.27607983
Mg       3.16564852       1.05521626       3.16564822
Mg       3.16564812       3.16564815       5.27608010
Mg       3.16564772       5.27608003       7.38651199
Mg       5.27608094       1.05521646       5.27608038
Mg       5.27608053       3.16564835       7.38651227
Mg       5.27608013       5.27608023       9.49694415
Mg       3.16564852       3.16564822       1.05521626
Mg       3.16564812       5.27608010       3.16564815
Mg       3.16564772       7.38651199       5.27608003
Mg       5.27608094       3.16564842       3.16564842
Mg       5.27608053       5.27608031       5.27608031
Mg       5.27608013       7.38651219       7.38651219
Mg       7.38651335       3.16564862       5.27608058
Mg       7.38651294       5.27608051       7.38651247
Mg       7.38651254       7.38651239       9.49694435
Mg       5.27608094       5.27608038       1.05521646
Mg       5.27608053       7.38651227       3.16564835
Mg       5.27608013       9.49694415       5.27608023
Mg       7.38651335       5.27608058       3.16564862
Mg       7.38651294       7.38651247       5.27608051
Mg       7.38651254       9.49694435       7.38651239
Mg       9.49694576       5.27608079       5.27608079
Mg       9.49694536       7.38651267       7.38651267
Mg       9.49694495       9.49694455       9.49694455
O        3.16564832       3.16564818       3.16564818
O        3.16564792       5.27608007       5.27608007
O        3.16564751       7.38651195       7.38651195
O        5.27608073       3.16564838       5.27608034
O        5.27608033       5.27608027       7.38651223
O        5.27607993       7.38651215       9.49694411
O        7.38651315       3.16564859       7.38651251
O        7.38651274       5.27608047       9.49694439
O        7.38651234       7.38651235      11.60737627
O        5.27608073       5.27608034       3.16564838
O        5.27608033       7.38651223       5.27608027
O        5.27607993       9.49694411       7.38651215
O        7.38651315       5.27608055       5.27608055
O        7.38651274       7.38651243       7.38651243
O        7.38651234       9.49694431       9.49694431
O        9.49694556       5.27608075       7.38651271
O        9.49694516       7.38651263       9.49694459
O        9.49694475       9.49694452      11.60737647
O        7.38651315       7.38651251       3.16564859
O        7.38651274       9.49694439       5.27608047
O        7.38651234      11.60737627       7.38651235
O        9.49694556       7.38651271       5.27608075
O        9.49694516       9.49694459       7.38651263
O        9.49694475      11.60737647       9.49694452
O       11.60737797       7.38651291       7.38651291
O       11.60737757       9.49694479       9.49694479
O       11.60737716      11.60737668      11.60737668
