------------------------------------------------------------
          Invoking FHI-aims ...

          When using FHI-aims, please cite the following reference:

            Volker Blum, Ralf Gehrke, Felix Hanke, Paula Havu,
            Ville Havu, Xinguo Ren, Karsten Reuter, and Matthias Scheffler,
            'Ab Initio Molecular Simulations with Numeric Atom-Centered Orbitals',
            Computer Physics Communications 180, 2175-2196 (2009)

          In addition, many other developments in FHI-aims are likely important for
          your particular application. If so, please cite them. A partial list of references
          is written at the end of this file. Thank you for giving credit to the authors
          of these developments.

          For general information about FHI-aims please find us at

            https://fhi-aims.org

          Online tutorials can be found at

            https://fhi-aims-club.gitlab.io/tutorials/tutorials-overview/

          For any questions about FHI-aims, please visit our slack channel at

            https://fhi-aims.slack.com

          and our main development and support site at

            https://aims-git.rz-berlin.mpg.de .

          The latter site, in particular, has a wiki to collect information, as well
          as an issue tracker to log discussions, suggest improvements, and report issues
          or bugs. https://aims-git.rz-berlin.mpg.de is also the main development site
          of the project and all new and updated code versions can be obtained there.
          Please send an email to aims-coordinators@ms1p.org and we will add
          you to these sites. They are for you and everyone is welcome there.

------------------------------------------------------------



  Date     :  20260811, Time     :  180744.066
  Time zero on CPU 1             :   0.214104000000000E+00  s.
  Internal wall clock time zero  :           555703664.066  s.

  FHI-aims created a unique identifier for this run for later identification
  aims_uuid : 4E11A827-BEE2-40BF-A55C-5BC1DE638EBB

  Build configuration of the current instance of FHI-aims
  -------------------------------------------------------
  FHI-aims version      : 260527
  Commit number         : 59e070fb4
  CMake host system     : Linux-5.14.0-570.103.1.el9_6.x86_64
  CMake version         : 3.26.5
  OS Distribution       : Red Hat Enterprise Linux 9.6 (Plow)
  Built on              : AMD EPYC 9554 64-Core Processor
  Fortran compiler      : /mpcdf/soft/RHEL_9/packages/x86_64/intel_oneapi/2024.0/mpi/2021.11/bin/mpiifort (Intel) version 2021.1.0.20231117
  Fortran compiler flags: -O3 -ip -fp-model precise -diag-disable=10448
  C compiler            : /mpcdf/soft/RHEL_9/packages/x86_64/intel/2024.0.2/bin/icx (IntelLLVM) version 2024.0.2
  C compiler flags      : -O3 -std=gnu99
  C++ compiler          : /mpcdf/soft/RHEL_9/packages/x86_64/intel/2024.0.2/bin/icpx (IntelLLVM) version 2024.0.2
  C++ compiler flags    : -O3 -std=c++14
  HIP compiler          :
  HIP compiler flags    :
  HIP GPU arch          :
  Using MPI
  Using ScaLAPACK
  Using LibXC
  Using i-PI
  Using RLSY
  Using GREENX
  Linking against: /mpcdf/soft/RHEL_9/packages/x86_64/intel_oneapi/2024.0/mkl/latest/lib/libmkl_intel_lp64.so
                   /mpcdf/soft/RHEL_9/packages/x86_64/intel_oneapi/2024.0/mkl/latest/lib/libmkl_sequential.so
                   /mpcdf/soft/RHEL_9/packages/x86_64/intel_oneapi/2024.0/mkl/latest/lib/libmkl_core.so
                   /mpcdf/soft/RHEL_9/packages/x86_64/intel_oneapi/2024.0/mkl/latest/lib/libmkl_blacs_intelmpi_lp64.so
                   /mpcdf/soft/RHEL_9/packages/x86_64/intel_oneapi/2024.0/mkl/latest/lib/libmkl_scalapack_lp64.so

  Using      256 parallel tasks.
  Task        0 on host vipl2017 reporting.
  Task        1 on host vipl2017 reporting.
  Task        2 on host vipl2017 reporting.
  Task        3 on host vipl2017 reporting.
  Task        4 on host vipl2017 reporting.
  Task        5 on host vipl2017 reporting.
  Task        6 on host vipl2017 reporting.
  Task        7 on host vipl2017 reporting.
  Task        8 on host vipl2017 reporting.
  Task        9 on host vipl2017 reporting.
  Task       10 on host vipl2017 reporting.
  Task       11 on host vipl2017 reporting.
  Task       12 on host vipl2017 reporting.
  Task       13 on host vipl2017 reporting.
  Task       14 on host vipl2017 reporting.
  Task       15 on host vipl2017 reporting.
  Task       16 on host vipl2017 reporting.
  Task       17 on host vipl2017 reporting.
  Task       18 on host vipl2017 reporting.
  Task       19 on host vipl2017 reporting.
  Task       20 on host vipl2017 reporting.
  Task       21 on host vipl2017 reporting.
  Task       22 on host vipl2017 reporting.
  Task       23 on host vipl2017 reporting.
  Task       24 on host vipl2017 reporting.
  Task       25 on host vipl2017 reporting.
  Task       26 on host vipl2017 reporting.
  Task       27 on host vipl2017 reporting.
  Task       28 on host vipl2017 reporting.
  Task       29 on host vipl2017 reporting.
  Task       30 on host vipl2017 reporting.
  Task       31 on host vipl2017 reporting.
  Task       32 on host vipl2017 reporting.
  Task       33 on host vipl2017 reporting.
  Task       34 on host vipl2017 reporting.
  Task       35 on host vipl2017 reporting.
  Task       36 on host vipl2017 reporting.
  Task       37 on host vipl2017 reporting.
  Task       38 on host vipl2017 reporting.
  Task       39 on host vipl2017 reporting.
  Task       40 on host vipl2017 reporting.
  Task       41 on host vipl2017 reporting.
  Task       42 on host vipl2017 reporting.
  Task       43 on host vipl2017 reporting.
  Task       44 on host vipl2017 reporting.
  Task       45 on host vipl2017 reporting.
  Task       46 on host vipl2017 reporting.
  Task       47 on host vipl2017 reporting.
  Task       48 on host vipl2017 reporting.
  Task       49 on host vipl2017 reporting.
  Task       50 on host vipl2017 reporting.
  Task       51 on host vipl2017 reporting.
  Task       52 on host vipl2017 reporting.
  Task       53 on host vipl2017 reporting.
  Task       54 on host vipl2017 reporting.
  Task       55 on host vipl2017 reporting.
  Task       56 on host vipl2017 reporting.
  Task       57 on host vipl2017 reporting.
  Task       58 on host vipl2017 reporting.
  Task       59 on host vipl2017 reporting.
  Task       60 on host vipl2017 reporting.
  Task       61 on host vipl2017 reporting.
  Task       62 on host vipl2017 reporting.
  Task       63 on host vipl2017 reporting.
  Task       64 on host vipl2017 reporting.
  Task       65 on host vipl2017 reporting.
  Task       66 on host vipl2017 reporting.
  Task       67 on host vipl2017 reporting.
  Task       68 on host vipl2017 reporting.
  Task       69 on host vipl2017 reporting.
  Task       70 on host vipl2017 reporting.
  Task       71 on host vipl2017 reporting.
  Task       72 on host vipl2017 reporting.
  Task       73 on host vipl2017 reporting.
  Task       74 on host vipl2017 reporting.
  Task       75 on host vipl2017 reporting.
  Task       76 on host vipl2017 reporting.
  Task       77 on host vipl2017 reporting.
  Task       78 on host vipl2017 reporting.
  Task       79 on host vipl2017 reporting.
  Task       80 on host vipl2017 reporting.
  Task       81 on host vipl2017 reporting.
  Task       82 on host vipl2017 reporting.
  Task       83 on host vipl2017 reporting.
  Task       84 on host vipl2017 reporting.
  Task       85 on host vipl2017 reporting.
  Task       86 on host vipl2017 reporting.
  Task       87 on host vipl2017 reporting.
  Task       88 on host vipl2017 reporting.
  Task       89 on host vipl2017 reporting.
  Task       90 on host vipl2017 reporting.
  Task       91 on host vipl2017 reporting.
  Task       92 on host vipl2017 reporting.
  Task       93 on host vipl2017 reporting.
  Task       94 on host vipl2017 reporting.
  Task       95 on host vipl2017 reporting.
  Task       96 on host vipl2017 reporting.
  Task       97 on host vipl2017 reporting.
  Task       98 on host vipl2017 reporting.
  Task       99 on host vipl2017 reporting.
  Task      100 on host vipl2017 reporting.
  Task      101 on host vipl2017 reporting.
  Task      102 on host vipl2017 reporting.
  Task      103 on host vipl2017 reporting.
  Task      104 on host vipl2017 reporting.
  Task      105 on host vipl2017 reporting.
  Task      106 on host vipl2017 reporting.
  Task      107 on host vipl2017 reporting.
  Task      108 on host vipl2017 reporting.
  Task      109 on host vipl2017 reporting.
  Task      110 on host vipl2017 reporting.
  Task      111 on host vipl2017 reporting.
  Task      112 on host vipl2017 reporting.
  Task      113 on host vipl2017 reporting.
  Task      114 on host vipl2017 reporting.
  Task      115 on host vipl2017 reporting.
  Task      116 on host vipl2017 reporting.
  Task      117 on host vipl2017 reporting.
  Task      118 on host vipl2017 reporting.
  Task      119 on host vipl2017 reporting.
  Task      120 on host vipl2017 reporting.
  Task      121 on host vipl2017 reporting.
  Task      122 on host vipl2017 reporting.
  Task      123 on host vipl2017 reporting.
  Task      124 on host vipl2017 reporting.
  Task      125 on host vipl2017 reporting.
  Task      126 on host vipl2017 reporting.
  Task      127 on host vipl2017 reporting.
  Task      128 on host vipl2021 reporting.
  Task      129 on host vipl2021 reporting.
  Task      130 on host vipl2021 reporting.
  Task      131 on host vipl2021 reporting.
  Task      132 on host vipl2021 reporting.
  Task      133 on host vipl2021 reporting.
  Task      134 on host vipl2021 reporting.
  Task      135 on host vipl2021 reporting.
  Task      136 on host vipl2021 reporting.
  Task      137 on host vipl2021 reporting.
  Task      138 on host vipl2021 reporting.
  Task      139 on host vipl2021 reporting.
  Task      140 on host vipl2021 reporting.
  Task      141 on host vipl2021 reporting.
  Task      142 on host vipl2021 reporting.
  Task      143 on host vipl2021 reporting.
  Task      144 on host vipl2021 reporting.
  Task      145 on host vipl2021 reporting.
  Task      146 on host vipl2021 reporting.
  Task      147 on host vipl2021 reporting.
  Task      148 on host vipl2021 reporting.
  Task      149 on host vipl2021 reporting.
  Task      150 on host vipl2021 reporting.
  Task      151 on host vipl2021 reporting.
  Task      152 on host vipl2021 reporting.
  Task      153 on host vipl2021 reporting.
  Task      154 on host vipl2021 reporting.
  Task      155 on host vipl2021 reporting.
  Task      156 on host vipl2021 reporting.
  Task      157 on host vipl2021 reporting.
  Task      158 on host vipl2021 reporting.
  Task      159 on host vipl2021 reporting.
  Task      160 on host vipl2021 reporting.
  Task      161 on host vipl2021 reporting.
  Task      162 on host vipl2021 reporting.
  Task      163 on host vipl2021 reporting.
  Task      164 on host vipl2021 reporting.
  Task      165 on host vipl2021 reporting.
  Task      166 on host vipl2021 reporting.
  Task      167 on host vipl2021 reporting.
  Task      168 on host vipl2021 reporting.
  Task      169 on host vipl2021 reporting.
  Task      170 on host vipl2021 reporting.
  Task      171 on host vipl2021 reporting.
  Task      172 on host vipl2021 reporting.
  Task      173 on host vipl2021 reporting.
  Task      174 on host vipl2021 reporting.
  Task      175 on host vipl2021 reporting.
  Task      176 on host vipl2021 reporting.
  Task      177 on host vipl2021 reporting.
  Task      178 on host vipl2021 reporting.
  Task      179 on host vipl2021 reporting.
  Task      180 on host vipl2021 reporting.
  Task      181 on host vipl2021 reporting.
  Task      182 on host vipl2021 reporting.
  Task      183 on host vipl2021 reporting.
  Task      184 on host vipl2021 reporting.
  Task      185 on host vipl2021 reporting.
  Task      186 on host vipl2021 reporting.
  Task      187 on host vipl2021 reporting.
  Task      188 on host vipl2021 reporting.
  Task      189 on host vipl2021 reporting.
  Task      190 on host vipl2021 reporting.
  Task      191 on host vipl2021 reporting.
  Task      192 on host vipl2021 reporting.
  Task      193 on host vipl2021 reporting.
  Task      194 on host vipl2021 reporting.
  Task      195 on host vipl2021 reporting.
  Task      196 on host vipl2021 reporting.
  Task      197 on host vipl2021 reporting.
  Task      198 on host vipl2021 reporting.
  Task      199 on host vipl2021 reporting.
  Task      200 on host vipl2021 reporting.
  Task      201 on host vipl2021 reporting.
  Task      202 on host vipl2021 reporting.
  Task      203 on host vipl2021 reporting.
  Task      204 on host vipl2021 reporting.
  Task      205 on host vipl2021 reporting.
  Task      206 on host vipl2021 reporting.
  Task      207 on host vipl2021 reporting.
  Task      208 on host vipl2021 reporting.
  Task      209 on host vipl2021 reporting.
  Task      210 on host vipl2021 reporting.
  Task      211 on host vipl2021 reporting.
  Task      212 on host vipl2021 reporting.
  Task      213 on host vipl2021 reporting.
  Task      214 on host vipl2021 reporting.
  Task      215 on host vipl2021 reporting.
  Task      216 on host vipl2021 reporting.
  Task      217 on host vipl2021 reporting.
  Task      218 on host vipl2021 reporting.
  Task      219 on host vipl2021 reporting.
  Task      220 on host vipl2021 reporting.
  Task      221 on host vipl2021 reporting.
  Task      222 on host vipl2021 reporting.
  Task      223 on host vipl2021 reporting.
  Task      224 on host vipl2021 reporting.
  Task      225 on host vipl2021 reporting.
  Task      226 on host vipl2021 reporting.
  Task      227 on host vipl2021 reporting.
  Task      228 on host vipl2021 reporting.
  Task      229 on host vipl2021 reporting.
  Task      230 on host vipl2021 reporting.
  Task      231 on host vipl2021 reporting.
  Task      232 on host vipl2021 reporting.
  Task      233 on host vipl2021 reporting.
  Task      234 on host vipl2021 reporting.
  Task      235 on host vipl2021 reporting.
  Task      236 on host vipl2021 reporting.
  Task      237 on host vipl2021 reporting.
  Task      238 on host vipl2021 reporting.
  Task      239 on host vipl2021 reporting.
  Task      240 on host vipl2021 reporting.
  Task      241 on host vipl2021 reporting.
  Task      242 on host vipl2021 reporting.
  Task      243 on host vipl2021 reporting.
  Task      244 on host vipl2021 reporting.
  Task      245 on host vipl2021 reporting.
  Task      246 on host vipl2021 reporting.
  Task      247 on host vipl2021 reporting.
  Task      248 on host vipl2021 reporting.
  Task      249 on host vipl2021 reporting.
  Task      250 on host vipl2021 reporting.
  Task      251 on host vipl2021 reporting.
  Task      252 on host vipl2021 reporting.
  Task      253 on host vipl2021 reporting.
  Task      254 on host vipl2021 reporting.
  Task      255 on host vipl2021 reporting.

  Obtaining array dimensions for all initial allocations:
  
  -----------------------------------------------------------------------
  Parsing control.in (first pass over file, find array dimensions only).
  The contents of control.in will be repeated verbatim below
  unless switched off by setting 'verbatim_writeout .false.' .
  in the first line of control.in .
  -----------------------------------------------------------------------
  
  xc                           pw-lda
  relativistic                 atomic_zora scalar
  spin                         none
  k_grid                       2 2 2
  sc_accuracy_rho              1d-2
  elsi_restart                 read
  KS_method                    parallel
  
  
  ################################################################################
  #
  #  FHI-aims code project
  #  Volker Blum, 2020
  #
  #  Suggested "intermediate" defaults for Mg atom (to be pasted into control.in file)
  #
  ################################################################################
    species        Mg
  #     global species definitions
      nucleus             12
      mass                24.3050
  #
      l_hartree           6
  #
      cut_pot             5.0          2.0  1.0
      basis_dep_cutoff    1e-4
  #
      radial_base         40 7.0
      radial_multiplier   2
      angular_grids       specified
        division   0.5421   50
        division   0.8500  110
        division   1.0736  194
        division   1.1879  302
        division   1.2806  434
  #      division   1.4147  590
  #      division   1.4867  770
  #      division   1.6422  974
  #      division   2.6134 1202
  #      outer_grid   974
        outer_grid  434
  ################################################################################
  #
  #  Definition of "minimal" basis
  #
  ################################################################################
  #     valence basis states
      valence      3  s   2.
      valence      2  p   6.
  #     ion occupancy
      ion_occ      2  s   2.
      ion_occ      2  p   6.
  ################################################################################
  #
  #  Suggested additional basis functions. For production calculations,
  #  uncomment them one after another (the most important basis functions are
  #  listed first).
  #
  #  Constructed for dimers: 2.125 A, 2.375 A, 2.875 A, 3.375 A, 4.5 A
  #
  ################################################################################
  #  "First tier" - improvements: -230.76 meV to -21.94 meV
       hydro 2 p 1.5
       ionic 3 d auto
       hydro 3 s 2.4
  #  "Second tier" - improvements: -5.43 meV to -1.64 meV
       hydro 4 f 4.3
  #     hydro 2 p 3.4
  #     hydro 4 s 11.2
  #     hydro 3 d 6.2
  #  "Third tier" - improvements: -0.92 meV to -0.22 meV
  #     hydro 2 s 0.6
  #     hydro 3 p 4.8
  #     hydro 4 f 7.4
  #     hydro 5 g 6.6
  #     hydro 2 p 1.6
  #     hydro 3 d 1.8
  #  "Fourth tier" - improvements: -0.09 meV to -0.05 meV
  #     hydro 4 p 0.45
  #     hydro 5 g 10.4
  #     hydro 2 s 12.4
  #     hydro 4 d 1.7
  ################################################################################
  #
  # For methods that use the localized form of the "resolution of identity" for
  # the two-electron Coulomb operator (RI_method LVL), particularly Hartree-Fock and
  # hybrid density functional calculations, the highest accuracy can be obtained by
  # uncommenting the line beginning with "for_aux"  below, thus adding an extra g radial
  # function to the construction of the product basis set for the expansion.
  # See Ref. New J. Phys. 17, 093020 (2015) for more information, particularly Figs. 1 and 6.
  #
  ################################################################################
  #
  # for_aux hydro 5 g 6.0
  ################################################################################
  #
  #  FHI-aims code project
  #  Volker Blum, 2017
  #
  #  Suggested "intermediate" defaults for O atom (to be pasted into control.in file)
  #
  ################################################################################
    species        O
  #     global species definitions
      nucleus             8
      mass                15.9994
  #
      l_hartree           6
  #
      cut_pot             4.0  2.0  1.0
      basis_dep_cutoff    1e-4
  #
      radial_base         36 7.0
      radial_multiplier   2
       angular_grids specified
        division   0.1817   50
        division   0.3417  110
        division   0.4949  194
        division   0.6251  302
        division   0.8014  434
  #      division   0.8507  590
  #      division   0.8762  770
  #      division   0.9023  974
  #      division   1.2339 1202
  #      outer_grid 974
        outer_grid  434
  ################################################################################
  #
  #  Definition of "minimal" basis
  #
  ################################################################################
  #     valence basis states
      valence      2  s   2.
      valence      2  p   4.
  #     ion occupancy
      ion_occ      2  s   1.
      ion_occ      2  p   3.
  ################################################################################
  #
  #  Suggested additional basis functions. For production calculations,
  #  uncomment them one after another (the most important basis functions are
  #  listed first).
  #
  #  Constructed for dimers: 1.0 A, 1.208 A, 1.5 A, 2.0 A, 3.0 A
  #
  ################################################################################
  #  "First tier" - improvements: -699.05 meV to -159.38 meV
       hydro 2 p 1.8
       hydro 3 d 7.6
       hydro 3 s 6.4
  #  "Second tier" - improvements: -49.91 meV to -5.39 meV
       hydro 4 f 11.6
  #     hydro 3 p 6.2
  #     hydro 3 d 5.6
    for_aux    hydro 5 g 17.6
  #     hydro 1 s 0.75
  #  "Third tier" - improvements: -2.83 meV to -0.50 meV
  #     ionic 2 p auto
  #     hydro 4 f 10.8
  #     hydro 4 d 4.7
  #     hydro 2 s 6.8
  #  "Fourth tier" - improvements: -0.40 meV to -0.12 meV
  #     hydro 3 p 5
  #     hydro 3 s 3.3
  #     hydro 5 g 15.6
  #     hydro 4 f 17.6
  #     hydro 4 d 14
  # Further basis functions - -0.08 meV and below
  #     hydro 3 s 2.1
  #     hydro 4 d 11.6
  #     hydro 3 p 16
  #     hydro 2 s 17.2
  
  -----------------------------------------------------------------------
  Completed first pass over input file control.in .
  -----------------------------------------------------------------------
  
  
  -----------------------------------------------------------------------
  Parsing geometry.in (first pass over file, find array dimensions only).
  The contents of geometry.in will be repeated verbatim below
  unless switched off by setting 'verbatim_writeout .false.' .
  in the first line of geometry.in .
  -----------------------------------------------------------------------
  
  #===============================================================================
  # Created using the Atomic Simulation Environment (ASE)
  
  # Sun May 17 15:17:34 2026
  
  #=======================================================
  lattice_vector -0.0000012107310000 6.3312956512440000 6.3312956513280003
  lattice_vector 6.3312972382499995 0.0000006053430000 6.3312964829790008
  lattice_vector 6.3312972381420005 6.3312964827840004 0.0000006051300000
  atom 0.0000000000780860 0.0000000000400982 0.0000000000801964 Mg
  atom -0.0000004034989140 2.1104318837880980 2.1104318838561964 Mg
  atom -0.0000008070759140 4.2208637675360974 4.2208637676321965 Mg
  atom 2.1104324128280858 0.0000002018210982 2.1104321610731969 Mg
  atom 2.1104320092510855 2.1104320855690979 4.2208640448491970 Mg
  atom 2.1104316056740857 4.2208639693170973 6.3312959286251971 Mg
  atom 4.2208648255780847 0.0000004036020982 4.2208643220661966 Mg
  atom 4.2208644220010854 2.1104322873500978 6.3312962058421967 Mg
  atom 4.2208640184240851 4.2208641710980972 8.4417280896181968 Mg
  atom 2.1104324127920862 2.1104321609680983 0.0000002017901964 Mg
  atom 2.1104320092150859 4.2208640447160981 2.1104320855661962 Mg
  atom 2.1104316056380861 6.3312959284640975 4.2208639693421963 Mg
  atom 4.2208648255420860 2.1104323627490982 2.1104323627831967 Mg
  atom 4.2208644219650857 4.2208642464970980 4.2208642465591968 Mg
  atom 4.2208640183880863 6.3312961302450974 6.3312961303351969 Mg
  atom 6.3312972382920849 2.1104325645300981 4.2208645237761964 Mg
  atom 6.3312968347150855 4.2208644482780979 6.3312964075521965 Mg
  atom 6.3312964311380853 6.3312963320260973 8.4417282913281966 Mg
  atom 4.2208648255060854 4.2208643218960979 0.0000004035001964 Mg
  atom 4.2208644219290861 6.3312962056440973 2.1104322872761965 Mg
  atom 4.2208640183520858 8.4417280893920967 4.2208641710521961 Mg
  atom 6.3312972382560853 4.2208645236770979 2.1104325644931969 Mg
  atom 6.3312968346790850 6.3312964074250973 4.2208644482691966 Mg
  atom 6.3312964311020856 8.4417282911730975 6.3312963320451967 Mg
  atom 8.4417296510060851 4.2208647254580978 4.2208647254861962 Mg
  atom 8.4417292474290857 6.3312966092060972 6.3312966092621963 Mg
  atom 8.4417288438520846 8.4417284929540966 8.4417284930381964 Mg
  atom 2.1104322108654139 2.1104321231884016 2.1104321231593035 O
  atom 2.1104318072884136 4.2208640069364014 4.2208640069353036 O
  atom 2.1104314037114138 6.3312958906844017 6.3312958907113028 O
  atom 4.2208646236154133 2.1104323249694015 4.2208642841523032 O
  atom 4.2208642200384139 4.2208642087174013 6.3312961679283033 O
  atom 4.2208638164614136 6.3312960924654016 8.4417280517043043 O
  atom 6.3312970363654140 2.1104325267504014 6.3312964451453047 O
  atom 6.3312966327884137 4.2208644104984021 8.4417283289213056 O
  atom 6.3312962292114134 6.3312962942464015 10.5521602126973058 O
  atom 4.2208646235794136 4.2208642841164012 2.1104323248693038 O
  atom 4.2208642200024133 6.3312961678644015 4.2208642086453034 O
  atom 4.2208638164254140 8.4417280516124009 6.3312960924213026 O
  atom 6.3312970363294134 4.2208644858974012 4.2208644858623030 O
  atom 6.3312966327524132 6.3312963696454014 6.3312963696383031 O
  atom 6.3312962291754129 8.4417282533934017 8.4417282534143041 O
  atom 8.4417294490794141 4.2208646876784011 6.3312966468553045 O
  atom 8.4417290455024130 6.3312965714264013 8.4417285306313055 O
  atom 8.4417286419254136 8.4417284551744007 10.5521604144073056 O
  atom 6.3312970362934138 6.3312964450444014 2.1104325265793036 O
  atom 6.3312966327164144 8.4417283287924025 4.2208644103553041 O
  atom 6.3312962291394141 10.5521602125404019 6.3312962941313033 O
  atom 8.4417294490434145 6.3312966468254022 4.2208646875723037 O
  atom 8.4417290454664133 8.4417285305734016 6.3312965713483038 O
  atom 8.4417286418894140 10.5521604143214027 8.4417284551243039 O
  atom 10.5521618617934152 6.3312968486064021 6.3312968485653052 O
  atom 10.5521614582164140 8.4417287323544024 8.4417287323413053 O
  atom 10.5521610546394147 10.5521606161024017 10.5521606161173054 O
  
  -----------------------------------------------------------------------
  Completed first pass over input file geometry.in .
  -----------------------------------------------------------------------
  

  Basic array size parameters:
  | Number of species                 :        2
  | Number of atoms                   :       54
  | Number of lattice vectors         :        3
  | Max. basis fn. angular momentum   :        4
  | Max. atomic/ionic basis occupied n:        3
  | Max. number of basis fn. types    :        3
  | Max. radial fns per species/type  :        5
  | Max. logarithmic grid size        :     1334
  | Max. radial integration grid size :       81
  | Max. angular integration grid size:      434
  | Max. angular grid division number :        8
  | Radial grid for Hartree potential :     1334
  | Number of spin channels           :        1

  Definition of standardized fundamental physical constants in this FHI-aims run:
  | Using the set of values used in FHI-aims up to 2024, which combines values from
  | different CODATA sets - see constants.f90.
  | Use the 'codata' keyword in control.in to change this selection.

  Memory overcommitment is allowed on your operating system.

------------------------------------------------------------
          Reading file control.in.
------------------------------------------------------------
  XC: Using Perdew-Wang parametrisation of Ceperley-Alder LDA.
  Scalar relativistic treatment of kinetic energy: on-site free-atom approximation to ZORA.
  Spin treatment: No spin polarisation.
  Found k-point grid:         2         2         2
  Convergence accuracy of self-consistent charge density:  0.1000E-01
  Using elsi_restart infrastructure.
  Restarting calculation from saved density matrices.
  Kohn-Sham electronic structure solved by the ELSI library.
 
  Reading configuration options for species Mg                  .
  | Found nuclear charge :  12.0000
  | Found atomic mass :    24.3050000000000      amu
  | Found l_max for Hartree potential  :   6
  | Found cutoff potl. onset [A], width [A], scale factor :    5.00000    2.00000    1.00000
  | Threshold for basis-dependent cutoff potential is   0.100000E-03
  | Found data for basic radial integration grid :    40 points, outermost radius =    7.000 A
  | Found multiplier for basic radial grid :   2
  | Found angular grid specification: user-specified.
  | Specified grid contains     6 separate shells.
  | Check grid settings after all constraints further below.
  | Found free-atom valence shell :  3 s   2.000
  | Found free-atom valence shell :  2 p   6.000
  | Found free-ion valence shell :  2 s   2.000
  | Found free-ion valence shell :  2 p   6.000
  | Found hydrogenic basis function :  2 p   1.500
  | Found ionic basis function :  3 d , default cutoff radius.
  | Found hydrogenic basis function :  3 s   2.400
  | Found hydrogenic basis function :  4 f   4.300
 | Encountered keyword species, ending the description of species Mg                  .
  Species Mg                  : Missing cutoff potential type.
  Defaulting to exp(1/x)/(1-x)^2 type cutoff potential.
  Species Mg: No 'logarithmic' tag. Using default grid for free atom:
  | Default logarithmic grid data [bohr] : 0.1000E-03 0.1000E+03 0.1012E+01
  | Will include ionic basis functions of  2.0-fold positive Mg                   ion.
  Species Mg: On-site basis accuracy parameter (for Gram-Schmidt orthonormalisation) not specified.
  Using default value basis_acc =  0.1000000E-03.
  Species Mg                  : Using default innermost maximum threshold i_radial=  2 for radial functions.
  Species Mg                  : Default cutoff onset for free atom density etc. : 0.50000000E+01 AA.
  Species Mg                  : Basic radial grid will be enhanced according to radial_multiplier =   2, to contain    81 grid points.
 
  Reading configuration options for species O                   .
  | Found nuclear charge :   8.0000
  | Found atomic mass :    15.9994000000000      amu
  | Found l_max for Hartree potential  :   6
  | Found cutoff potl. onset [A], width [A], scale factor :    4.00000    2.00000    1.00000
  | Threshold for basis-dependent cutoff potential is   0.100000E-03
  | Found data for basic radial integration grid :    36 points, outermost radius =    7.000 A
  | Found multiplier for basic radial grid :   2
  | Found angular grid specification: user-specified.
  | Specified grid contains     6 separate shells.
  | Check grid settings after all constraints further below.
  | Found free-atom valence shell :  2 s   2.000
  | Found free-atom valence shell :  2 p   4.000
  | Found free-ion valence shell :  2 s   1.000
  | Found free-ion valence shell :  2 p   3.000
  | Found hydrogenic basis function :  2 p   1.800
  | Found hydrogenic basis function :  3 d   7.600
  | Found hydrogenic basis function :  3 s   6.400
  | Found hydrogenic basis function :  4 f  11.600
  | Found hydrogenic extended basis function :  5 g  17.600
  Species O                   : Missing cutoff potential type.
  Defaulting to exp(1/x)/(1-x)^2 type cutoff potential.
  Species O : No 'logarithmic' tag. Using default grid for free atom:
  | Default logarithmic grid data [bohr] : 0.1000E-03 0.1000E+03 0.1012E+01
  Species O : On-site basis accuracy parameter (for Gram-Schmidt orthonormalisation) not specified.
  Using default value basis_acc =  0.1000000E-03.
  Species O                   : Using default innermost maximum threshold i_radial=  2 for radial functions.
  Species O                   : Default cutoff onset for free atom density etc. : 0.40000000E+01 AA.
  Species O                   : Basic radial grid will be enhanced according to radial_multiplier =   2, to contain    73 grid points.
 
  Finished reading input file 'control.in'.
 
------------------------------------------------------------


------------------------------------------------------------
          Reading geometry description geometry.in.
------------------------------------------------------------
  | The smallest distance between any two atoms is         2.11043192 AA.
  | The first atom of this pair is atom number                     10 .
  | The second atom of this pair is atom number                    43 .
  | Wigner-Seitz cell of the first atom image           0     0     0 .
  | (The Wigner-Seitz cell of the second atom is 0 0 0  by definition.)

  Symmetry information by spglib:
  | Precision set to  0.1E-04
  | Number of Operations  : 1296
  | Space group           : 225
  | International         : Fm-3m
  | Schoenflies           : Oh^5
  Input structure read successfully.
  The structure contains       54 atoms,  and a total of        540.000 electrons.

  Input geometry:
  | Unit cell:
  |       -0.00000121        6.33129565        6.33129565
  |        6.33129724        0.00000061        6.33129648
  |        6.33129724        6.33129648        0.00000061
  | Atomic structure:
  |       Atom                x [A]            y [A]            z [A]
  |    1: Species Mg            0.00000000        0.00000000        0.00000000
  |    2: Species Mg           -0.00000040        2.11043188        2.11043188
  |    3: Species Mg           -0.00000081        4.22086377        4.22086377
  |    4: Species Mg            2.11043241        0.00000020        2.11043216
  |    5: Species Mg            2.11043201        2.11043209        4.22086404
  |    6: Species Mg            2.11043161        4.22086397        6.33129593
  |    7: Species Mg            4.22086483        0.00000040        4.22086432
  |    8: Species Mg            4.22086442        2.11043229        6.33129621
  |    9: Species Mg            4.22086402        4.22086417        8.44172809
  |   10: Species Mg            2.11043241        2.11043216        0.00000020
  |   11: Species Mg            2.11043201        4.22086404        2.11043209
  |   12: Species Mg            2.11043161        6.33129593        4.22086397
  |   13: Species Mg            4.22086483        2.11043236        2.11043236
  |   14: Species Mg            4.22086442        4.22086425        4.22086425
  |   15: Species Mg            4.22086402        6.33129613        6.33129613
  |   16: Species Mg            6.33129724        2.11043256        4.22086452
  |   17: Species Mg            6.33129683        4.22086445        6.33129641
  |   18: Species Mg            6.33129643        6.33129633        8.44172829
  |   19: Species Mg            4.22086483        4.22086432        0.00000040
  |   20: Species Mg            4.22086442        6.33129621        2.11043229
  |   21: Species Mg            4.22086402        8.44172809        4.22086417
  |   22: Species Mg            6.33129724        4.22086452        2.11043256
  |   23: Species Mg            6.33129683        6.33129641        4.22086445
  |   24: Species Mg            6.33129643        8.44172829        6.33129633
  |   25: Species Mg            8.44172965        4.22086473        4.22086473
  |   26: Species Mg            8.44172925        6.33129661        6.33129661
  |   27: Species Mg            8.44172884        8.44172849        8.44172849
  |   28: Species O             2.11043221        2.11043212        2.11043212
  |   29: Species O             2.11043181        4.22086401        4.22086401
  |   30: Species O             2.11043140        6.33129589        6.33129589
  |   31: Species O             4.22086462        2.11043232        4.22086428
  |   32: Species O             4.22086422        4.22086421        6.33129617
  |   33: Species O             4.22086382        6.33129609        8.44172805
  |   34: Species O             6.33129704        2.11043253        6.33129645
  |   35: Species O             6.33129663        4.22086441        8.44172833
  |   36: Species O             6.33129623        6.33129629       10.55216021
  |   37: Species O             4.22086462        4.22086428        2.11043232
  |   38: Species O             4.22086422        6.33129617        4.22086421
  |   39: Species O             4.22086382        8.44172805        6.33129609
  |   40: Species O             6.33129704        4.22086449        4.22086449
  |   41: Species O             6.33129663        6.33129637        6.33129637
  |   42: Species O             6.33129623        8.44172825        8.44172825
  |   43: Species O             8.44172945        4.22086469        6.33129665
  |   44: Species O             8.44172905        6.33129657        8.44172853
  |   45: Species O             8.44172864        8.44172846       10.55216041
  |   46: Species O             6.33129704        6.33129645        2.11043253
  |   47: Species O             6.33129663        8.44172833        4.22086441
  |   48: Species O             6.33129623       10.55216021        6.33129629
  |   49: Species O             8.44172945        6.33129665        4.22086469
  |   50: Species O             8.44172905        8.44172853        6.33129657
  |   51: Species O             8.44172864       10.55216041        8.44172846
  |   52: Species O            10.55216186        6.33129685        6.33129685
  |   53: Species O            10.55216146        8.44172873        8.44172873
  |   54: Species O            10.55216105       10.55216062       10.55216062

  Lattice parameters for 3D lattice (in Angstroms) :     8.953804    8.953806    8.953806
  Angle(s) between unit vectors (in degrees)       :    59.999990   60.000005   60.000005


  Quantities derived from the lattice vectors (in Angstrom^-1):
  | Reciprocal lattice vector 1: -0.496201  0.496201  0.496201
  | Reciprocal lattice vector 2:  0.496200 -0.496201  0.496201
  | Reciprocal lattice vector 3:  0.496200  0.496201 -0.496201
  | Unit cell volume                               :   0.507584E+03  Angstrom^3

  Fractional coordinates:
                         L1                L2                L3
       atom_frac         0.00000000        0.00000000        0.00000000  Mg
       atom_frac         0.33333333        0.00000000        0.00000000  Mg
       atom_frac         0.66666667        0.00000000        0.00000000  Mg
       atom_frac         0.00000000        0.33333333        0.00000000  Mg
       atom_frac         0.33333333        0.33333333        0.00000000  Mg
       atom_frac         0.66666667        0.33333333        0.00000000  Mg
       atom_frac         0.00000000        0.66666667        0.00000000  Mg
       atom_frac         0.33333333        0.66666667        0.00000000  Mg
       atom_frac         0.66666667        0.66666667        0.00000000  Mg
       atom_frac         0.00000000        0.00000000        0.33333333  Mg
       atom_frac         0.33333333        0.00000000        0.33333333  Mg
       atom_frac         0.66666667        0.00000000        0.33333333  Mg
       atom_frac         0.00000000        0.33333333        0.33333333  Mg
       atom_frac         0.33333333        0.33333333        0.33333333  Mg
       atom_frac         0.66666667        0.33333333        0.33333333  Mg
       atom_frac         0.00000000        0.66666667        0.33333333  Mg
       atom_frac         0.33333333        0.66666667        0.33333333  Mg
       atom_frac         0.66666667        0.66666667        0.33333333  Mg
       atom_frac         0.00000000        0.00000000        0.66666667  Mg
       atom_frac         0.33333333        0.00000000        0.66666667  Mg
       atom_frac         0.66666667        0.00000000        0.66666667  Mg
       atom_frac         0.00000000        0.33333333        0.66666667  Mg
       atom_frac         0.33333333        0.33333333        0.66666667  Mg
       atom_frac         0.66666667        0.33333333        0.66666667  Mg
       atom_frac         0.00000000        0.66666667        0.66666667  Mg
       atom_frac         0.33333333        0.66666667        0.66666667  Mg
       atom_frac         0.66666667        0.66666667        0.66666667  Mg
       atom_frac         0.16666667        0.16666667        0.16666667  O
       atom_frac         0.50000000        0.16666667        0.16666667  O
       atom_frac         0.83333333        0.16666667        0.16666667  O
       atom_frac         0.16666667        0.50000000        0.16666667  O
       atom_frac         0.50000000        0.50000000        0.16666667  O
       atom_frac         0.83333333        0.50000000        0.16666667  O
       atom_frac         0.16666667        0.83333333        0.16666667  O
       atom_frac         0.50000000        0.83333333        0.16666667  O
       atom_frac         0.83333333        0.83333333        0.16666667  O
       atom_frac         0.16666667        0.16666667        0.50000000  O
       atom_frac         0.50000000        0.16666667        0.50000000  O
       atom_frac         0.83333333        0.16666667        0.50000000  O
       atom_frac         0.16666667        0.50000000        0.50000000  O
       atom_frac         0.50000000        0.50000000        0.50000000  O
       atom_frac         0.83333333        0.50000000        0.50000000  O
       atom_frac         0.16666667        0.83333333        0.50000000  O
       atom_frac         0.50000000        0.83333333        0.50000000  O
       atom_frac         0.83333333        0.83333333        0.50000000  O
       atom_frac         0.16666667        0.16666667        0.83333333  O
       atom_frac         0.50000000        0.16666667        0.83333333  O
       atom_frac         0.83333333        0.16666667        0.83333333  O
       atom_frac         0.16666667        0.50000000        0.83333333  O
       atom_frac         0.50000000        0.50000000        0.83333333  O
       atom_frac         0.83333333        0.50000000        0.83333333  O
       atom_frac         0.16666667        0.83333333        0.83333333  O
       atom_frac         0.50000000        0.83333333        0.83333333  O
       atom_frac         0.83333333        0.83333333        0.83333333  O

  Slab Identifier: This seems to be a bulk system.
 
  Finished reading input file 'geometry.in'.
 

 
  Consistency checks for stacksize environment parameter are next.
 
  | Maximum stacksize for task 0: unlimited
  | Maximum stacksize for task 1: unlimited
  | Maximum stacksize for task 2: unlimited
  | Maximum stacksize for task 3: unlimited
  | Maximum stacksize for task 4: unlimited
  | Maximum stacksize for task 5: unlimited
  | Maximum stacksize for task 6: unlimited
  | Maximum stacksize for task 7: unlimited
  | Maximum stacksize for task 8: unlimited
  | Maximum stacksize for task 9: unlimited
  | Maximum stacksize for task 10: unlimited
  | Maximum stacksize for task 11: unlimited
  | Maximum stacksize for task 12: unlimited
  | Maximum stacksize for task 13: unlimited
  | Maximum stacksize for task 14: unlimited
  | Maximum stacksize for task 15: unlimited
  | Maximum stacksize for task 16: unlimited
  | Maximum stacksize for task 17: unlimited
  | Maximum stacksize for task 18: unlimited
  | Maximum stacksize for task 19: unlimited
  | Maximum stacksize for task 20: unlimited
  | Maximum stacksize for task 21: unlimited
  | Maximum stacksize for task 22: unlimited
  | Maximum stacksize for task 23: unlimited
  | Maximum stacksize for task 24: unlimited
  | Maximum stacksize for task 25: unlimited
  | Maximum stacksize for task 26: unlimited
  | Maximum stacksize for task 27: unlimited
  | Maximum stacksize for task 28: unlimited
  | Maximum stacksize for task 29: unlimited
  | Maximum stacksize for task 30: unlimited
  | Maximum stacksize for task 31: unlimited
  | Maximum stacksize for task 32: unlimited
  | Maximum stacksize for task 33: unlimited
  | Maximum stacksize for task 34: unlimited
  | Maximum stacksize for task 35: unlimited
  | Maximum stacksize for task 36: unlimited
  | Maximum stacksize for task 37: unlimited
  | Maximum stacksize for task 38: unlimited
  | Maximum stacksize for task 39: unlimited
  | Maximum stacksize for task 40: unlimited
  | Maximum stacksize for task 41: unlimited
  | Maximum stacksize for task 42: unlimited
  | Maximum stacksize for task 43: unlimited
  | Maximum stacksize for task 44: unlimited
  | Maximum stacksize for task 45: unlimited
  | Maximum stacksize for task 46: unlimited
  | Maximum stacksize for task 47: unlimited
  | Maximum stacksize for task 48: unlimited
  | Maximum stacksize for task 49: unlimited
  | Maximum stacksize for task 50: unlimited
  | Maximum stacksize for task 51: unlimited
  | Maximum stacksize for task 52: unlimited
  | Maximum stacksize for task 53: unlimited
  | Maximum stacksize for task 54: unlimited
  | Maximum stacksize for task 55: unlimited
  | Maximum stacksize for task 56: unlimited
  | Maximum stacksize for task 57: unlimited
  | Maximum stacksize for task 58: unlimited
  | Maximum stacksize for task 59: unlimited
  | Maximum stacksize for task 60: unlimited
  | Maximum stacksize for task 61: unlimited
  | Maximum stacksize for task 62: unlimited
  | Maximum stacksize for task 63: unlimited
  | Maximum stacksize for task 64: unlimited
  | Maximum stacksize for task 65: unlimited
  | Maximum stacksize for task 66: unlimited
  | Maximum stacksize for task 67: unlimited
  | Maximum stacksize for task 68: unlimited
  | Maximum stacksize for task 69: unlimited
  | Maximum stacksize for task 70: unlimited
  | Maximum stacksize for task 71: unlimited
  | Maximum stacksize for task 72: unlimited
  | Maximum stacksize for task 73: unlimited
  | Maximum stacksize for task 74: unlimited
  | Maximum stacksize for task 75: unlimited
  | Maximum stacksize for task 76: unlimited
  | Maximum stacksize for task 77: unlimited
  | Maximum stacksize for task 78: unlimited
  | Maximum stacksize for task 79: unlimited
  | Maximum stacksize for task 80: unlimited
  | Maximum stacksize for task 81: unlimited
  | Maximum stacksize for task 82: unlimited
  | Maximum stacksize for task 83: unlimited
  | Maximum stacksize for task 84: unlimited
  | Maximum stacksize for task 85: unlimited
  | Maximum stacksize for task 86: unlimited
  | Maximum stacksize for task 87: unlimited
  | Maximum stacksize for task 88: unlimited
  | Maximum stacksize for task 89: unlimited
  | Maximum stacksize for task 90: unlimited
  | Maximum stacksize for task 91: unlimited
  | Maximum stacksize for task 92: unlimited
  | Maximum stacksize for task 93: unlimited
  | Maximum stacksize for task 94: unlimited
  | Maximum stacksize for task 95: unlimited
  | Maximum stacksize for task 96: unlimited
  | Maximum stacksize for task 97: unlimited
  | Maximum stacksize for task 98: unlimited
  | Maximum stacksize for task 99: unlimited
  | Maximum stacksize for task 100: unlimited
  | Maximum stacksize for task 101: unlimited
  | Maximum stacksize for task 102: unlimited
  | Maximum stacksize for task 103: unlimited
  | Maximum stacksize for task 104: unlimited
  | Maximum stacksize for task 105: unlimited
  | Maximum stacksize for task 106: unlimited
  | Maximum stacksize for task 107: unlimited
  | Maximum stacksize for task 108: unlimited
  | Maximum stacksize for task 109: unlimited
  | Maximum stacksize for task 110: unlimited
  | Maximum stacksize for task 111: unlimited
  | Maximum stacksize for task 112: unlimited
  | Maximum stacksize for task 113: unlimited
  | Maximum stacksize for task 114: unlimited
  | Maximum stacksize for task 115: unlimited
  | Maximum stacksize for task 116: unlimited
  | Maximum stacksize for task 117: unlimited
  | Maximum stacksize for task 118: unlimited
  | Maximum stacksize for task 119: unlimited
  | Maximum stacksize for task 120: unlimited
  | Maximum stacksize for task 121: unlimited
  | Maximum stacksize for task 122: unlimited
  | Maximum stacksize for task 123: unlimited
  | Maximum stacksize for task 124: unlimited
  | Maximum stacksize for task 125: unlimited
  | Maximum stacksize for task 126: unlimited
  | Maximum stacksize for task 127: unlimited
  | Maximum stacksize for task 128: unlimited
  | Maximum stacksize for task 129: unlimited
  | Maximum stacksize for task 130: unlimited
  | Maximum stacksize for task 131: unlimited
  | Maximum stacksize for task 132: unlimited
  | Maximum stacksize for task 133: unlimited
  | Maximum stacksize for task 134: unlimited
  | Maximum stacksize for task 135: unlimited
  | Maximum stacksize for task 136: unlimited
  | Maximum stacksize for task 137: unlimited
  | Maximum stacksize for task 138: unlimited
  | Maximum stacksize for task 139: unlimited
  | Maximum stacksize for task 140: unlimited
  | Maximum stacksize for task 141: unlimited
  | Maximum stacksize for task 142: unlimited
  | Maximum stacksize for task 143: unlimited
  | Maximum stacksize for task 144: unlimited
  | Maximum stacksize for task 145: unlimited
  | Maximum stacksize for task 146: unlimited
  | Maximum stacksize for task 147: unlimited
  | Maximum stacksize for task 148: unlimited
  | Maximum stacksize for task 149: unlimited
  | Maximum stacksize for task 150: unlimited
  | Maximum stacksize for task 151: unlimited
  | Maximum stacksize for task 152: unlimited
  | Maximum stacksize for task 153: unlimited
  | Maximum stacksize for task 154: unlimited
  | Maximum stacksize for task 155: unlimited
  | Maximum stacksize for task 156: unlimited
  | Maximum stacksize for task 157: unlimited
  | Maximum stacksize for task 158: unlimited
  | Maximum stacksize for task 159: unlimited
  | Maximum stacksize for task 160: unlimited
  | Maximum stacksize for task 161: unlimited
  | Maximum stacksize for task 162: unlimited
  | Maximum stacksize for task 163: unlimited
  | Maximum stacksize for task 164: unlimited
  | Maximum stacksize for task 165: unlimited
  | Maximum stacksize for task 166: unlimited
  | Maximum stacksize for task 167: unlimited
  | Maximum stacksize for task 168: unlimited
  | Maximum stacksize for task 169: unlimited
  | Maximum stacksize for task 170: unlimited
  | Maximum stacksize for task 171: unlimited
  | Maximum stacksize for task 172: unlimited
  | Maximum stacksize for task 173: unlimited
  | Maximum stacksize for task 174: unlimited
  | Maximum stacksize for task 175: unlimited
  | Maximum stacksize for task 176: unlimited
  | Maximum stacksize for task 177: unlimited
  | Maximum stacksize for task 178: unlimited
  | Maximum stacksize for task 179: unlimited
  | Maximum stacksize for task 180: unlimited
  | Maximum stacksize for task 181: unlimited
  | Maximum stacksize for task 182: unlimited
  | Maximum stacksize for task 183: unlimited
  | Maximum stacksize for task 184: unlimited
  | Maximum stacksize for task 185: unlimited
  | Maximum stacksize for task 186: unlimited
  | Maximum stacksize for task 187: unlimited
  | Maximum stacksize for task 188: unlimited
  | Maximum stacksize for task 189: unlimited
  | Maximum stacksize for task 190: unlimited
  | Maximum stacksize for task 191: unlimited
  | Maximum stacksize for task 192: unlimited
  | Maximum stacksize for task 193: unlimited
  | Maximum stacksize for task 194: unlimited
  | Maximum stacksize for task 195: unlimited
  | Maximum stacksize for task 196: unlimited
  | Maximum stacksize for task 197: unlimited
  | Maximum stacksize for task 198: unlimited
  | Maximum stacksize for task 199: unlimited
  | Maximum stacksize for task 200: unlimited
  | Maximum stacksize for task 201: unlimited
  | Maximum stacksize for task 202: unlimited
  | Maximum stacksize for task 203: unlimited
  | Maximum stacksize for task 204: unlimited
  | Maximum stacksize for task 205: unlimited
  | Maximum stacksize for task 206: unlimited
  | Maximum stacksize for task 207: unlimited
  | Maximum stacksize for task 208: unlimited
  | Maximum stacksize for task 209: unlimited
  | Maximum stacksize for task 210: unlimited
  | Maximum stacksize for task 211: unlimited
  | Maximum stacksize for task 212: unlimited
  | Maximum stacksize for task 213: unlimited
  | Maximum stacksize for task 214: unlimited
  | Maximum stacksize for task 215: unlimited
  | Maximum stacksize for task 216: unlimited
  | Maximum stacksize for task 217: unlimited
  | Maximum stacksize for task 218: unlimited
  | Maximum stacksize for task 219: unlimited
  | Maximum stacksize for task 220: unlimited
  | Maximum stacksize for task 221: unlimited
  | Maximum stacksize for task 222: unlimited
  | Maximum stacksize for task 223: unlimited
  | Maximum stacksize for task 224: unlimited
  | Maximum stacksize for task 225: unlimited
  | Maximum stacksize for task 226: unlimited
  | Maximum stacksize for task 227: unlimited
  | Maximum stacksize for task 228: unlimited
  | Maximum stacksize for task 229: unlimited
  | Maximum stacksize for task 230: unlimited
  | Maximum stacksize for task 231: unlimited
  | Maximum stacksize for task 232: unlimited
  | Maximum stacksize for task 233: unlimited
  | Maximum stacksize for task 234: unlimited
  | Maximum stacksize for task 235: unlimited
  | Maximum stacksize for task 236: unlimited
  | Maximum stacksize for task 237: unlimited
  | Maximum stacksize for task 238: unlimited
  | Maximum stacksize for task 239: unlimited
  | Maximum stacksize for task 240: unlimited
  | Maximum stacksize for task 241: unlimited
  | Maximum stacksize for task 242: unlimited
  | Maximum stacksize for task 243: unlimited
  | Maximum stacksize for task 244: unlimited
  | Maximum stacksize for task 245: unlimited
  | Maximum stacksize for task 246: unlimited
  | Maximum stacksize for task 247: unlimited
  | Maximum stacksize for task 248: unlimited
  | Maximum stacksize for task 249: unlimited
  | Maximum stacksize for task 250: unlimited
  | Maximum stacksize for task 251: unlimited
  | Maximum stacksize for task 252: unlimited
  | Maximum stacksize for task 253: unlimited
  | Maximum stacksize for task 254: unlimited
  | Maximum stacksize for task 255: unlimited
  | Current stacksize for task 0: unlimited
  | Current stacksize for task 1: unlimited
  | Current stacksize for task 2: unlimited
  | Current stacksize for task 3: unlimited
  | Current stacksize for task 4: unlimited
  | Current stacksize for task 5: unlimited
  | Current stacksize for task 6: unlimited
  | Current stacksize for task 7: unlimited
  | Current stacksize for task 8: unlimited
  | Current stacksize for task 9: unlimited
  | Current stacksize for task 10: unlimited
  | Current stacksize for task 11: unlimited
  | Current stacksize for task 12: unlimited
  | Current stacksize for task 13: unlimited
  | Current stacksize for task 14: unlimited
  | Current stacksize for task 15: unlimited
  | Current stacksize for task 16: unlimited
  | Current stacksize for task 17: unlimited
  | Current stacksize for task 18: unlimited
  | Current stacksize for task 19: unlimited
  | Current stacksize for task 20: unlimited
  | Current stacksize for task 21: unlimited
  | Current stacksize for task 22: unlimited
  | Current stacksize for task 23: unlimited
  | Current stacksize for task 24: unlimited
  | Current stacksize for task 25: unlimited
  | Current stacksize for task 26: unlimited
  | Current stacksize for task 27: unlimited
  | Current stacksize for task 28: unlimited
  | Current stacksize for task 29: unlimited
  | Current stacksize for task 30: unlimited
  | Current stacksize for task 31: unlimited
  | Current stacksize for task 32: unlimited
  | Current stacksize for task 33: unlimited
  | Current stacksize for task 34: unlimited
  | Current stacksize for task 35: unlimited
  | Current stacksize for task 36: unlimited
  | Current stacksize for task 37: unlimited
  | Current stacksize for task 38: unlimited
  | Current stacksize for task 39: unlimited
  | Current stacksize for task 40: unlimited
  | Current stacksize for task 41: unlimited
  | Current stacksize for task 42: unlimited
  | Current stacksize for task 43: unlimited
  | Current stacksize for task 44: unlimited
  | Current stacksize for task 45: unlimited
  | Current stacksize for task 46: unlimited
  | Current stacksize for task 47: unlimited
  | Current stacksize for task 48: unlimited
  | Current stacksize for task 49: unlimited
  | Current stacksize for task 50: unlimited
  | Current stacksize for task 51: unlimited
  | Current stacksize for task 52: unlimited
  | Current stacksize for task 53: unlimited
  | Current stacksize for task 54: unlimited
  | Current stacksize for task 55: unlimited
  | Current stacksize for task 56: unlimited
  | Current stacksize for task 57: unlimited
  | Current stacksize for task 58: unlimited
  | Current stacksize for task 59: unlimited
  | Current stacksize for task 60: unlimited
  | Current stacksize for task 61: unlimited
  | Current stacksize for task 62: unlimited
  | Current stacksize for task 63: unlimited
  | Current stacksize for task 64: unlimited
  | Current stacksize for task 65: unlimited
  | Current stacksize for task 66: unlimited
  | Current stacksize for task 67: unlimited
  | Current stacksize for task 68: unlimited
  | Current stacksize for task 69: unlimited
  | Current stacksize for task 70: unlimited
  | Current stacksize for task 71: unlimited
  | Current stacksize for task 72: unlimited
  | Current stacksize for task 73: unlimited
  | Current stacksize for task 74: unlimited
  | Current stacksize for task 75: unlimited
  | Current stacksize for task 76: unlimited
  | Current stacksize for task 77: unlimited
  | Current stacksize for task 78: unlimited
  | Current stacksize for task 79: unlimited
  | Current stacksize for task 80: unlimited
  | Current stacksize for task 81: unlimited
  | Current stacksize for task 82: unlimited
  | Current stacksize for task 83: unlimited
  | Current stacksize for task 84: unlimited
  | Current stacksize for task 85: unlimited
  | Current stacksize for task 86: unlimited
  | Current stacksize for task 87: unlimited
  | Current stacksize for task 88: unlimited
  | Current stacksize for task 89: unlimited
  | Current stacksize for task 90: unlimited
  | Current stacksize for task 91: unlimited
  | Current stacksize for task 92: unlimited
  | Current stacksize for task 93: unlimited
  | Current stacksize for task 94: unlimited
  | Current stacksize for task 95: unlimited
  | Current stacksize for task 96: unlimited
  | Current stacksize for task 97: unlimited
  | Current stacksize for task 98: unlimited
  | Current stacksize for task 99: unlimited
  | Current stacksize for task 100: unlimited
  | Current stacksize for task 101: unlimited
  | Current stacksize for task 102: unlimited
  | Current stacksize for task 103: unlimited
  | Current stacksize for task 104: unlimited
  | Current stacksize for task 105: unlimited
  | Current stacksize for task 106: unlimited
  | Current stacksize for task 107: unlimited
  | Current stacksize for task 108: unlimited
  | Current stacksize for task 109: unlimited
  | Current stacksize for task 110: unlimited
  | Current stacksize for task 111: unlimited
  | Current stacksize for task 112: unlimited
  | Current stacksize for task 113: unlimited
  | Current stacksize for task 114: unlimited
  | Current stacksize for task 115: unlimited
  | Current stacksize for task 116: unlimited
  | Current stacksize for task 117: unlimited
  | Current stacksize for task 118: unlimited
  | Current stacksize for task 119: unlimited
  | Current stacksize for task 120: unlimited
  | Current stacksize for task 121: unlimited
  | Current stacksize for task 122: unlimited
  | Current stacksize for task 123: unlimited
  | Current stacksize for task 124: unlimited
  | Current stacksize for task 125: unlimited
  | Current stacksize for task 126: unlimited
  | Current stacksize for task 127: unlimited
  | Current stacksize for task 128: unlimited
  | Current stacksize for task 129: unlimited
  | Current stacksize for task 130: unlimited
  | Current stacksize for task 131: unlimited
  | Current stacksize for task 132: unlimited
  | Current stacksize for task 133: unlimited
  | Current stacksize for task 134: unlimited
  | Current stacksize for task 135: unlimited
  | Current stacksize for task 136: unlimited
  | Current stacksize for task 137: unlimited
  | Current stacksize for task 138: unlimited
  | Current stacksize for task 139: unlimited
  | Current stacksize for task 140: unlimited
  | Current stacksize for task 141: unlimited
  | Current stacksize for task 142: unlimited
  | Current stacksize for task 143: unlimited
  | Current stacksize for task 144: unlimited
  | Current stacksize for task 145: unlimited
  | Current stacksize for task 146: unlimited
  | Current stacksize for task 147: unlimited
  | Current stacksize for task 148: unlimited
  | Current stacksize for task 149: unlimited
  | Current stacksize for task 150: unlimited
  | Current stacksize for task 151: unlimited
  | Current stacksize for task 152: unlimited
  | Current stacksize for task 153: unlimited
  | Current stacksize for task 154: unlimited
  | Current stacksize for task 155: unlimited
  | Current stacksize for task 156: unlimited
  | Current stacksize for task 157: unlimited
  | Current stacksize for task 158: unlimited
  | Current stacksize for task 159: unlimited
  | Current stacksize for task 160: unlimited
  | Current stacksize for task 161: unlimited
  | Current stacksize for task 162: unlimited
  | Current stacksize for task 163: unlimited
  | Current stacksize for task 164: unlimited
  | Current stacksize for task 165: unlimited
  | Current stacksize for task 166: unlimited
  | Current stacksize for task 167: unlimited
  | Current stacksize for task 168: unlimited
  | Current stacksize for task 169: unlimited
  | Current stacksize for task 170: unlimited
  | Current stacksize for task 171: unlimited
  | Current stacksize for task 172: unlimited
  | Current stacksize for task 173: unlimited
  | Current stacksize for task 174: unlimited
  | Current stacksize for task 175: unlimited
  | Current stacksize for task 176: unlimited
  | Current stacksize for task 177: unlimited
  | Current stacksize for task 178: unlimited
  | Current stacksize for task 179: unlimited
  | Current stacksize for task 180: unlimited
  | Current stacksize for task 181: unlimited
  | Current stacksize for task 182: unlimited
  | Current stacksize for task 183: unlimited
  | Current stacksize for task 184: unlimited
  | Current stacksize for task 185: unlimited
  | Current stacksize for task 186: unlimited
  | Current stacksize for task 187: unlimited
  | Current stacksize for task 188: unlimited
  | Current stacksize for task 189: unlimited
  | Current stacksize for task 190: unlimited
  | Current stacksize for task 191: unlimited
  | Current stacksize for task 192: unlimited
  | Current stacksize for task 193: unlimited
  | Current stacksize for task 194: unlimited
  | Current stacksize for task 195: unlimited
  | Current stacksize for task 196: unlimited
  | Current stacksize for task 197: unlimited
  | Current stacksize for task 198: unlimited
  | Current stacksize for task 199: unlimited
  | Current stacksize for task 200: unlimited
  | Current stacksize for task 201: unlimited
  | Current stacksize for task 202: unlimited
  | Current stacksize for task 203: unlimited
  | Current stacksize for task 204: unlimited
  | Current stacksize for task 205: unlimited
  | Current stacksize for task 206: unlimited
  | Current stacksize for task 207: unlimited
  | Current stacksize for task 208: unlimited
  | Current stacksize for task 209: unlimited
  | Current stacksize for task 210: unlimited
  | Current stacksize for task 211: unlimited
  | Current stacksize for task 212: unlimited
  | Current stacksize for task 213: unlimited
  | Current stacksize for task 214: unlimited
  | Current stacksize for task 215: unlimited
  | Current stacksize for task 216: unlimited
  | Current stacksize for task 217: unlimited
  | Current stacksize for task 218: unlimited
  | Current stacksize for task 219: unlimited
  | Current stacksize for task 220: unlimited
  | Current stacksize for task 221: unlimited
  | Current stacksize for task 222: unlimited
  | Current stacksize for task 223: unlimited
  | Current stacksize for task 224: unlimited
  | Current stacksize for task 225: unlimited
  | Current stacksize for task 226: unlimited
  | Current stacksize for task 227: unlimited
  | Current stacksize for task 228: unlimited
  | Current stacksize for task 229: unlimited
  | Current stacksize for task 230: unlimited
  | Current stacksize for task 231: unlimited
  | Current stacksize for task 232: unlimited
  | Current stacksize for task 233: unlimited
  | Current stacksize for task 234: unlimited
  | Current stacksize for task 235: unlimited
  | Current stacksize for task 236: unlimited
  | Current stacksize for task 237: unlimited
  | Current stacksize for task 238: unlimited
  | Current stacksize for task 239: unlimited
  | Current stacksize for task 240: unlimited
  | Current stacksize for task 241: unlimited
  | Current stacksize for task 242: unlimited
  | Current stacksize for task 243: unlimited
  | Current stacksize for task 244: unlimited
  | Current stacksize for task 245: unlimited
  | Current stacksize for task 246: unlimited
  | Current stacksize for task 247: unlimited
  | Current stacksize for task 248: unlimited
  | Current stacksize for task 249: unlimited
  | Current stacksize for task 250: unlimited
  | Current stacksize for task 251: unlimited
  | Current stacksize for task 252: unlimited
  | Current stacksize for task 253: unlimited
  | Current stacksize for task 254: unlimited
  | Current stacksize for task 255: unlimited
 
  Consistency checks for the contents of control.in are next.
 
  MPI_IN_PLACE appears to work with this MPI implementation.
  | Keeping use_mpi_in_place .true. (see manual).
  Target number of points in a grid batch is not set. Defaulting to  100
  Method for grid partitioning is not set. Defaulting to parallel hash+maxmin partitioning.
  Batch size limit is not set. Defaulting to    200
  By default, will store active basis functions for each batch.
  If in need of memory, prune_basis_once .false. can be used to disable this option.
  communication_type for Hartree potential was not specified.
  Defaulting to calc_hartree .
  Defaulting to Pulay charge density mixer.
  Pulay mixer: Number of relevant iterations not set.
  Defaulting to    8 iterations.
  Pulay mixer: Number of initial linear mixing iterations not set.
  Defaulting to    0 iterations.
  Work space size for distributed Hartree potential not set.
  Defaulting to   0.200000E+03 MB.
  Mixing parameter for charge density mixing has not been set.
  Using default: charge_mix_param =     0.0500.
  The mixing parameter will be adjusted in iteration number     2 of each s.c.f. cycle (i.e., each geometry step).
  Algorithm-dependent basis array size parameters:
  | n_max_pulay                         :        8
  Maximum number of self-consistency iterations not provided.
  Presetting  1000 iterations.
  Presetting      1001 iterations before the initial mixing cycle
  is restarted anyway using the sc_init_iter criterion / keyword.
  Presetting a factor      1.000 between actual scf density residual
  and density convergence criterion sc_accuracy_rho below which sc_init_iter
  takes no effect.
  Calculation of forces was not defined in control.in. No forces will be calculated.
  Geometry relaxation not requested: no relaxation will be performed.
  No accuracy limit for integral partition fn. given. Defaulting to  0.1000E-14.
  No threshold value for u(r) in integrations given. Defaulting to  0.1000E-05.
  No occupation type (smearing scheme) given. Defaulting to Gaussian broadening, width =  0.1000E-01 eV.
  The width will be adjusted in iteration number     2 of each s.c.f. cycle (i.e., each geometry step).
  No accuracy for occupation numbers given. Defaulting to  0.1000E-12.
  No threshold value for occupation numbers given. Defaulting to  0.0000E+00.
  No accuracy for fermi level given. Defaulting to  0.1000E-19.
  Maximum # of iterations to find E_F not set. Defaulting to  200.
  Maximum number of tasks per SMP nodenot specified.
  Presetting   512 tasks.
  Threshold for basis singularities not set.
  Default threshold for basis singularities:  0.1000E-04
  partition_type (choice of integration weights) for integrals was not specified.
  | Using a version of the partition function of Stratmann and coworkers ('stratmann_sparse').
  | At each grid point, the set of atoms used to build the partition table is smoothly restricted to
  | only those atoms whose free-atom density would be non-zero at that grid point.
  Partitioning for Hartree potential was not defined. Using partition_type for integrals.
  | Adjusted default value of keyword multip_moments_threshold to:       0.10000000E-11
  | This value may affect high angular momentum components of the Hartree potential in periodic systems.
  Using 2025 definition of centers list for evaluation of the Stratmann partition function.
  No q(lm)/r^(l+1) cutoff set for long-range Hartree potential.
  | Using default value of  0.100000E-09 .
  | Verify using the multipole_threshold keyword.
  Defaulting to new monopole extrapolation.
  Density update method: automatic selection selected.
  Using density matrix based charge density update.
  Using density matrix based charge density update.
  Using packed matrix style: index .
  Threshold of packed matrixes:  0.000000E+00
  Defaulting to use time-reversal symmetry for k-point grid.
  Charge integration errors on the 3D integration grid will be compensated
  by explicit normalization and distribution of residual charges.
  Use the "compensate_multipole_errors" flag to change this behaviour.
  Found no potential conflicts with setting 'use_local_index' for this calculation.
  Flag 'use_local_index' has not been set.
  Testing whether we classify this calculation as large-scale ...
  The calculation contains less than 100 atoms. This is most likely not a large-scale calculation.
  Not setting 'use_local_index'.
 
  Consistency checks for the contents of geometry.in are next.
 

  Range separation radius for Ewald summation (hartree_convergence_parameter):      2.90111125 bohr.
  Number of empty states per atom not set in control.in - providing a guess from actual geometry.
  | Total number of empty states used during s.c.f. cycle:      162
  If you use a very high smearing, use empty_states (per atom!) in control.in to increase this value.

  Structure-dependent array size parameters: 
  | Maximum number of distinct radial functions  :       16
  | Maximum number of basis functions            :     1404
  | Number of Kohn-Sham states (occupied + empty):      432
------------------------------------------------------------

  Checking k-grid inconsistencies now:
  | k-point density for reciprocal lattice vector 1 is    2.33 nkpts / Angstrom^-1
  | k-point density for reciprocal lattice vector 2 is    2.33 nkpts / Angstrom^-1
  | k-point density for reciprocal lattice vector 3 is    2.33 nkpts / Angstrom^-1

  | Ratio of k-point densities for reciprocal lattice vectors 1 vs 2 is    1.00
  | Ratio of k-point densities for reciprocal lattice vectors 1 vs 3 is    1.00
  | Ratio of k-point densities for reciprocal lattice vectors 2 vs 3 is    1.00

  * The specified k_grid leads to a nearly homogenous k-grid density in non-vacuum directions,
  * and seems sensible.

  | Checks passed.
  After read_input_data [GB]:   1015.51

  Performing system and environment tests:
  | Environment variable OMP_NUM_THREADS correctly set to 1.
  | Checking for ScaLAPACK...
  | Testing pdtran()...
  | All pdtran() tests passed.
  | Testing CPU compatibility for run-time vs. build-time.
  | Reading /proc/cpuinfo for CPU information ...
  | Built for  : AMD EPYC 9554 64-Core Processor
  | Running on : AMD EPYC 9554 64-Core Processor
  | Runtime CPU compatibility verified.
  
  After prepare_system [GB]:   1015.43

------------------------------------------------------------
          Preparing all fixed parts of the calculation.
------------------------------------------------------------
  Determining machine precision:
    2.225073858507201E-308
  Setting up grids for atomic and cluster calculations.

  Creating wave function, potential, and density for free atoms.
  Runtime choices for atomic solver:
  | atomic solver xc        : PW-LDA
  | compute density gradient: 0
  | compute kinetic density : F

  Species: Mg

  List of occupied orbitals and eigenvalues:
    n    l              occ      energy [Ha]    energy [eV]
    1    0           2.0000       -46.135994     -1255.4243
    2    0           2.0000        -2.913553       -79.2818
    3    0           2.0000        -0.175161        -4.7664
    2    1           6.0000        -1.716378       -46.7050


  Species: O

  List of occupied orbitals and eigenvalues:
    n    l              occ      energy [Ha]    energy [eV]
    1    0           2.0000       -18.786458      -511.2055
    2    0           2.0000        -0.872894       -23.7527
    2    1           4.0000        -0.337952        -9.1962


  Adding cutoff potential to free-atom effective potential.
  Creating fixed part of basis set: Ionic, confined, hydrogenic.
 
  Mg                   ion:
  Runtime choices for ionic solver:
  | ionic solver xc        : PW-LDA

  List of free ionic orbitals and eigenvalues:
    n    l      energy [Ha]    energy [eV]
    1    0       -46.892989     -1276.0232
    2    0        -3.655333       -99.4667
    2    1        -2.456328       -66.8401


  List of ionic basis orbitals and eigenvalues:
    n    l      energy [Ha]    energy [eV]    outer radius [A]
    3    2        -0.253780        -6.9057       6.433556

 
  Mg                   hydrogenic:
 
  List of hydrogenic basis orbitals: 
    n    l      effective z      eigenvalue [eV]  inner max. [A]     outer max. [A]     outer radius [A]   
    2    1         1.500000        -7.6477           1.412879           1.412879           6.433556
    3    0         2.400000        -8.6076           0.162319           2.871052           6.433556
    4    3         4.300000       -15.7168           1.965416           1.965416           6.433556
 
 
  O                    hydrogenic:
 
  List of hydrogenic basis orbitals: 
    n    l      effective z      eigenvalue [eV]  inner max. [A]     outer max. [A]     outer radius [A]   
    2    1         1.800000       -11.0118           1.178562           1.178562           5.432602
    3    2         7.600000       -87.3182           0.624125           0.624125           3.541477
    3    0         6.400000       -61.9209           0.061167           1.081902           4.306578
    4    3        11.600000      -114.4238           0.731631           0.731631           3.585037
 
  List of extra hydrogenic orbitals for auxiliary basis: 
    n    l      effective z      eigenvalue [eV]  inner max. [A]     outer max. [A]     outer radius [A]   
    5    4        17.600000      -168.5799           0.749740           0.749740           3.372465
 
  Creating atomic-like basis functions for current effective potential.

  Species Mg                  :

  List of atomic basis orbitals and eigenvalues:
    n    l      energy [Ha]    energy [eV]    outer radius [A]
    1    0       -46.135994     -1255.4243       0.932375
    2    0        -2.913553       -79.2818       3.621735
    3    0        -0.175161        -4.7664       6.355385
    2    1        -1.716378       -46.7050       4.513184


  Species O                   :

  List of atomic basis orbitals and eigenvalues:
    n    l      energy [Ha]    energy [eV]    outer radius [A]
    1    0       -18.786458      -511.2055       1.433179
    2    0        -0.872894       -23.7527       5.048385
    2    1        -0.337952        -9.1962       5.301386

  Assembling full basis from fixed parts.
  | Species Mg :   atomic orbital   1 s accepted.
  | Species Mg :   atomic orbital   2 s accepted.
  | Species Mg :   atomic orbital   3 s accepted.
  | Species Mg :    hydro orbital   3 s accepted.
  | Species Mg :   atomic orbital   2 p accepted.
  | Species Mg :    hydro orbital   2 p accepted.
  | Species Mg :    ionic orbital   3 d accepted.
  | Species Mg :    hydro orbital   4 f accepted.
  | Species O :   atomic orbital   1 s accepted.
  | Species O :    hydro orbital   3 s accepted.
  | Species O :   atomic orbital   2 s accepted.
  | Species O :   atomic orbital   2 p accepted.
  | Species O :    hydro orbital   2 p accepted.
  | Species O :    hydro orbital   3 d accepted.
  | Species O :    hydro orbital   4 f accepted.
 
  Basis size parameters after reduction:
  | Total number of radial functions:       15
  | Total number of basis functions :     1161
 
  Assembling extended basis for auxiliary basis.
  | Species Mg :   atomic orbital   1 s accepted.
  | Species Mg :   atomic orbital   2 s accepted.
  | Species Mg :   atomic orbital   3 s accepted.
  | Species Mg :    hydro orbital   3 s accepted.
  | Species Mg :   atomic orbital   2 p accepted.
  | Species Mg :    hydro orbital   2 p accepted.
  | Species Mg :    ionic orbital   3 d accepted.
  | Species Mg :    hydro orbital   4 f accepted.
  | Species O :   atomic orbital   1 s accepted.
  | Species O :    hydro orbital   3 s accepted.
  | Species O :   atomic orbital   2 s accepted.
  | Species O :   atomic orbital   2 p accepted.
  | Species O :    hydro orbital   2 p accepted.
  | Species O :    hydro orbital   3 d accepted.
  | Species O :    hydro orbital   4 f accepted.
  | Species O :    hydro orbital   5 g accepted.
  Per-task memory consumption for arrays in subroutine allocate_ext:
  |           5.497096MB.
 
  Extended basis size parameters after reduction:
  | Total number of radial functions:       16
  | Total number of basis functions :     1404
 
  Testing on-site integration grid accuracy.
  |  Species  Function  <phi|h_atom|phi> (log., in eV)  <phi|h_atom|phi> (rad., in eV)
           1        1              -1255.4242671936              -1255.4242482138
           1        2                -79.2818050321                -79.2818047497
           1        3                 -4.7669578366                 -4.7669897555
           1        4                  2.5908809872                  2.5901371869
           1        5                -46.7050248898                -46.7050248157
           1        6                 -0.8414156717                 -0.8414873021
           1        7                  3.1701059456                  3.1698768094
           1        8                  9.9123385580                  9.9122135681
           2        9               -511.2055257460               -511.2055212647
           2       10                 14.8909316291                 14.8909245888
           2       11                -21.2761098745                -21.2761142506
           2       12                 -9.1961746418                 -9.1961748430
           2       13                  7.8010480239                  7.8010440885
           2       14                 45.7917095645                 45.7917095443
           2       15                 85.3009901325                 85.3009901592

  Preparing densities etc. for the partition functions (integrals / Hartree potential).

  Preparations completed.
  max(cpu_time)          :      0.125 s.
  Wall clock time (cpu1) :      0.126 s.
------------------------------------------------------------
  After prepare_scf [GB]:   1010.45

  Initializing index lists of integration centers etc. from given atomic structure:
  Mapping all atomic coordinates to central unit cell.

  Initializing the k-points
  Using symmetry for reducing the k-points
  | k-points reduced from:        8 to        8
  | Number of k-points                             :         8
  The eigenvectors in the calculations are REAL.
  | Number of basis functions in the Hamiltonian integrals       :     14226
  | Number of basis functions in a single unit cell              :      1161
  | Number of centers in hartree potential                       :      3127
  | Number of centers in hartree multipole                       :      2968
  | Number of centers in electron density summation              :      2364
  | Number of centers in basis integrals                         :      2514
  | Number of centers in integrals                               :       921
  | Number of centers in hamiltonian                             :      2676
  | Number of centers in partition table from touching 0-cell    :      1475
  | Number of centers in partition table total                   :      3484
  | Consuming         12 KiB for k_phase.
  | Number of super-cells (origin) [n_cells]                     :         343
  | Number of super-cells (after PM_index) [n_cells]             :         100
  | Number of super-cells in hamiltonian [n_cells_in_hamiltonian]:         100
  | Size of matrix packed + index [n_hamiltonian_matrix_size]    :     6732964
  After initialize_bc_dependent_lists [GB]:   1008.75

------------------------------------------------------------
          Begin self-consistency loop: Initialization.

          Date     :  20260811, Time     :  180745.643
------------------------------------------------------------
  Available memory per node after initialize_hartree_non_periodic_ewald [GB]:   1008.75
  | Estimated reciprocal-space cutoff momentum G_max:         3.44585923 bohr^-1 .
  | Reciprocal lattice points for long-range Hartree potential:    2420
  Available memory per node after initialize_recip_hartree_potential [GB]:   1008.75
  Checking for possible mapping of k-points to SMP-nodes
  Running on 2 SMP-nodes
  Mapping of k-points to SMP-nodes is *NOT* possible:
  | 8 k-points  : 2 SMP-nodes
 * The calculation will run, but some performance degradation might result.
 * Check the number of actual k-points above, and consider using a number
 * compute nodes that can be divided cleanly by the number of k points
 * (e.g., two k-points per node, two nodes per k-point, etc.).
  Using simple linear distribution as default method for k-point parallelism.
  * Using 256 tasks for Scalapack Eigenvalue solver.
  Detailed listing of tasks and assigned k-points:
   Task     0 k-point     1 on vipl2017
   Task     1 k-point     1 on vipl2017
   Task     2 k-point     1 on vipl2017
   Task     3 k-point     1 on vipl2017
   Task     4 k-point     1 on vipl2017
   Task     5 k-point     1 on vipl2017
   Task     6 k-point     1 on vipl2017
   Task     7 k-point     1 on vipl2017
   Task     8 k-point     1 on vipl2017
   Task     9 k-point     1 on vipl2017
   Task    10 k-point     1 on vipl2017
   Task    11 k-point     1 on vipl2017
   Task    12 k-point     1 on vipl2017
   Task    13 k-point     1 on vipl2017
   Task    14 k-point     1 on vipl2017
   Task    15 k-point     1 on vipl2017
   Task    16 k-point     1 on vipl2017
   Task    17 k-point     1 on vipl2017
   Task    18 k-point     1 on vipl2017
   Task    19 k-point     1 on vipl2017
   Task    20 k-point     1 on vipl2017
   Task    21 k-point     1 on vipl2017
   Task    22 k-point     1 on vipl2017
   Task    23 k-point     1 on vipl2017
   Task    24 k-point     1 on vipl2017
   Task    25 k-point     1 on vipl2017
   Task    26 k-point     1 on vipl2017
   Task    27 k-point     1 on vipl2017
   Task    28 k-point     1 on vipl2017
   Task    29 k-point     1 on vipl2017
   Task    30 k-point     1 on vipl2017
   Task    31 k-point     1 on vipl2017
   Task    32 k-point     2 on vipl2017
   Task    33 k-point     2 on vipl2017
   Task    34 k-point     2 on vipl2017
   Task    35 k-point     2 on vipl2017
   Task    36 k-point     2 on vipl2017
   Task    37 k-point     2 on vipl2017
   Task    38 k-point     2 on vipl2017
   Task    39 k-point     2 on vipl2017
   Task    40 k-point     2 on vipl2017
   Task    41 k-point     2 on vipl2017
   Task    42 k-point     2 on vipl2017
   Task    43 k-point     2 on vipl2017
   Task    44 k-point     2 on vipl2017
   Task    45 k-point     2 on vipl2017
   Task    46 k-point     2 on vipl2017
   Task    47 k-point     2 on vipl2017
   Task    48 k-point     2 on vipl2017
   Task    49 k-point     2 on vipl2017
   Task    50 k-point     2 on vipl2017
   Task    51 k-point     2 on vipl2017
   Task    52 k-point     2 on vipl2017
   Task    53 k-point     2 on vipl2017
   Task    54 k-point     2 on vipl2017
   Task    55 k-point     2 on vipl2017
   Task    56 k-point     2 on vipl2017
   Task    57 k-point     2 on vipl2017
   Task    58 k-point     2 on vipl2017
   Task    59 k-point     2 on vipl2017
   Task    60 k-point     2 on vipl2017
   Task    61 k-point     2 on vipl2017
   Task    62 k-point     2 on vipl2017
   Task    63 k-point     2 on vipl2017
   Task    64 k-point     3 on vipl2017
   Task    65 k-point     3 on vipl2017
   Task    66 k-point     3 on vipl2017
   Task    67 k-point     3 on vipl2017
   Task    68 k-point     3 on vipl2017
   Task    69 k-point     3 on vipl2017
   Task    70 k-point     3 on vipl2017
   Task    71 k-point     3 on vipl2017
   Task    72 k-point     3 on vipl2017
   Task    73 k-point     3 on vipl2017
   Task    74 k-point     3 on vipl2017
   Task    75 k-point     3 on vipl2017
   Task    76 k-point     3 on vipl2017
   Task    77 k-point     3 on vipl2017
   Task    78 k-point     3 on vipl2017
   Task    79 k-point     3 on vipl2017
   Task    80 k-point     3 on vipl2017
   Task    81 k-point     3 on vipl2017
   Task    82 k-point     3 on vipl2017
   Task    83 k-point     3 on vipl2017
   Task    84 k-point     3 on vipl2017
   Task    85 k-point     3 on vipl2017
   Task    86 k-point     3 on vipl2017
   Task    87 k-point     3 on vipl2017
   Task    88 k-point     3 on vipl2017
   Task    89 k-point     3 on vipl2017
   Task    90 k-point     3 on vipl2017
   Task    91 k-point     3 on vipl2017
   Task    92 k-point     3 on vipl2017
   Task    93 k-point     3 on vipl2017
   Task    94 k-point     3 on vipl2017
   Task    95 k-point     3 on vipl2017
   Task    96 k-point     4 on vipl2017
   Task    97 k-point     4 on vipl2017
   Task    98 k-point     4 on vipl2017
   Task    99 k-point     4 on vipl2017
   Task   100 k-point     4 on vipl2017
   Task   101 k-point     4 on vipl2017
   Task   102 k-point     4 on vipl2017
   Task   103 k-point     4 on vipl2017
   Task   104 k-point     4 on vipl2017
   Task   105 k-point     4 on vipl2017
   Task   106 k-point     4 on vipl2017
   Task   107 k-point     4 on vipl2017
   Task   108 k-point     4 on vipl2017
   Task   109 k-point     4 on vipl2017
   Task   110 k-point     4 on vipl2017
   Task   111 k-point     4 on vipl2017
   Task   112 k-point     4 on vipl2017
   Task   113 k-point     4 on vipl2017
   Task   114 k-point     4 on vipl2017
   Task   115 k-point     4 on vipl2017
   Task   116 k-point     4 on vipl2017
   Task   117 k-point     4 on vipl2017
   Task   118 k-point     4 on vipl2017
   Task   119 k-point     4 on vipl2017
   Task   120 k-point     4 on vipl2017
   Task   121 k-point     4 on vipl2017
   Task   122 k-point     4 on vipl2017
   Task   123 k-point     4 on vipl2017
   Task   124 k-point     4 on vipl2017
   Task   125 k-point     4 on vipl2017
   Task   126 k-point     4 on vipl2017
   Task   127 k-point     4 on vipl2017
   Task   128 k-point     5 on vipl2021
   Task   129 k-point     5 on vipl2021
   Task   130 k-point     5 on vipl2021
   Task   131 k-point     5 on vipl2021
   Task   132 k-point     5 on vipl2021
   Task   133 k-point     5 on vipl2021
   Task   134 k-point     5 on vipl2021
   Task   135 k-point     5 on vipl2021
   Task   136 k-point     5 on vipl2021
   Task   137 k-point     5 on vipl2021
   Task   138 k-point     5 on vipl2021
   Task   139 k-point     5 on vipl2021
   Task   140 k-point     5 on vipl2021
   Task   141 k-point     5 on vipl2021
   Task   142 k-point     5 on vipl2021
   Task   143 k-point     5 on vipl2021
   Task   144 k-point     5 on vipl2021
   Task   145 k-point     5 on vipl2021
   Task   146 k-point     5 on vipl2021
   Task   147 k-point     5 on vipl2021
   Task   148 k-point     5 on vipl2021
   Task   149 k-point     5 on vipl2021
   Task   150 k-point     5 on vipl2021
   Task   151 k-point     5 on vipl2021
   Task   152 k-point     5 on vipl2021
   Task   153 k-point     5 on vipl2021
   Task   154 k-point     5 on vipl2021
   Task   155 k-point     5 on vipl2021
   Task   156 k-point     5 on vipl2021
   Task   157 k-point     5 on vipl2021
   Task   158 k-point     5 on vipl2021
   Task   159 k-point     5 on vipl2021
   Task   160 k-point     6 on vipl2021
   Task   161 k-point     6 on vipl2021
   Task   162 k-point     6 on vipl2021
   Task   163 k-point     6 on vipl2021
   Task   164 k-point     6 on vipl2021
   Task   165 k-point     6 on vipl2021
   Task   166 k-point     6 on vipl2021
   Task   167 k-point     6 on vipl2021
   Task   168 k-point     6 on vipl2021
   Task   169 k-point     6 on vipl2021
   Task   170 k-point     6 on vipl2021
   Task   171 k-point     6 on vipl2021
   Task   172 k-point     6 on vipl2021
   Task   173 k-point     6 on vipl2021
   Task   174 k-point     6 on vipl2021
   Task   175 k-point     6 on vipl2021
   Task   176 k-point     6 on vipl2021
   Task   177 k-point     6 on vipl2021
   Task   178 k-point     6 on vipl2021
   Task   179 k-point     6 on vipl2021
   Task   180 k-point     6 on vipl2021
   Task   181 k-point     6 on vipl2021
   Task   182 k-point     6 on vipl2021
   Task   183 k-point     6 on vipl2021
   Task   184 k-point     6 on vipl2021
   Task   185 k-point     6 on vipl2021
   Task   186 k-point     6 on vipl2021
   Task   187 k-point     6 on vipl2021
   Task   188 k-point     6 on vipl2021
   Task   189 k-point     6 on vipl2021
   Task   190 k-point     6 on vipl2021
   Task   191 k-point     6 on vipl2021
   Task   192 k-point     7 on vipl2021
   Task   193 k-point     7 on vipl2021
   Task   194 k-point     7 on vipl2021
   Task   195 k-point     7 on vipl2021
   Task   196 k-point     7 on vipl2021
   Task   197 k-point     7 on vipl2021
   Task   198 k-point     7 on vipl2021
   Task   199 k-point     7 on vipl2021
   Task   200 k-point     7 on vipl2021
   Task   201 k-point     7 on vipl2021
   Task   202 k-point     7 on vipl2021
   Task   203 k-point     7 on vipl2021
   Task   204 k-point     7 on vipl2021
   Task   205 k-point     7 on vipl2021
   Task   206 k-point     7 on vipl2021
   Task   207 k-point     7 on vipl2021
   Task   208 k-point     7 on vipl2021
   Task   209 k-point     7 on vipl2021
   Task   210 k-point     7 on vipl2021
   Task   211 k-point     7 on vipl2021
   Task   212 k-point     7 on vipl2021
   Task   213 k-point     7 on vipl2021
   Task   214 k-point     7 on vipl2021
   Task   215 k-point     7 on vipl2021
   Task   216 k-point     7 on vipl2021
   Task   217 k-point     7 on vipl2021
   Task   218 k-point     7 on vipl2021
   Task   219 k-point     7 on vipl2021
   Task   220 k-point     7 on vipl2021
   Task   221 k-point     7 on vipl2021
   Task   222 k-point     7 on vipl2021
   Task   223 k-point     7 on vipl2021
   Task   224 k-point     8 on vipl2021
   Task   225 k-point     8 on vipl2021
   Task   226 k-point     8 on vipl2021
   Task   227 k-point     8 on vipl2021
   Task   228 k-point     8 on vipl2021
   Task   229 k-point     8 on vipl2021
   Task   230 k-point     8 on vipl2021
   Task   231 k-point     8 on vipl2021
   Task   232 k-point     8 on vipl2021
   Task   233 k-point     8 on vipl2021
   Task   234 k-point     8 on vipl2021
   Task   235 k-point     8 on vipl2021
   Task   236 k-point     8 on vipl2021
   Task   237 k-point     8 on vipl2021
   Task   238 k-point     8 on vipl2021
   Task   239 k-point     8 on vipl2021
   Task   240 k-point     8 on vipl2021
   Task   241 k-point     8 on vipl2021
   Task   242 k-point     8 on vipl2021
   Task   243 k-point     8 on vipl2021
   Task   244 k-point     8 on vipl2021
   Task   245 k-point     8 on vipl2021
   Task   246 k-point     8 on vipl2021
   Task   247 k-point     8 on vipl2021
   Task   248 k-point     8 on vipl2021
   Task   249 k-point     8 on vipl2021
   Task   250 k-point     8 on vipl2021
   Task   251 k-point     8 on vipl2021
   Task   252 k-point     8 on vipl2021
   Task   253 k-point     8 on vipl2021
   Task   254 k-point     8 on vipl2021
   Task   255 k-point     8 on vipl2021
  K-point:     1 Tasks:    32 split into      8 X      4 BLACS grid
  Calculating block size based on n_basis =         1161  max_nprow =            8  max_npcol =            4
  ScaLAPACK block size set to:           16
  Allocating        0.347 MB for ovlp
  Allocating        0.347 MB for ham
  Allocating        0.347 MB for eigenvec
  Required Scalapack workspace - INTEGER:            1  REAL:             1
  Available memory per node after initialize_scalapack [GB]:   1008.73
  Available memory per node after aims_elsi_init_scf [GB]:   1008.73
  Available memory per node after initialize_fixed_grids [GB]:   1008.73
  Partitioning the integration grid into batches with parallel hashing+maxmin method.
  | Number of batches:    14532
  | Maximal batch size:     120
  | Minimal batch size:      49
  | Average batch size:      68.797
  | Standard deviation of batch sizes:      16.717

  Integration load balanced across   256 MPI tasks.
  Work distribution over tasks is as follows:
  Task     0 has       3882 integration points.
  Task     1 has       3915 integration points.
  Task     2 has       3927 integration points.
  Task     3 has       3899 integration points.
  Task     4 has       3926 integration points.
  Task     5 has       3909 integration points.
  Task     6 has       3911 integration points.
  Task     7 has       3923 integration points.
  Task     8 has       3906 integration points.
  Task     9 has       3917 integration points.
  Task    10 has       3898 integration points.
  Task    11 has       3927 integration points.
  Task    12 has       3869 integration points.
  Task    13 has       3922 integration points.
  Task    14 has       3908 integration points.
  Task    15 has       3908 integration points.
  Task    16 has       3922 integration points.
  Task    17 has       3925 integration points.
  Task    18 has       3924 integration points.
  Task    19 has       3920 integration points.
  Task    20 has       3913 integration points.
  Task    21 has       3882 integration points.
  Task    22 has       3919 integration points.
  Task    23 has       3911 integration points.
  Task    24 has       3911 integration points.
  Task    25 has       3907 integration points.
  Task    26 has       3888 integration points.
  Task    27 has       3909 integration points.
  Task    28 has       3912 integration points.
  Task    29 has       3906 integration points.
  Task    30 has       3913 integration points.
  Task    31 has       3900 integration points.
  Task    32 has       3896 integration points.
  Task    33 has       3869 integration points.
  Task    34 has       3926 integration points.
  Task    35 has       3924 integration points.
  Task    36 has       3867 integration points.
  Task    37 has       3913 integration points.
  Task    38 has       3902 integration points.
  Task    39 has       3871 integration points.
  Task    40 has       3914 integration points.
  Task    41 has       3904 integration points.
  Task    42 has       3924 integration points.
  Task    43 has       3912 integration points.
  Task    44 has       3887 integration points.
  Task    45 has       3906 integration points.
  Task    46 has       3917 integration points.
  Task    47 has       3927 integration points.
  Task    48 has       3925 integration points.
  Task    49 has       3915 integration points.
  Task    50 has       3925 integration points.
  Task    51 has       3907 integration points.
  Task    52 has       3899 integration points.
  Task    53 has       3929 integration points.
  Task    54 has       3908 integration points.
  Task    55 has       3921 integration points.
  Task    56 has       3923 integration points.
  Task    57 has       3916 integration points.
  Task    58 has       3925 integration points.
  Task    59 has       3920 integration points.
  Task    60 has       3925 integration points.
  Task    61 has       3891 integration points.
  Task    62 has       3901 integration points.
  Task    63 has       3888 integration points.
  Task    64 has       3929 integration points.
  Task    65 has       3915 integration points.
  Task    66 has       3887 integration points.
  Task    67 has       3868 integration points.
  Task    68 has       3913 integration points.
  Task    69 has       3897 integration points.
  Task    70 has       3908 integration points.
  Task    71 has       3914 integration points.
  Task    72 has       3875 integration points.
  Task    73 has       3928 integration points.
  Task    74 has       3901 integration points.
  Task    75 has       3890 integration points.
  Task    76 has       3886 integration points.
  Task    77 has       3923 integration points.
  Task    78 has       3876 integration points.
  Task    79 has       3908 integration points.
  Task    80 has       3925 integration points.
  Task    81 has       3882 integration points.
  Task    82 has       3914 integration points.
  Task    83 has       3885 integration points.
  Task    84 has       3923 integration points.
  Task    85 has       3914 integration points.
  Task    86 has       3878 integration points.
  Task    87 has       3910 integration points.
  Task    88 has       3926 integration points.
  Task    89 has       3918 integration points.
  Task    90 has       3886 integration points.
  Task    91 has       3869 integration points.
  Task    92 has       3897 integration points.
  Task    93 has       3877 integration points.
  Task    94 has       3916 integration points.
  Task    95 has       3926 integration points.
  Task    96 has       3860 integration points.
  Task    97 has       3923 integration points.
  Task    98 has       3913 integration points.
  Task    99 has       3927 integration points.
  Task   100 has       3902 integration points.
  Task   101 has       3912 integration points.
  Task   102 has       3916 integration points.
  Task   103 has       3888 integration points.
  Task   104 has       3911 integration points.
  Task   105 has       3878 integration points.
  Task   106 has       3925 integration points.
  Task   107 has       3881 integration points.
  Task   108 has       3927 integration points.
  Task   109 has       3926 integration points.
  Task   110 has       3878 integration points.
  Task   111 has       3908 integration points.
  Task   112 has       3922 integration points.
  Task   113 has       3900 integration points.
  Task   114 has       3860 integration points.
  Task   115 has       3909 integration points.
  Task   116 has       3914 integration points.
  Task   117 has       3921 integration points.
  Task   118 has       3887 integration points.
  Task   119 has       3896 integration points.
  Task   120 has       3901 integration points.
  Task   121 has       3909 integration points.
  Task   122 has       3889 integration points.
  Task   123 has       3899 integration points.
  Task   124 has       3880 integration points.
  Task   125 has       3903 integration points.
  Task   126 has       3925 integration points.
  Task   127 has       3924 integration points.
  Task   128 has       3922 integration points.
  Task   129 has       3925 integration points.
  Task   130 has       3884 integration points.
  Task   131 has       3888 integration points.
  Task   132 has       3918 integration points.
  Task   133 has       3925 integration points.
  Task   134 has       3866 integration points.
  Task   135 has       3911 integration points.
  Task   136 has       3865 integration points.
  Task   137 has       3898 integration points.
  Task   138 has       3898 integration points.
  Task   139 has       3856 integration points.
  Task   140 has       3912 integration points.
  Task   141 has       3913 integration points.
  Task   142 has       3910 integration points.
  Task   143 has       3879 integration points.
  Task   144 has       3923 integration points.
  Task   145 has       3927 integration points.
  Task   146 has       3915 integration points.
  Task   147 has       3885 integration points.
  Task   148 has       3884 integration points.
  Task   149 has       3912 integration points.
  Task   150 has       3924 integration points.
  Task   151 has       3927 integration points.
  Task   152 has       3909 integration points.
  Task   153 has       3901 integration points.
  Task   154 has       3897 integration points.
  Task   155 has       3858 integration points.
  Task   156 has       3883 integration points.
  Task   157 has       3912 integration points.
  Task   158 has       3900 integration points.
  Task   159 has       3910 integration points.
  Task   160 has       3914 integration points.
  Task   161 has       3925 integration points.
  Task   162 has       3914 integration points.
  Task   163 has       3865 integration points.
  Task   164 has       3882 integration points.
  Task   165 has       3907 integration points.
  Task   166 has       3904 integration points.
  Task   167 has       3924 integration points.
  Task   168 has       3926 integration points.
  Task   169 has       3883 integration points.
  Task   170 has       3870 integration points.
  Task   171 has       3899 integration points.
  Task   172 has       3909 integration points.
  Task   173 has       3897 integration points.
  Task   174 has       3912 integration points.
  Task   175 has       3923 integration points.
  Task   176 has       3890 integration points.
  Task   177 has       3903 integration points.
  Task   178 has       3925 integration points.
  Task   179 has       3911 integration points.
  Task   180 has       3874 integration points.
  Task   181 has       3919 integration points.
  Task   182 has       3884 integration points.
  Task   183 has       3914 integration points.
  Task   184 has       3929 integration points.
  Task   185 has       3924 integration points.
  Task   186 has       3878 integration points.
  Task   187 has       3899 integration points.
  Task   188 has       3921 integration points.
  Task   189 has       3902 integration points.
  Task   190 has       3927 integration points.
  Task   191 has       3923 integration points.
  Task   192 has       3916 integration points.
  Task   193 has       3879 integration points.
  Task   194 has       3904 integration points.
  Task   195 has       3928 integration points.
  Task   196 has       3900 integration points.
  Task   197 has       3885 integration points.
  Task   198 has       3884 integration points.
  Task   199 has       3925 integration points.
  Task   200 has       3895 integration points.
  Task   201 has       3900 integration points.
  Task   202 has       3923 integration points.
  Task   203 has       3922 integration points.
  Task   204 has       3913 integration points.
  Task   205 has       3888 integration points.
  Task   206 has       3897 integration points.
  Task   207 has       3920 integration points.
  Task   208 has       3910 integration points.
  Task   209 has       3913 integration points.
  Task   210 has       3925 integration points.
  Task   211 has       3883 integration points.
  Task   212 has       3910 integration points.
  Task   213 has       3901 integration points.
  Task   214 has       3885 integration points.
  Task   215 has       3924 integration points.
  Task   216 has       3924 integration points.
  Task   217 has       3912 integration points.
  Task   218 has       3886 integration points.
  Task   219 has       3886 integration points.
  Task   220 has       3924 integration points.
  Task   221 has       3922 integration points.
  Task   222 has       3922 integration points.
  Task   223 has       3881 integration points.
  Task   224 has       3925 integration points.
  Task   225 has       3884 integration points.
  Task   226 has       3870 integration points.
  Task   227 has       3925 integration points.
  Task   228 has       3889 integration points.
  Task   229 has       3881 integration points.
  Task   230 has       3906 integration points.
  Task   231 has       3923 integration points.
  Task   232 has       3913 integration points.
  Task   233 has       3916 integration points.
  Task   234 has       3899 integration points.
  Task   235 has       3920 integration points.
  Task   236 has       3918 integration points.
  Task   237 has       3909 integration points.
  Task   238 has       3916 integration points.
  Task   239 has       3912 integration points.
  Task   240 has       3897 integration points.
  Task   241 has       3914 integration points.
  Task   242 has       3881 integration points.
  Task   243 has       3914 integration points.
  Task   244 has       3896 integration points.
  Task   245 has       3912 integration points.
  Task   246 has       3885 integration points.
  Task   247 has       3873 integration points.
  Task   248 has       3898 integration points.
  Task   249 has       3921 integration points.
  Task   250 has       3916 integration points.
  Task   251 has       3906 integration points.
  Task   252 has       3926 integration points.
  Task   253 has       3915 integration points.
  Task   254 has       3922 integration points.
  Task   255 has       3909 integration points.
  Available memory per node after partition_grid [GB]:   1008.71
  Initializing partition tables, free-atom densities, potentials, etc. across the integration grid (initialize_grid_storage).
  | initialize_grid_storage: Actual outermost partition radius vs. multipole_radius_free
  | (-- VB: in principle, multipole_radius_free should be larger, hence this output)
  | Species        1: Confinement radius =              7.000000000000000 AA, multipole_radius_free =              7.008349926986249 AA.
  | Species        1: outer_partition_radius set to              7.008349926986249 AA .
  | Species        2: Confinement radius =              6.000000000000000 AA, multipole_radius_free =              6.064445521808699 AA.
  | Species        2: outer_partition_radius set to              6.064445521808699 AA .
  | The sparse table of interatomic distances needs      50841.33 kbyte instead of     97106.05 kbyte of memory.
  | Net number of integration points:   999756
  | of which are non-zero points    :   661068
  | Numerical average free-atom electrostatic potential    :    -17.79583641 eV
  Available memory per node after initialize_grid_storage_p1 [GB]:   1008.70
  Renormalizing the initial density to the exact electron count on the 3D integration grid.
  | Initial density: Formal number of electrons (from input files) :     540.0000000000
  | Integrated number of electrons on 3D grid     :     540.0305765106
  | Charge integration error                      :       0.0305765106
  | Normalization factor for density and gradient :       0.9999433800
  Renormalizing the free-atom superposition density to the exact electron count on the 3D integration grid.
  | Formal number of electrons (from input files) :     540.0000000000
  | Integrated number of electrons on 3D grid     :     540.0305765106
  | Charge integration error                      :       0.0305765106
  | Normalization factor for density and gradient :       0.9999433800
  Obtaining max. number of non-zero basis functions in each batch (get_n_compute_maxes).
  | Maximal number of non-zero basis functions:     1868 in task     0
  | Maximal number of non-zero basis functions:     1860 in task     1
  | Maximal number of non-zero basis functions:     1882 in task     2
  | Maximal number of non-zero basis functions:     1869 in task     3
  | Maximal number of non-zero basis functions:     1899 in task     4
  | Maximal number of non-zero basis functions:     1862 in task     5
  | Maximal number of non-zero basis functions:     1875 in task     6
  | Maximal number of non-zero basis functions:     1874 in task     7
  | Maximal number of non-zero basis functions:     1904 in task     8
  | Maximal number of non-zero basis functions:     1866 in task     9
  | Maximal number of non-zero basis functions:     1844 in task    10
  | Maximal number of non-zero basis functions:     1879 in task    11
  | Maximal number of non-zero basis functions:     1843 in task    12
  | Maximal number of non-zero basis functions:     1874 in task    13
  | Maximal number of non-zero basis functions:     1870 in task    14
  | Maximal number of non-zero basis functions:     1868 in task    15
  | Maximal number of non-zero basis functions:     1841 in task    16
  | Maximal number of non-zero basis functions:     1867 in task    17
  | Maximal number of non-zero basis functions:     1883 in task    18
  | Maximal number of non-zero basis functions:     1866 in task    19
  | Maximal number of non-zero basis functions:     1895 in task    20
  | Maximal number of non-zero basis functions:     1865 in task    21
  | Maximal number of non-zero basis functions:     1851 in task    22
  | Maximal number of non-zero basis functions:     1862 in task    23
  | Maximal number of non-zero basis functions:     1849 in task    24
  | Maximal number of non-zero basis functions:     1904 in task    25
  | Maximal number of non-zero basis functions:     1860 in task    26
  | Maximal number of non-zero basis functions:     1879 in task    27
  | Maximal number of non-zero basis functions:     1862 in task    28
  | Maximal number of non-zero basis functions:     1859 in task    29
  | Maximal number of non-zero basis functions:     1872 in task    30
  | Maximal number of non-zero basis functions:     1845 in task    31
  | Maximal number of non-zero basis functions:     1876 in task    32
  | Maximal number of non-zero basis functions:     1845 in task    33
  | Maximal number of non-zero basis functions:     1883 in task    34
  | Maximal number of non-zero basis functions:     1848 in task    35
  | Maximal number of non-zero basis functions:     1855 in task    36
  | Maximal number of non-zero basis functions:     1884 in task    37
  | Maximal number of non-zero basis functions:     1847 in task    38
  | Maximal number of non-zero basis functions:     1850 in task    39
  | Maximal number of non-zero basis functions:     1865 in task    40
  | Maximal number of non-zero basis functions:     1876 in task    41
  | Maximal number of non-zero basis functions:     1859 in task    42
  | Maximal number of non-zero basis functions:     1880 in task    43
  | Maximal number of non-zero basis functions:     1868 in task    44
  | Maximal number of non-zero basis functions:     1881 in task    45
  | Maximal number of non-zero basis functions:     1852 in task    46
  | Maximal number of non-zero basis functions:     1860 in task    47
  | Maximal number of non-zero basis functions:     1876 in task    48
  | Maximal number of non-zero basis functions:     1862 in task    49
  | Maximal number of non-zero basis functions:     1837 in task    50
  | Maximal number of non-zero basis functions:     1854 in task    51
  | Maximal number of non-zero basis functions:     1904 in task    52
  | Maximal number of non-zero basis functions:     1878 in task    53
  | Maximal number of non-zero basis functions:     1868 in task    54
  | Maximal number of non-zero basis functions:     1867 in task    55
  | Maximal number of non-zero basis functions:     1861 in task    56
  | Maximal number of non-zero basis functions:     1891 in task    57
  | Maximal number of non-zero basis functions:     1864 in task    58
  | Maximal number of non-zero basis functions:     1872 in task    59
  | Maximal number of non-zero basis functions:     1879 in task    60
  | Maximal number of non-zero basis functions:     1874 in task    61
  | Maximal number of non-zero basis functions:     1863 in task    62
  | Maximal number of non-zero basis functions:     1872 in task    63
  | Maximal number of non-zero basis functions:     1881 in task    64
  | Maximal number of non-zero basis functions:     1889 in task    65
  | Maximal number of non-zero basis functions:     1868 in task    66
  | Maximal number of non-zero basis functions:     1870 in task    67
  | Maximal number of non-zero basis functions:     1869 in task    68
  | Maximal number of non-zero basis functions:     1915 in task    69
  | Maximal number of non-zero basis functions:     1874 in task    70
  | Maximal number of non-zero basis functions:     1856 in task    71
  | Maximal number of non-zero basis functions:     1889 in task    72
  | Maximal number of non-zero basis functions:     1861 in task    73
  | Maximal number of non-zero basis functions:     1896 in task    74
  | Maximal number of non-zero basis functions:     1868 in task    75
  | Maximal number of non-zero basis functions:     1856 in task    76
  | Maximal number of non-zero basis functions:     1879 in task    77
  | Maximal number of non-zero basis functions:     1879 in task    78
  | Maximal number of non-zero basis functions:     1894 in task    79
  | Maximal number of non-zero basis functions:     1882 in task    80
  | Maximal number of non-zero basis functions:     1879 in task    81
  | Maximal number of non-zero basis functions:     1889 in task    82
  | Maximal number of non-zero basis functions:     1868 in task    83
  | Maximal number of non-zero basis functions:     1854 in task    84
  | Maximal number of non-zero basis functions:     1882 in task    85
  | Maximal number of non-zero basis functions:     1872 in task    86
  | Maximal number of non-zero basis functions:     1844 in task    87
  | Maximal number of non-zero basis functions:     1854 in task    88
  | Maximal number of non-zero basis functions:     1858 in task    89
  | Maximal number of non-zero basis functions:     1899 in task    90
  | Maximal number of non-zero basis functions:     1874 in task    91
  | Maximal number of non-zero basis functions:     1858 in task    92
  | Maximal number of non-zero basis functions:     1904 in task    93
  | Maximal number of non-zero basis functions:     1882 in task    94
  | Maximal number of non-zero basis functions:     1865 in task    95
  | Maximal number of non-zero basis functions:     1874 in task    96
  | Maximal number of non-zero basis functions:     1868 in task    97
  | Maximal number of non-zero basis functions:     1865 in task    98
  | Maximal number of non-zero basis functions:     1885 in task    99
  | Maximal number of non-zero basis functions:     1877 in task   100
  | Maximal number of non-zero basis functions:     1864 in task   101
  | Maximal number of non-zero basis functions:     1882 in task   102
  | Maximal number of non-zero basis functions:     1857 in task   103
  | Maximal number of non-zero basis functions:     1883 in task   104
  | Maximal number of non-zero basis functions:     1881 in task   105
  | Maximal number of non-zero basis functions:     1904 in task   106
  | Maximal number of non-zero basis functions:     1889 in task   107
  | Maximal number of non-zero basis functions:     1861 in task   108
  | Maximal number of non-zero basis functions:     1869 in task   109
  | Maximal number of non-zero basis functions:     1869 in task   110
  | Maximal number of non-zero basis functions:     1910 in task   111
  | Maximal number of non-zero basis functions:     1889 in task   112
  | Maximal number of non-zero basis functions:     1880 in task   113
  | Maximal number of non-zero basis functions:     1859 in task   114
  | Maximal number of non-zero basis functions:     1872 in task   115
  | Maximal number of non-zero basis functions:     1879 in task   116
  | Maximal number of non-zero basis functions:     1868 in task   117
  | Maximal number of non-zero basis functions:     1894 in task   118
  | Maximal number of non-zero basis functions:     1879 in task   119
  | Maximal number of non-zero basis functions:     1865 in task   120
  | Maximal number of non-zero basis functions:     1873 in task   121
  | Maximal number of non-zero basis functions:     1849 in task   122
  | Maximal number of non-zero basis functions:     1869 in task   123
  | Maximal number of non-zero basis functions:     1862 in task   124
  | Maximal number of non-zero basis functions:     1873 in task   125
  | Maximal number of non-zero basis functions:     1881 in task   126
  | Maximal number of non-zero basis functions:     1834 in task   127
  | Maximal number of non-zero basis functions:     1869 in task   128
  | Maximal number of non-zero basis functions:     1873 in task   129
  | Maximal number of non-zero basis functions:     1846 in task   130
  | Maximal number of non-zero basis functions:     1848 in task   131
  | Maximal number of non-zero basis functions:     1879 in task   132
  | Maximal number of non-zero basis functions:     1856 in task   133
  | Maximal number of non-zero basis functions:     1878 in task   134
  | Maximal number of non-zero basis functions:     1883 in task   135
  | Maximal number of non-zero basis functions:     1855 in task   136
  | Maximal number of non-zero basis functions:     1898 in task   137
  | Maximal number of non-zero basis functions:     1874 in task   138
  | Maximal number of non-zero basis functions:     1876 in task   139
  | Maximal number of non-zero basis functions:     1862 in task   140
  | Maximal number of non-zero basis functions:     1901 in task   141
  | Maximal number of non-zero basis functions:     1884 in task   142
  | Maximal number of non-zero basis functions:     1869 in task   143
  | Maximal number of non-zero basis functions:     1867 in task   144
  | Maximal number of non-zero basis functions:     1887 in task   145
  | Maximal number of non-zero basis functions:     1894 in task   146
  | Maximal number of non-zero basis functions:     1873 in task   147
  | Maximal number of non-zero basis functions:     1869 in task   148
  | Maximal number of non-zero basis functions:     1933 in task   149
  | Maximal number of non-zero basis functions:     1871 in task   150
  | Maximal number of non-zero basis functions:     1866 in task   151
  | Maximal number of non-zero basis functions:     1857 in task   152
  | Maximal number of non-zero basis functions:     1868 in task   153
  | Maximal number of non-zero basis functions:     1861 in task   154
  | Maximal number of non-zero basis functions:     1882 in task   155
  | Maximal number of non-zero basis functions:     1868 in task   156
  | Maximal number of non-zero basis functions:     1883 in task   157
  | Maximal number of non-zero basis functions:     1857 in task   158
  | Maximal number of non-zero basis functions:     1879 in task   159
  | Maximal number of non-zero basis functions:     1862 in task   160
  | Maximal number of non-zero basis functions:     1881 in task   161
  | Maximal number of non-zero basis functions:     1888 in task   162
  | Maximal number of non-zero basis functions:     1864 in task   163
  | Maximal number of non-zero basis functions:     1852 in task   164
  | Maximal number of non-zero basis functions:     1885 in task   165
  | Maximal number of non-zero basis functions:     1873 in task   166
  | Maximal number of non-zero basis functions:     1900 in task   167
  | Maximal number of non-zero basis functions:     1891 in task   168
  | Maximal number of non-zero basis functions:     1842 in task   169
  | Maximal number of non-zero basis functions:     1867 in task   170
  | Maximal number of non-zero basis functions:     1878 in task   171
  | Maximal number of non-zero basis functions:     1879 in task   172
  | Maximal number of non-zero basis functions:     1893 in task   173
  | Maximal number of non-zero basis functions:     1877 in task   174
  | Maximal number of non-zero basis functions:     1862 in task   175
  | Maximal number of non-zero basis functions:     1863 in task   176
  | Maximal number of non-zero basis functions:     1858 in task   177
  | Maximal number of non-zero basis functions:     1868 in task   178
  | Maximal number of non-zero basis functions:     1867 in task   179
  | Maximal number of non-zero basis functions:     1861 in task   180
  | Maximal number of non-zero basis functions:     1869 in task   181
  | Maximal number of non-zero basis functions:     1882 in task   182
  | Maximal number of non-zero basis functions:     1850 in task   183
  | Maximal number of non-zero basis functions:     1878 in task   184
  | Maximal number of non-zero basis functions:     1860 in task   185
  | Maximal number of non-zero basis functions:     1864 in task   186
  | Maximal number of non-zero basis functions:     1857 in task   187
  | Maximal number of non-zero basis functions:     1879 in task   188
  | Maximal number of non-zero basis functions:     1853 in task   189
  | Maximal number of non-zero basis functions:     1882 in task   190
  | Maximal number of non-zero basis functions:     1872 in task   191
  | Maximal number of non-zero basis functions:     1873 in task   192
  | Maximal number of non-zero basis functions:     1883 in task   193
  | Maximal number of non-zero basis functions:     1868 in task   194
  | Maximal number of non-zero basis functions:     1871 in task   195
  | Maximal number of non-zero basis functions:     1856 in task   196
  | Maximal number of non-zero basis functions:     1870 in task   197
  | Maximal number of non-zero basis functions:     1871 in task   198
  | Maximal number of non-zero basis functions:     1872 in task   199
  | Maximal number of non-zero basis functions:     1859 in task   200
  | Maximal number of non-zero basis functions:     1872 in task   201
  | Maximal number of non-zero basis functions:     1889 in task   202
  | Maximal number of non-zero basis functions:     1879 in task   203
  | Maximal number of non-zero basis functions:     1868 in task   204
  | Maximal number of non-zero basis functions:     1865 in task   205
  | Maximal number of non-zero basis functions:     1861 in task   206
  | Maximal number of non-zero basis functions:     1857 in task   207
  | Maximal number of non-zero basis functions:     1853 in task   208
  | Maximal number of non-zero basis functions:     1882 in task   209
  | Maximal number of non-zero basis functions:     1869 in task   210
  | Maximal number of non-zero basis functions:     1920 in task   211
  | Maximal number of non-zero basis functions:     1868 in task   212
  | Maximal number of non-zero basis functions:     1880 in task   213
  | Maximal number of non-zero basis functions:     1848 in task   214
  | Maximal number of non-zero basis functions:     1849 in task   215
  | Maximal number of non-zero basis functions:     1880 in task   216
  | Maximal number of non-zero basis functions:     1866 in task   217
  | Maximal number of non-zero basis functions:     1882 in task   218
  | Maximal number of non-zero basis functions:     1868 in task   219
  | Maximal number of non-zero basis functions:     1881 in task   220
  | Maximal number of non-zero basis functions:     1856 in task   221
  | Maximal number of non-zero basis functions:     1880 in task   222
  | Maximal number of non-zero basis functions:     1901 in task   223
  | Maximal number of non-zero basis functions:     1867 in task   224
  | Maximal number of non-zero basis functions:     1874 in task   225
  | Maximal number of non-zero basis functions:     1881 in task   226
  | Maximal number of non-zero basis functions:     1878 in task   227
  | Maximal number of non-zero basis functions:     1852 in task   228
  | Maximal number of non-zero basis functions:     1872 in task   229
  | Maximal number of non-zero basis functions:     1883 in task   230
  | Maximal number of non-zero basis functions:     1875 in task   231
  | Maximal number of non-zero basis functions:     1848 in task   232
  | Maximal number of non-zero basis functions:     1901 in task   233
  | Maximal number of non-zero basis functions:     1879 in task   234
  | Maximal number of non-zero basis functions:     1887 in task   235
  | Maximal number of non-zero basis functions:     1882 in task   236
  | Maximal number of non-zero basis functions:     1873 in task   237
  | Maximal number of non-zero basis functions:     1862 in task   238
  | Maximal number of non-zero basis functions:     1880 in task   239
  | Maximal number of non-zero basis functions:     1859 in task   240
  | Maximal number of non-zero basis functions:     1866 in task   241
  | Maximal number of non-zero basis functions:     1868 in task   242
  | Maximal number of non-zero basis functions:     1881 in task   243
  | Maximal number of non-zero basis functions:     1870 in task   244
  | Maximal number of non-zero basis functions:     1871 in task   245
  | Maximal number of non-zero basis functions:     1857 in task   246
  | Maximal number of non-zero basis functions:     1859 in task   247
  | Maximal number of non-zero basis functions:     1865 in task   248
  | Maximal number of non-zero basis functions:     1896 in task   249
  | Maximal number of non-zero basis functions:     1861 in task   250
  | Maximal number of non-zero basis functions:     1859 in task   251
  | Maximal number of non-zero basis functions:     1889 in task   252
  | Maximal number of non-zero basis functions:     1878 in task   253
  | Maximal number of non-zero basis functions:     1864 in task   254
  | Maximal number of non-zero basis functions:     1882 in task   255
  Available memory per node after get_n_compute_maxes_p1 [GB]:   1007.80
  Available memory per node after allocate_matrices [GB]:   1007.79
  Available memory per node after init_comm_sparse_local_matrix_scalapack [GB]:   1007.79
  Integrating Hamiltonian matrix: batch-based integration.
  Time summed over all CPUs for integration: real work      619.458 s, elapsed      643.731 s
  Available memory per node after integrate hamiltonian matrix [GB]:    991.96
  Integrating overlap matrix.
  Time summed over all CPUs for integration: real work      571.457 s, elapsed      597.321 s
  Available memory per node after integrate ovlp matrix [GB]:    985.63
  Deallocating overlap matrix.
  Available memory per node after save_overlap_scalapack [GB]:    986.34
  Available memory per node after advance_KS_solution [GB]:    986.34
  Calculating total energy contributions from superposition of free atom densities.
  Initialize hartree_potential_storage
  Max. number of atoms included in rho_multipole:           54

  End scf initialization - timings             :  max(cpu_time)    wall_clock(cpu1)
  | Time for scf. initialization                :        8.429 s           8.638 s
  | Boundary condition initialization           :        0.560 s           0.587 s
  | Integration                                 :        6.717 s           6.771 s
  | Grid partitioning                           :        0.535 s           0.598 s
  | Preloading free-atom quantities on grid     :        0.935 s           0.941 s
  | Free-atom superposition energy              :        0.055 s           0.054 s

  Partial memory accounting:
  | Current value for overall tracked memory usage:
  |   Minimum:       78.144 MB (on task   5)
  |   Maximum:       78.235 MB (on task   0)
  |   Average:       78.159 MB
  | Peak value for overall tracked memory usage:
  |   Minimum:      160.211 MB (on task 127 after allocating wave)
  |   Maximum:      163.328 MB (on task 149 after allocating wave)
  |   Average:      161.398 MB
  | Largest tracked array allocation so far:
  |   Minimum:       51.368 MB (overlap_matrix on task   0)
  |   Maximum:       51.368 MB (overlap_matrix on task   0)
  |   Average:       51.368 MB
  Note:  These values currently only include a subset of arrays which are explicitly tracked.
  The "true" memory usage will be greater.
------------------------------------------------------------
  Available memory after initialize_scf [GB]:    986.15
  Available memory after allocating mixing [GB]:    986.14
  Evaluating new KS density using the density matrix
  Evaluating density matrix
  Finished reading density matrices from file
  | Time :      0.309 s

  Time summed over all CPUs for getting density from density matrix: real work      650.050 s, elapsed      681.192 s
  Integration grid: deviation in total charge (<rho> - N_e) =   5.684342E-13

  Time for density update prior                :  max(cpu_time)    wall_clock(cpu1)
  | self-consistency iterative process          :        3.895 s           3.944 s
  Available memory before start of SCF loop [GB]:    992.25

------------------------------------------------------------
          Initial SCF-cycle to compute last known
          density from restart information.

  Date     :  20260811, Time     :  180758.228
------------------------------------------------------------
  Available memory per node after mixing [GB]:    992.25
  Renormalizing the density to the exact electron count on the 3D integration grid.
  | Formal number of electrons (from input files) :     540.0000000000
  | Integrated number of electrons on 3D grid     :     540.0000000000
  | Charge integration error                      :       0.0000000000
  | Normalization factor for density and gradient :       1.0000000000

  Evaluating partitioned Hartree potential by multipole expansion.
  | Original multipole sum: apparent total charge =   0.793031E-13
  | Sum of charges compensated after spline to logarithmic grids =   0.473109E-05
  | Analytical far-field extrapolation by fixed multipoles:
  | Hartree multipole sum: apparent total charge =   0.743344E-13
  Summing up the Hartree potential.
  Time summed over all CPUs for potential: real work        0.137 s, elapsed        0.143 s
  | RMS charge density error from multipole expansion :   0.451785E-01
  | Average real-space part of the electrostatic potential :      0.56516426 eV

  Integrating Hamiltonian matrix: batch-based integration.
  Time summed over all CPUs for integration: real work      617.530 s, elapsed      644.178 s

  Updating Kohn-Sham eigenvalues and eigenvectors using ELSI and the ELPA eigensolver.
  Singularity check in k-point 1 (analysis for other k-points may follow below):
  Overlap matrix is not singular
  | Lowest and highest eigenvalues :  0.2576E-03,  0.2298E+02
  Finished singularity check of overlap matrix
  | Time :     0.075 s
  Starting ELPA eigensolver
  Finished Cholesky decomposition
  | Time :     0.014 s
  Finished transformation to standard eigenproblem
  | Time :     0.012 s
  Finished solving standard eigenproblem
  | Time :     0.080 s
  Finished back-transformation of eigenvectors
  | Time :     0.004 s

  Obtaining occupation numbers and electronic chemical potential using ELSI.
  | Note that, for insulating systems, the printed 'chemical potential' value is not uniquely defined.
  | It can be anywhere in the energy gap, as long as it correctly separates occupied and unoccupied states.
  | In systems with a gap, the physically relevant chemical potential is the VBM or HOMO.

  | Chemical potential (Fermi level):    -8.06394380 eV
  Writing Kohn-Sham eigenvalues.
  K-point:       1 at    0.000000    0.000000    0.000000 (in units of recip. lattice)

  State    Occupation    Eigenvalue [Ha]    Eigenvalue [eV]
      1       2.00000         -46.222850        -1257.78775
      2       2.00000         -46.222850        -1257.78775
      3       2.00000         -46.222850        -1257.78775
      4       2.00000         -46.222850        -1257.78775
      5       2.00000         -46.222850        -1257.78775
      6       2.00000         -46.222850        -1257.78775
      7       2.00000         -46.222850        -1257.78775
      8       2.00000         -46.222850        -1257.78775
      9       2.00000         -46.222850        -1257.78775
     10       2.00000         -46.222850        -1257.78775
     11       2.00000         -46.222850        -1257.78775
     12       2.00000         -46.222850        -1257.78775
     13       2.00000         -46.222850        -1257.78775
     14       2.00000         -46.222850        -1257.78775
     15       2.00000         -46.222850        -1257.78775
     16       2.00000         -46.222850        -1257.78775
     17       2.00000         -46.222850        -1257.78775
     18       2.00000         -46.222850        -1257.78775
     19       2.00000         -46.222850        -1257.78775
     20       2.00000         -46.222850        -1257.78775
     21       2.00000         -46.222850        -1257.78775
     22       2.00000         -46.222850        -1257.78775
     23       2.00000         -46.222850        -1257.78775
     24       2.00000         -46.222850        -1257.78775
     25       2.00000         -46.222850        -1257.78775
     26       2.00000         -46.222850        -1257.78775
     27       2.00000         -46.222850        -1257.78775
     28       2.00000         -18.740134         -509.94500
     29       2.00000         -18.740134         -509.94500
     30       2.00000         -18.740134         -509.94500
     31       2.00000         -18.740134         -509.94500
     32       2.00000         -18.740134         -509.94500
     33       2.00000         -18.740134         -509.94500
     34       2.00000         -18.740134         -509.94500
     35       2.00000         -18.740134         -509.94500
     36       2.00000         -18.740134         -509.94500
     37       2.00000         -18.740134         -509.94500
     38       2.00000         -18.740134         -509.94500
     39       2.00000         -18.740134         -509.94500
     40       2.00000         -18.740134         -509.94500
     41       2.00000         -18.740134         -509.94500
     42       2.00000         -18.740134         -509.94500
     43       2.00000         -18.740134         -509.94500
     44       2.00000         -18.740134         -509.94500
     45       2.00000         -18.740134         -509.94500
     46       2.00000         -18.740134         -509.94500
     47       2.00000         -18.740134         -509.94500
     48       2.00000         -18.740134         -509.94500
     49       2.00000         -18.740134         -509.94500
     50       2.00000         -18.740134         -509.94500
     51       2.00000         -18.740134         -509.94500
     52       2.00000         -18.740134         -509.94500
     53       2.00000         -18.740134         -509.94500
     54       2.00000         -18.740134         -509.94500
     55       2.00000          -3.009604          -81.89549
     56       2.00000          -3.009351          -81.88861
     57       2.00000          -3.009351          -81.88861
     58       2.00000          -3.009351          -81.88861
     59       2.00000          -3.009351          -81.88861
     60       2.00000          -3.009351          -81.88861
     61       2.00000          -3.009351          -81.88861
     62       2.00000          -3.009351          -81.88861
     63       2.00000          -3.009351          -81.88861
     64       2.00000          -3.009268          -81.88634
     65       2.00000          -3.009268          -81.88634
     66       2.00000          -3.009268          -81.88634
     67       2.00000          -3.009268          -81.88634
     68       2.00000          -3.009268          -81.88634
     69       2.00000          -3.009268          -81.88634
     70       2.00000          -3.009183          -81.88404
     71       2.00000          -3.009183          -81.88404
     72       2.00000          -3.009183          -81.88404
     73       2.00000          -3.009183          -81.88404
     74       2.00000          -3.009183          -81.88404
     75       2.00000          -3.009183          -81.88404
     76       2.00000          -3.009183          -81.88404
     77       2.00000          -3.009183          -81.88404
     78       2.00000          -3.009183          -81.88404
     79       2.00000          -3.009183          -81.88404
     80       2.00000          -3.009183          -81.88404
     81       2.00000          -3.009183          -81.88404
     82       2.00000          -1.813407          -49.34533
     83       2.00000          -1.813407          -49.34533
     84       2.00000          -1.813407          -49.34533
     85       2.00000          -1.813407          -49.34533
     86       2.00000          -1.813407          -49.34533
     87       2.00000          -1.813407          -49.34533
     88       2.00000          -1.813407          -49.34533
     89       2.00000          -1.813407          -49.34533
     90       2.00000          -1.813106          -49.33711
     91       2.00000          -1.813106          -49.33711
     92       2.00000          -1.813106          -49.33711
     93       2.00000          -1.813106          -49.33711
     94       2.00000          -1.813106          -49.33711
     95       2.00000          -1.813106          -49.33711
     96       2.00000          -1.813084          -49.33653
     97       2.00000          -1.813084          -49.33653
     98       2.00000          -1.813084          -49.33653
     99       2.00000          -1.813084          -49.33653
    100       2.00000          -1.813084          -49.33653
    101       2.00000          -1.813084          -49.33653
    102       2.00000          -1.813084          -49.33653
    103       2.00000          -1.813084          -49.33653
    104       2.00000          -1.813084          -49.33653
    105       2.00000          -1.813084          -49.33653
    106       2.00000          -1.813084          -49.33653
    107       2.00000          -1.813084          -49.33653
    108       2.00000          -1.812928          -49.33227
    109       2.00000          -1.812928          -49.33227
    110       2.00000          -1.812928          -49.33227
    111       2.00000          -1.812928          -49.33227
    112       2.00000          -1.812928          -49.33227
    113       2.00000          -1.812928          -49.33227
    114       2.00000          -1.812928          -49.33227
    115       2.00000          -1.812928          -49.33227
    116       2.00000          -1.812928          -49.33227
    117       2.00000          -1.812928          -49.33227
    118       2.00000          -1.812928          -49.33227
    119       2.00000          -1.812928          -49.33227
    120       2.00000          -1.811791          -49.30134
    121       2.00000          -1.811791          -49.30134
    122       2.00000          -1.811791          -49.30134
    123       2.00000          -1.811791          -49.30134
    124       2.00000          -1.811791          -49.30134
    125       2.00000          -1.811791          -49.30134
    126       2.00000          -1.811791          -49.30134
    127       2.00000          -1.811791          -49.30134
    128       2.00000          -1.811791          -49.30134
    129       2.00000          -1.811791          -49.30134
    130       2.00000          -1.811791          -49.30134
    131       2.00000          -1.811791          -49.30134
    132       2.00000          -1.811638          -49.29719
    133       2.00000          -1.811638          -49.29719
    134       2.00000          -1.811638          -49.29719
    135       2.00000          -1.811638          -49.29719
    136       2.00000          -1.811638          -49.29719
    137       2.00000          -1.811638          -49.29719
    138       2.00000          -1.811638          -49.29719
    139       2.00000          -1.811638          -49.29719
    140       2.00000          -1.811638          -49.29719
    141       2.00000          -1.811638          -49.29719
    142       2.00000          -1.811638          -49.29719
    143       2.00000          -1.811638          -49.29719
    144       2.00000          -1.811231          -49.28610
    145       2.00000          -1.811231          -49.28610
    146       2.00000          -1.811231          -49.28610
    147       2.00000          -1.811231          -49.28610
    148       2.00000          -1.811231          -49.28610
    149       2.00000          -1.811231          -49.28610
    150       2.00000          -1.811231          -49.28610
    151       2.00000          -1.811231          -49.28610
    152       2.00000          -1.811231          -49.28610
    153       2.00000          -1.811231          -49.28610
    154       2.00000          -1.811231          -49.28610
    155       2.00000          -1.811231          -49.28610
    156       2.00000          -1.811231          -49.28610
    157       2.00000          -1.811231          -49.28610
    158       2.00000          -1.811231          -49.28610
    159       2.00000          -1.811231          -49.28610
    160       2.00000          -1.810983          -49.27934
    161       2.00000          -1.810983          -49.27934
    162       2.00000          -1.810983          -49.27934
    163       2.00000          -1.004645          -27.33779
    164       2.00000          -0.968777          -26.36175
    165       2.00000          -0.968777          -26.36175
    166       2.00000          -0.968777          -26.36175
    167       2.00000          -0.968777          -26.36175
    168       2.00000          -0.968777          -26.36175
    169       2.00000          -0.968777          -26.36175
    170       2.00000          -0.968777          -26.36175
    171       2.00000          -0.968777          -26.36175
    172       2.00000          -0.960830          -26.14552
    173       2.00000          -0.960830          -26.14552
    174       2.00000          -0.960830          -26.14552
    175       2.00000          -0.960830          -26.14552
    176       2.00000          -0.960830          -26.14552
    177       2.00000          -0.960830          -26.14552
    178       2.00000          -0.946323          -25.75076
    179       2.00000          -0.946323          -25.75076
    180       2.00000          -0.946323          -25.75076
    181       2.00000          -0.946323          -25.75076
    182       2.00000          -0.946323          -25.75076
    183       2.00000          -0.946323          -25.75076
    184       2.00000          -0.946323          -25.75076
    185       2.00000          -0.946323          -25.75076
    186       2.00000          -0.946323          -25.75076
    187       2.00000          -0.946323          -25.75076
    188       2.00000          -0.946323          -25.75076
    189       2.00000          -0.946323          -25.75076
    190       2.00000          -0.516928          -14.06632
    191       2.00000          -0.516928          -14.06632
    192       2.00000          -0.516928          -14.06632
    193       2.00000          -0.516928          -14.06632
    194       2.00000          -0.516928          -14.06632
    195       2.00000          -0.516928          -14.06632
    196       2.00000          -0.516928          -14.06632
    197       2.00000          -0.516928          -14.06632
    198       2.00000          -0.507958          -13.82224
    199       2.00000          -0.507958          -13.82224
    200       2.00000          -0.507958          -13.82224
    201       2.00000          -0.507958          -13.82224
    202       2.00000          -0.507958          -13.82224
    203       2.00000          -0.507958          -13.82224
    204       2.00000          -0.500567          -13.62113
    205       2.00000          -0.500567          -13.62113
    206       2.00000          -0.500567          -13.62113
    207       2.00000          -0.500567          -13.62113
    208       2.00000          -0.500567          -13.62113
    209       2.00000          -0.500567          -13.62113
    210       2.00000          -0.500567          -13.62113
    211       2.00000          -0.500567          -13.62113
    212       2.00000          -0.500567          -13.62113
    213       2.00000          -0.500567          -13.62113
    214       2.00000          -0.500567          -13.62113
    215       2.00000          -0.500567          -13.62113
    216       2.00000          -0.494269          -13.44975
    217       2.00000          -0.494269          -13.44975
    218       2.00000          -0.494269          -13.44975
    219       2.00000          -0.494269          -13.44975
    220       2.00000          -0.494269          -13.44975
    221       2.00000          -0.494269          -13.44975
    222       2.00000          -0.494269          -13.44975
    223       2.00000          -0.494269          -13.44975
    224       2.00000          -0.494269          -13.44975
    225       2.00000          -0.494269          -13.44975
    226       2.00000          -0.494269          -13.44975
    227       2.00000          -0.494269          -13.44975
    228       2.00000          -0.420054          -11.43025
    229       2.00000          -0.420054          -11.43025
    230       2.00000          -0.420054          -11.43025
    231       2.00000          -0.420054          -11.43025
    232       2.00000          -0.420054          -11.43025
    233       2.00000          -0.420054          -11.43025
    234       2.00000          -0.420054          -11.43025
    235       2.00000          -0.420054          -11.43025
    236       2.00000          -0.420054          -11.43025
    237       2.00000          -0.420054          -11.43025
    238       2.00000          -0.420054          -11.43025
    239       2.00000          -0.420054          -11.43025
    240       2.00000          -0.417942          -11.37278
    241       2.00000          -0.417942          -11.37278
    242       2.00000          -0.417942          -11.37278
    243       2.00000          -0.417942          -11.37278
    244       2.00000          -0.417942          -11.37278
    245       2.00000          -0.417942          -11.37278
    246       2.00000          -0.417942          -11.37278
    247       2.00000          -0.417942          -11.37278
    248       2.00000          -0.417942          -11.37278
    249       2.00000          -0.417942          -11.37278
    250       2.00000          -0.417942          -11.37278
    251       2.00000          -0.417942          -11.37278
    252       2.00000          -0.399410          -10.86851
    253       2.00000          -0.399410          -10.86851
    254       2.00000          -0.399410          -10.86851
    255       2.00000          -0.399410          -10.86851
    256       2.00000          -0.399410          -10.86851
    257       2.00000          -0.399410          -10.86851
    258       2.00000          -0.399410          -10.86850
    259       2.00000          -0.399410          -10.86850
    260       2.00000          -0.399410          -10.86850
    261       2.00000          -0.399410          -10.86850
    262       2.00000          -0.399410          -10.86850
    263       2.00000          -0.399410          -10.86850
    264       2.00000          -0.399410          -10.86850
    265       2.00000          -0.399410          -10.86850
    266       2.00000          -0.399410          -10.86850
    267       2.00000          -0.399410          -10.86850
    268       2.00000          -0.381005          -10.36767
    269       2.00000          -0.381005          -10.36767
    270       2.00000          -0.381005          -10.36766
    271       0.00000          -0.211684           -5.76022
    272       0.00000          -0.105002           -2.85725
    273       0.00000          -0.105002           -2.85725
    274       0.00000          -0.105002           -2.85725
    275       0.00000          -0.105002           -2.85725
    276       0.00000          -0.105002           -2.85725
    277       0.00000          -0.105002           -2.85725
    278       0.00000          -0.105002           -2.85725
    279       0.00000          -0.105002           -2.85725
    280       0.00000          -0.047945           -1.30465
    281       0.00000          -0.047945           -1.30465
    282       0.00000          -0.047945           -1.30465
    283       0.00000          -0.047945           -1.30465
    284       0.00000          -0.047945           -1.30465
    285       0.00000          -0.047945           -1.30465
    286       0.00000          -0.020266           -0.55147
    287       0.00000          -0.020266           -0.55147
    288       0.00000          -0.020266           -0.55147
    289       0.00000          -0.020266           -0.55147
    290       0.00000          -0.020266           -0.55147
    291       0.00000          -0.020266           -0.55147
    292       0.00000          -0.008937           -0.24318
    293       0.00000          -0.008937           -0.24318
    294       0.00000          -0.008937           -0.24318
    295       0.00000          -0.008937           -0.24318
    296       0.00000          -0.008937           -0.24318
    297       0.00000          -0.008937           -0.24318
    298       0.00000          -0.008937           -0.24318
    299       0.00000          -0.008937           -0.24318
    300       0.00000          -0.008937           -0.24318
    301       0.00000          -0.008937           -0.24318
    302       0.00000          -0.008937           -0.24318
    303       0.00000          -0.008937           -0.24318
    304       0.00000           0.059632            1.62268
    305       0.00000           0.059632            1.62268
    306       0.00000           0.059632            1.62268
    307       0.00000           0.059632            1.62268
    308       0.00000           0.059632            1.62268
    309       0.00000           0.059632            1.62268
    310       0.00000           0.059632            1.62268
    311       0.00000           0.059632            1.62268
    312       0.00000           0.059632            1.62268
    313       0.00000           0.059632            1.62268
    314       0.00000           0.059632            1.62268
    315       0.00000           0.059632            1.62268
    316       0.00000           0.063180            1.71922
    317       0.00000           0.063180            1.71922
    318       0.00000           0.063180            1.71922
    319       0.00000           0.063180            1.71922
    320       0.00000           0.063180            1.71922
    321       0.00000           0.063180            1.71922
    322       0.00000           0.063180            1.71922
    323       0.00000           0.063180            1.71922
    324       0.00000           0.068483            1.86350
    325       0.00000           0.068483            1.86350
    326       0.00000           0.068483            1.86350
    327       0.00000           0.068483            1.86350
    328       0.00000           0.068483            1.86350
    329       0.00000           0.068483            1.86350
    330       0.00000           0.068483            1.86350
    331       0.00000           0.068483            1.86350
    332       0.00000           0.068483            1.86350
    333       0.00000           0.068483            1.86350
    334       0.00000           0.068483            1.86351
    335       0.00000           0.068483            1.86351
    336       0.00000           0.127351            3.46541
    337       0.00000           0.127351            3.46541
    338       0.00000           0.127352            3.46541
    339       0.00000           0.127352            3.46541
    340       0.00000           0.127352            3.46541
    341       0.00000           0.127352            3.46541
    342       0.00000           0.196211            5.33916
    343       0.00000           0.196211            5.33916
    344       0.00000           0.196211            5.33916
    345       0.00000           0.225916            6.14748
    346       0.00000           0.225916            6.14748
    347       0.00000           0.225916            6.14748
    348       0.00000           0.225916            6.14748
    349       0.00000           0.225916            6.14748
    350       0.00000           0.225916            6.14748
    351       0.00000           0.225916            6.14748
    352       0.00000           0.225916            6.14748
    353       0.00000           0.225916            6.14748
    354       0.00000           0.225916            6.14748
    355       0.00000           0.225916            6.14749
    356       0.00000           0.225916            6.14749
    357       0.00000           0.225916            6.14749
    358       0.00000           0.225916            6.14749
    359       0.00000           0.225916            6.14749
    360       0.00000           0.225916            6.14749
    361       0.00000           0.274468            7.46865
    362       0.00000           0.274468            7.46865
    363       0.00000           0.274468            7.46865
    364       0.00000           0.274468            7.46865
    365       0.00000           0.274468            7.46865
    366       0.00000           0.274468            7.46865
    367       0.00000           0.274468            7.46865
    368       0.00000           0.274468            7.46865
    369       0.00000           0.274468            7.46865
    370       0.00000           0.274468            7.46865
    371       0.00000           0.274468            7.46865
    372       0.00000           0.274468            7.46865
    373       0.00000           0.282509            7.68746
    374       0.00000           0.282509            7.68746
    375       0.00000           0.282509            7.68746
    376       0.00000           0.282509            7.68746
    377       0.00000           0.282509            7.68746
    378       0.00000           0.282509            7.68746
    379       0.00000           0.282509            7.68746
    380       0.00000           0.282509            7.68746
    381       0.00000           0.282509            7.68746
    382       0.00000           0.282509            7.68746
    383       0.00000           0.282509            7.68746
    384       0.00000           0.282509            7.68746
    385       0.00000           0.306892            8.35097
    386       0.00000           0.306892            8.35097
    387       0.00000           0.306892            8.35097
    388       0.00000           0.306892            8.35097
    389       0.00000           0.306892            8.35097
    390       0.00000           0.306892            8.35097
    391       0.00000           0.306892            8.35097
    392       0.00000           0.306892            8.35097
    393       0.00000           0.306892            8.35097
    394       0.00000           0.306892            8.35097
    395       0.00000           0.306893            8.35097
    396       0.00000           0.306893            8.35097
    397       0.00000           0.335247            9.12254
    398       0.00000           0.387986           10.55763
    399       0.00000           0.387986           10.55763
    400       0.00000           0.387986           10.55763
    401       0.00000           0.387986           10.55763
    402       0.00000           0.387986           10.55763
    403       0.00000           0.387986           10.55763
    404       0.00000           0.387986           10.55763
    405       0.00000           0.387986           10.55763
    406       0.00000           0.387986           10.55763
    407       0.00000           0.387986           10.55763
    408       0.00000           0.387986           10.55763
    409       0.00000           0.387986           10.55763
    410       0.00000           0.387986           10.55763
    411       0.00000           0.387986           10.55763
    412       0.00000           0.387986           10.55763
    413       0.00000           0.387986           10.55763
    414       0.00000           0.410336           11.16581
    415       0.00000           0.410337           11.16583
    416       0.00000           0.421718           11.47553
    417       0.00000           0.421718           11.47553
    418       0.00000           0.421718           11.47553
    419       0.00000           0.421718           11.47553
    420       0.00000           0.421718           11.47553
    421       0.00000           0.421718           11.47553
    422       0.00000           0.421718           11.47553
    423       0.00000           0.421718           11.47553
    424       0.00000           0.469069           12.76402
    425       0.00000           0.469069           12.76402
    426       0.00000           0.469069           12.76402
    427       0.00000           0.469069           12.76402
    428       0.00000           0.469069           12.76402
    429       0.00000           0.469069           12.76402
    430       0.00000           0.469069           12.76402
    431       0.00000           0.469069           12.76402
    432       0.00000           0.469069           12.76402

  What follows are estimated values for band gap, HOMO, LUMO, etc.
  | They are estimated on a discrete k-point grid and not necessarily exact.
  | For converged numbers, create a DOS and/or band structure plot on a denser k-grid.

  Highest occupied state (VBM) at    -10.36766471 eV (relative to internal zero)
  | Occupation number:      2.00000000
  | K-point:       1 at    0.000000    0.000000    0.000000 (in units of recip. lattice)

  Lowest unoccupied state (CBM) at    -5.76022289 eV (relative to internal zero)
  | Occupation number:      0.00000000
  | K-point:       1 at    0.000000    0.000000    0.000000 (in units of recip. lattice)

  The gap value is above 0.2 eV. Unless you are using a very sparse k-point grid,
  this system is most likely an insulator or a semiconductor.
  ESTIMATED overall HOMO-LUMO gap:      4.60744182 eV between HOMO at k-point 1 and LUMO at k-point 1
  | This appears to be a direct band gap.

  Total energy components:
  | Sum of eigenvalues            :       -4089.35059363 Ha     -111276.89135856 eV
  | XC energy correction          :        -643.09092616 Ha      -17499.39446023 eV
  | XC potential correction       :         848.58122951 Ha       23091.07011570 eV
  | Free-atom electrostatic energy:       -3520.04356369 Ha      -95785.25886840 eV
  | Hartree energy correction     :         -12.00781670 Ha        -326.74931724 eV
  | Entropy correction            :           0.00000000 Ha           0.00000000 eV
  | ---------------------------
  | Total energy                  :       -7415.91167067 Ha     -201797.22388873 eV
  | Total energy, T -> 0          :       -7415.91167067 Ha     -201797.22388873 eV  <-- do not rely on this value for anything but (periodic) metals
  | Electronic free energy        :       -7415.91167067 Ha     -201797.22388873 eV

  Derived energy quantities:
  | Kinetic energy                :        7407.13486389 Ha      201558.39482462 eV
  | Electrostatic energy          :      -14179.95560840 Ha     -385856.22425312 eV
  | Energy correction for multipole
  | error in Hartree potential    :           0.02605829 Ha           0.70908226 eV
  | Sum of eigenvalues per atom                           :       -2060.68317331 eV
  | Total energy (T->0) per atom                          :       -3736.98562757 eV  <-- do not rely on this value for anything but (periodic) metals
  | Electronic free energy per atom                       :       -3736.98562757 eV
  Evaluating new KS density using the density matrix
  Evaluating density matrix
  Computing the DM
  Selected method: ELPA_AT_A (preferred and supported)
  Using optimized A^T*A routine
  Finished density matrix calculation
  | Time :     0.006 s
  Time summed over all CPUs for getting density from density matrix: real work      656.772 s, elapsed      687.298 s
  Integration grid: deviation in total charge (<rho> - N_e) =   5.684342E-13

  Self-consistency convergence accuracy:
  | Change of charge density      :  0.6072E+00
  | Change of unmixed KS density  :  0.1031E+03
  | Change of sum of eigenvalues  : -0.1113E+06 eV
  | Change of total energy        : -0.2018E+06 eV


------------------------------------------------------------
  End self-consistency iteration #     0       :  max(cpu_time)    wall_clock(cpu1)
  | Time for this iteration                     :        7.452 s           7.534 s
  | Charge density update                       :        3.612 s           3.665 s
  | Density mixing                              :        0.001 s           0.000 s
  | Hartree multipole update                    :        0.033 s           0.033 s
  | Hartree multipole summation                 :        0.148 s           0.149 s
  | Integration                                 :        3.455 s           3.478 s
  | Solution of K.-S. eqns.                     :        0.205 s           0.208 s
  | Total energy evaluation                     :        0.000 s           0.000 s

  Partial memory accounting:
  | Current value for overall tracked memory usage:
  |   Minimum:       78.703 MB (on task 139)
  |   Maximum:       78.804 MB (on task  64)
  |   Average:       78.725 MB
  | Peak value for overall tracked memory usage:
  |   Minimum:      160.211 MB (on task 127 after allocating wave)
  |   Maximum:      163.328 MB (on task 149 after allocating wave)
  |   Average:      161.398 MB
  | Largest tracked array allocation so far:
  |   Minimum:       51.368 MB (overlap_matrix on task   0)
  |   Maximum:       51.368 MB (overlap_matrix on task   0)
  |   Average:       51.368 MB
  Note:  These values currently only include a subset of arrays which are explicitly tracked.
  The "true" memory usage will be greater.
------------------------------------------------------------

------------------------------------------------------------
          Begin self-consistency iteration #    1

  Date     :  20260811, Time     :  180805.764
------------------------------------------------------------
  Pulay mixing of updated and previous charge densities.
  Available memory per node after mixing [GB]:    993.00
  Renormalizing the density to the exact electron count on the 3D integration grid.
  | Formal number of electrons (from input files) :     540.0000000000
  | Integrated number of electrons on 3D grid     :     540.0000000000
  | Charge integration error                      :       0.0000000000
  | Normalization factor for density and gradient :       1.0000000000

  Evaluating partitioned Hartree potential by multipole expansion.
  | Original multipole sum: apparent total charge =   0.609040E-13
  | Sum of charges compensated after spline to logarithmic grids =   0.473109E-05
  | Analytical far-field extrapolation by fixed multipoles:
  | Hartree multipole sum: apparent total charge =   0.677422E-13
  Summing up the Hartree potential.
  Time summed over all CPUs for potential: real work        0.138 s, elapsed        0.144 s
  | RMS charge density error from multipole expansion :   0.451785E-01
  | Average real-space part of the electrostatic potential :      0.56516426 eV

  Integrating Hamiltonian matrix: batch-based integration.
  Time summed over all CPUs for integration: real work      624.448 s, elapsed      649.368 s

  Updating Kohn-Sham eigenvalues and eigenvectors using ELSI and the ELPA eigensolver.
  Starting ELPA eigensolver
  Finished transformation to standard eigenproblem
  | Time :     0.011 s
  Finished solving standard eigenproblem
  | Time :     0.079 s
  Finished back-transformation of eigenvectors
  | Time :     0.005 s

  Obtaining occupation numbers and electronic chemical potential using ELSI.
  | Note that, for insulating systems, the printed 'chemical potential' value is not uniquely defined.
  | It can be anywhere in the energy gap, as long as it correctly separates occupied and unoccupied states.
  | In systems with a gap, the physically relevant chemical potential is the VBM or HOMO.

  | Chemical potential (Fermi level):    -8.06394380 eV
  Writing Kohn-Sham eigenvalues.
  K-point:       1 at    0.000000    0.000000    0.000000 (in units of recip. lattice)

  State    Occupation    Eigenvalue [Ha]    Eigenvalue [eV]
      1       2.00000         -46.222850        -1257.78775
      2       2.00000         -46.222850        -1257.78775
      3       2.00000         -46.222850        -1257.78775
      4       2.00000         -46.222850        -1257.78775
      5       2.00000         -46.222850        -1257.78775
      6       2.00000         -46.222850        -1257.78775
      7       2.00000         -46.222850        -1257.78775
      8       2.00000         -46.222850        -1257.78775
      9       2.00000         -46.222850        -1257.78775
     10       2.00000         -46.222850        -1257.78775
     11       2.00000         -46.222850        -1257.78775
     12       2.00000         -46.222850        -1257.78775
     13       2.00000         -46.222850        -1257.78775
     14       2.00000         -46.222850        -1257.78775
     15       2.00000         -46.222850        -1257.78775
     16       2.00000         -46.222850        -1257.78775
     17       2.00000         -46.222850        -1257.78775
     18       2.00000         -46.222850        -1257.78775
     19       2.00000         -46.222850        -1257.78775
     20       2.00000         -46.222850        -1257.78775
     21       2.00000         -46.222850        -1257.78775
     22       2.00000         -46.222850        -1257.78775
     23       2.00000         -46.222850        -1257.78775
     24       2.00000         -46.222850        -1257.78775
     25       2.00000         -46.222850        -1257.78775
     26       2.00000         -46.222850        -1257.78775
     27       2.00000         -46.222850        -1257.78775
     28       2.00000         -18.740134         -509.94500
     29       2.00000         -18.740134         -509.94500
     30       2.00000         -18.740134         -509.94500
     31       2.00000         -18.740134         -509.94500
     32       2.00000         -18.740134         -509.94500
     33       2.00000         -18.740134         -509.94500
     34       2.00000         -18.740134         -509.94500
     35       2.00000         -18.740134         -509.94500
     36       2.00000         -18.740134         -509.94500
     37       2.00000         -18.740134         -509.94500
     38       2.00000         -18.740134         -509.94500
     39       2.00000         -18.740134         -509.94500
     40       2.00000         -18.740134         -509.94500
     41       2.00000         -18.740134         -509.94500
     42       2.00000         -18.740134         -509.94500
     43       2.00000         -18.740134         -509.94500
     44       2.00000         -18.740134         -509.94500
     45       2.00000         -18.740134         -509.94500
     46       2.00000         -18.740134         -509.94500
     47       2.00000         -18.740134         -509.94500
     48       2.00000         -18.740134         -509.94500
     49       2.00000         -18.740134         -509.94500
     50       2.00000         -18.740134         -509.94500
     51       2.00000         -18.740134         -509.94500
     52       2.00000         -18.740134         -509.94500
     53       2.00000         -18.740134         -509.94500
     54       2.00000         -18.740134         -509.94500
     55       2.00000          -3.009604          -81.89549
     56       2.00000          -3.009351          -81.88861
     57       2.00000          -3.009351          -81.88861
     58       2.00000          -3.009351          -81.88861
     59       2.00000          -3.009351          -81.88861
     60       2.00000          -3.009351          -81.88861
     61       2.00000          -3.009351          -81.88861
     62       2.00000          -3.009351          -81.88861
     63       2.00000          -3.009351          -81.88861
     64       2.00000          -3.009268          -81.88634
     65       2.00000          -3.009268          -81.88634
     66       2.00000          -3.009268          -81.88634
     67       2.00000          -3.009268          -81.88634
     68       2.00000          -3.009268          -81.88634
     69       2.00000          -3.009268          -81.88634
     70       2.00000          -3.009183          -81.88404
     71       2.00000          -3.009183          -81.88404
     72       2.00000          -3.009183          -81.88404
     73       2.00000          -3.009183          -81.88404
     74       2.00000          -3.009183          -81.88404
     75       2.00000          -3.009183          -81.88404
     76       2.00000          -3.009183          -81.88404
     77       2.00000          -3.009183          -81.88404
     78       2.00000          -3.009183          -81.88404
     79       2.00000          -3.009183          -81.88404
     80       2.00000          -3.009183          -81.88404
     81       2.00000          -3.009183          -81.88404
     82       2.00000          -1.813407          -49.34533
     83       2.00000          -1.813407          -49.34533
     84       2.00000          -1.813407          -49.34533
     85       2.00000          -1.813407          -49.34533
     86       2.00000          -1.813407          -49.34533
     87       2.00000          -1.813407          -49.34533
     88       2.00000          -1.813407          -49.34533
     89       2.00000          -1.813407          -49.34533
     90       2.00000          -1.813106          -49.33711
     91       2.00000          -1.813106          -49.33711
     92       2.00000          -1.813106          -49.33711
     93       2.00000          -1.813106          -49.33711
     94       2.00000          -1.813106          -49.33711
     95       2.00000          -1.813106          -49.33711
     96       2.00000          -1.813084          -49.33653
     97       2.00000          -1.813084          -49.33653
     98       2.00000          -1.813084          -49.33653
     99       2.00000          -1.813084          -49.33653
    100       2.00000          -1.813084          -49.33653
    101       2.00000          -1.813084          -49.33653
    102       2.00000          -1.813084          -49.33653
    103       2.00000          -1.813084          -49.33653
    104       2.00000          -1.813084          -49.33653
    105       2.00000          -1.813084          -49.33653
    106       2.00000          -1.813084          -49.33653
    107       2.00000          -1.813084          -49.33653
    108       2.00000          -1.812928          -49.33227
    109       2.00000          -1.812928          -49.33227
    110       2.00000          -1.812928          -49.33227
    111       2.00000          -1.812928          -49.33227
    112       2.00000          -1.812928          -49.33227
    113       2.00000          -1.812928          -49.33227
    114       2.00000          -1.812928          -49.33227
    115       2.00000          -1.812928          -49.33227
    116       2.00000          -1.812928          -49.33227
    117       2.00000          -1.812928          -49.33227
    118       2.00000          -1.812928          -49.33227
    119       2.00000          -1.812928          -49.33227
    120       2.00000          -1.811791          -49.30134
    121       2.00000          -1.811791          -49.30134
    122       2.00000          -1.811791          -49.30134
    123       2.00000          -1.811791          -49.30134
    124       2.00000          -1.811791          -49.30134
    125       2.00000          -1.811791          -49.30134
    126       2.00000          -1.811791          -49.30134
    127       2.00000          -1.811791          -49.30134
    128       2.00000          -1.811791          -49.30134
    129       2.00000          -1.811791          -49.30134
    130       2.00000          -1.811791          -49.30134
    131       2.00000          -1.811791          -49.30134
    132       2.00000          -1.811638          -49.29719
    133       2.00000          -1.811638          -49.29719
    134       2.00000          -1.811638          -49.29719
    135       2.00000          -1.811638          -49.29719
    136       2.00000          -1.811638          -49.29719
    137       2.00000          -1.811638          -49.29719
    138       2.00000          -1.811638          -49.29719
    139       2.00000          -1.811638          -49.29719
    140       2.00000          -1.811638          -49.29719
    141       2.00000          -1.811638          -49.29719
    142       2.00000          -1.811638          -49.29719
    143       2.00000          -1.811638          -49.29719
    144       2.00000          -1.811231          -49.28610
    145       2.00000          -1.811231          -49.28610
    146       2.00000          -1.811231          -49.28610
    147       2.00000          -1.811231          -49.28610
    148       2.00000          -1.811231          -49.28610
    149       2.00000          -1.811231          -49.28610
    150       2.00000          -1.811231          -49.28610
    151       2.00000          -1.811231          -49.28610
    152       2.00000          -1.811231          -49.28610
    153       2.00000          -1.811231          -49.28610
    154       2.00000          -1.811231          -49.28610
    155       2.00000          -1.811231          -49.28610
    156       2.00000          -1.811231          -49.28610
    157       2.00000          -1.811231          -49.28610
    158       2.00000          -1.811231          -49.28610
    159       2.00000          -1.811231          -49.28610
    160       2.00000          -1.810983          -49.27934
    161       2.00000          -1.810983          -49.27934
    162       2.00000          -1.810983          -49.27934
    163       2.00000          -1.004645          -27.33779
    164       2.00000          -0.968777          -26.36175
    165       2.00000          -0.968777          -26.36175
    166       2.00000          -0.968777          -26.36175
    167       2.00000          -0.968777          -26.36175
    168       2.00000          -0.968777          -26.36175
    169       2.00000          -0.968777          -26.36175
    170       2.00000          -0.968777          -26.36175
    171       2.00000          -0.968777          -26.36175
    172       2.00000          -0.960830          -26.14552
    173       2.00000          -0.960830          -26.14552
    174       2.00000          -0.960830          -26.14552
    175       2.00000          -0.960830          -26.14552
    176       2.00000          -0.960830          -26.14552
    177       2.00000          -0.960830          -26.14552
    178       2.00000          -0.946323          -25.75076
    179       2.00000          -0.946323          -25.75076
    180       2.00000          -0.946323          -25.75076
    181       2.00000          -0.946323          -25.75076
    182       2.00000          -0.946323          -25.75076
    183       2.00000          -0.946323          -25.75076
    184       2.00000          -0.946323          -25.75076
    185       2.00000          -0.946323          -25.75076
    186       2.00000          -0.946323          -25.75076
    187       2.00000          -0.946323          -25.75076
    188       2.00000          -0.946323          -25.75076
    189       2.00000          -0.946323          -25.75076
    190       2.00000          -0.516928          -14.06632
    191       2.00000          -0.516928          -14.06632
    192       2.00000          -0.516928          -14.06632
    193       2.00000          -0.516928          -14.06632
    194       2.00000          -0.516928          -14.06632
    195       2.00000          -0.516928          -14.06632
    196       2.00000          -0.516928          -14.06632
    197       2.00000          -0.516928          -14.06632
    198       2.00000          -0.507958          -13.82224
    199       2.00000          -0.507958          -13.82224
    200       2.00000          -0.507958          -13.82224
    201       2.00000          -0.507958          -13.82224
    202       2.00000          -0.507958          -13.82224
    203       2.00000          -0.507958          -13.82224
    204       2.00000          -0.500567          -13.62113
    205       2.00000          -0.500567          -13.62113
    206       2.00000          -0.500567          -13.62113
    207       2.00000          -0.500567          -13.62113
    208       2.00000          -0.500567          -13.62113
    209       2.00000          -0.500567          -13.62113
    210       2.00000          -0.500567          -13.62113
    211       2.00000          -0.500567          -13.62113
    212       2.00000          -0.500567          -13.62113
    213       2.00000          -0.500567          -13.62113
    214       2.00000          -0.500567          -13.62113
    215       2.00000          -0.500567          -13.62113
    216       2.00000          -0.494269          -13.44975
    217       2.00000          -0.494269          -13.44975
    218       2.00000          -0.494269          -13.44975
    219       2.00000          -0.494269          -13.44975
    220       2.00000          -0.494269          -13.44975
    221       2.00000          -0.494269          -13.44975
    222       2.00000          -0.494269          -13.44975
    223       2.00000          -0.494269          -13.44975
    224       2.00000          -0.494269          -13.44975
    225       2.00000          -0.494269          -13.44975
    226       2.00000          -0.494269          -13.44975
    227       2.00000          -0.494269          -13.44975
    228       2.00000          -0.420054          -11.43025
    229       2.00000          -0.420054          -11.43025
    230       2.00000          -0.420054          -11.43025
    231       2.00000          -0.420054          -11.43025
    232       2.00000          -0.420054          -11.43025
    233       2.00000          -0.420054          -11.43025
    234       2.00000          -0.420054          -11.43025
    235       2.00000          -0.420054          -11.43025
    236       2.00000          -0.420054          -11.43025
    237       2.00000          -0.420054          -11.43025
    238       2.00000          -0.420054          -11.43025
    239       2.00000          -0.420054          -11.43025
    240       2.00000          -0.417942          -11.37278
    241       2.00000          -0.417942          -11.37278
    242       2.00000          -0.417942          -11.37278
    243       2.00000          -0.417942          -11.37278
    244       2.00000          -0.417942          -11.37278
    245       2.00000          -0.417942          -11.37278
    246       2.00000          -0.417942          -11.37278
    247       2.00000          -0.417942          -11.37278
    248       2.00000          -0.417942          -11.37278
    249       2.00000          -0.417942          -11.37278
    250       2.00000          -0.417942          -11.37278
    251       2.00000          -0.417942          -11.37278
    252       2.00000          -0.399410          -10.86851
    253       2.00000          -0.399410          -10.86851
    254       2.00000          -0.399410          -10.86851
    255       2.00000          -0.399410          -10.86851
    256       2.00000          -0.399410          -10.86851
    257       2.00000          -0.399410          -10.86851
    258       2.00000          -0.399410          -10.86850
    259       2.00000          -0.399410          -10.86850
    260       2.00000          -0.399410          -10.86850
    261       2.00000          -0.399410          -10.86850
    262       2.00000          -0.399410          -10.86850
    263       2.00000          -0.399410          -10.86850
    264       2.00000          -0.399410          -10.86850
    265       2.00000          -0.399410          -10.86850
    266       2.00000          -0.399410          -10.86850
    267       2.00000          -0.399410          -10.86850
    268       2.00000          -0.381005          -10.36767
    269       2.00000          -0.381005          -10.36767
    270       2.00000          -0.381005          -10.36766
    271       0.00000          -0.211684           -5.76022
    272       0.00000          -0.105002           -2.85725
    273       0.00000          -0.105002           -2.85725
    274       0.00000          -0.105002           -2.85725
    275       0.00000          -0.105002           -2.85725
    276       0.00000          -0.105002           -2.85725
    277       0.00000          -0.105002           -2.85725
    278       0.00000          -0.105002           -2.85725
    279       0.00000          -0.105002           -2.85725
    280       0.00000          -0.047945           -1.30465
    281       0.00000          -0.047945           -1.30465
    282       0.00000          -0.047945           -1.30465
    283       0.00000          -0.047945           -1.30465
    284       0.00000          -0.047945           -1.30465
    285       0.00000          -0.047945           -1.30465
    286       0.00000          -0.020266           -0.55147
    287       0.00000          -0.020266           -0.55147
    288       0.00000          -0.020266           -0.55147
    289       0.00000          -0.020266           -0.55147
    290       0.00000          -0.020266           -0.55147
    291       0.00000          -0.020266           -0.55147
    292       0.00000          -0.008937           -0.24318
    293       0.00000          -0.008937           -0.24318
    294       0.00000          -0.008937           -0.24318
    295       0.00000          -0.008937           -0.24318
    296       0.00000          -0.008937           -0.24318
    297       0.00000          -0.008937           -0.24318
    298       0.00000          -0.008937           -0.24318
    299       0.00000          -0.008937           -0.24318
    300       0.00000          -0.008937           -0.24318
    301       0.00000          -0.008937           -0.24318
    302       0.00000          -0.008937           -0.24318
    303       0.00000          -0.008937           -0.24318
    304       0.00000           0.059632            1.62268
    305       0.00000           0.059632            1.62268
    306       0.00000           0.059632            1.62268
    307       0.00000           0.059632            1.62268
    308       0.00000           0.059632            1.62268
    309       0.00000           0.059632            1.62268
    310       0.00000           0.059632            1.62268
    311       0.00000           0.059632            1.62268
    312       0.00000           0.059632            1.62268
    313       0.00000           0.059632            1.62268
    314       0.00000           0.059632            1.62268
    315       0.00000           0.059632            1.62268
    316       0.00000           0.063180            1.71922
    317       0.00000           0.063180            1.71922
    318       0.00000           0.063180            1.71922
    319       0.00000           0.063180            1.71922
    320       0.00000           0.063180            1.71922
    321       0.00000           0.063180            1.71922
    322       0.00000           0.063180            1.71922
    323       0.00000           0.063180            1.71922
    324       0.00000           0.068483            1.86350
    325       0.00000           0.068483            1.86350
    326       0.00000           0.068483            1.86350
    327       0.00000           0.068483            1.86350
    328       0.00000           0.068483            1.86350
    329       0.00000           0.068483            1.86350
    330       0.00000           0.068483            1.86350
    331       0.00000           0.068483            1.86350
    332       0.00000           0.068483            1.86350
    333       0.00000           0.068483            1.86350
    334       0.00000           0.068483            1.86351
    335       0.00000           0.068483            1.86351
    336       0.00000           0.127351            3.46541
    337       0.00000           0.127351            3.46541
    338       0.00000           0.127352            3.46541
    339       0.00000           0.127352            3.46541
    340       0.00000           0.127352            3.46541
    341       0.00000           0.127352            3.46541
    342       0.00000           0.196211            5.33916
    343       0.00000           0.196211            5.33916
    344       0.00000           0.196211            5.33916
    345       0.00000           0.225916            6.14748
    346       0.00000           0.225916            6.14748
    347       0.00000           0.225916            6.14748
    348       0.00000           0.225916            6.14748
    349       0.00000           0.225916            6.14748
    350       0.00000           0.225916            6.14748
    351       0.00000           0.225916            6.14748
    352       0.00000           0.225916            6.14748
    353       0.00000           0.225916            6.14748
    354       0.00000           0.225916            6.14748
    355       0.00000           0.225916            6.14749
    356       0.00000           0.225916            6.14749
    357       0.00000           0.225916            6.14749
    358       0.00000           0.225916            6.14749
    359       0.00000           0.225916            6.14749
    360       0.00000           0.225916            6.14749
    361       0.00000           0.274468            7.46865
    362       0.00000           0.274468            7.46865
    363       0.00000           0.274468            7.46865
    364       0.00000           0.274468            7.46865
    365       0.00000           0.274468            7.46865
    366       0.00000           0.274468            7.46865
    367       0.00000           0.274468            7.46865
    368       0.00000           0.274468            7.46865
    369       0.00000           0.274468            7.46865
    370       0.00000           0.274468            7.46865
    371       0.00000           0.274468            7.46865
    372       0.00000           0.274468            7.46865
    373       0.00000           0.282509            7.68746
    374       0.00000           0.282509            7.68746
    375       0.00000           0.282509            7.68746
    376       0.00000           0.282509            7.68746
    377       0.00000           0.282509            7.68746
    378       0.00000           0.282509            7.68746
    379       0.00000           0.282509            7.68746
    380       0.00000           0.282509            7.68746
    381       0.00000           0.282509            7.68746
    382       0.00000           0.282509            7.68746
    383       0.00000           0.282509            7.68746
    384       0.00000           0.282509            7.68746
    385       0.00000           0.306892            8.35097
    386       0.00000           0.306892            8.35097
    387       0.00000           0.306892            8.35097
    388       0.00000           0.306892            8.35097
    389       0.00000           0.306892            8.35097
    390       0.00000           0.306892            8.35097
    391       0.00000           0.306892            8.35097
    392       0.00000           0.306892            8.35097
    393       0.00000           0.306892            8.35097
    394       0.00000           0.306892            8.35097
    395       0.00000           0.306893            8.35097
    396       0.00000           0.306893            8.35097
    397       0.00000           0.335247            9.12254
    398       0.00000           0.387986           10.55763
    399       0.00000           0.387986           10.55763
    400       0.00000           0.387986           10.55763
    401       0.00000           0.387986           10.55763
    402       0.00000           0.387986           10.55763
    403       0.00000           0.387986           10.55763
    404       0.00000           0.387986           10.55763
    405       0.00000           0.387986           10.55763
    406       0.00000           0.387986           10.55763
    407       0.00000           0.387986           10.55763
    408       0.00000           0.387986           10.55763
    409       0.00000           0.387986           10.55763
    410       0.00000           0.387986           10.55763
    411       0.00000           0.387986           10.55763
    412       0.00000           0.387986           10.55763
    413       0.00000           0.387986           10.55763
    414       0.00000           0.410336           11.16581
    415       0.00000           0.410337           11.16583
    416       0.00000           0.421718           11.47553
    417       0.00000           0.421718           11.47553
    418       0.00000           0.421718           11.47553
    419       0.00000           0.421718           11.47553
    420       0.00000           0.421718           11.47553
    421       0.00000           0.421718           11.47553
    422       0.00000           0.421718           11.47553
    423       0.00000           0.421718           11.47553
    424       0.00000           0.469069           12.76402
    425       0.00000           0.469069           12.76402
    426       0.00000           0.469069           12.76402
    427       0.00000           0.469069           12.76402
    428       0.00000           0.469069           12.76402
    429       0.00000           0.469069           12.76402
    430       0.00000           0.469069           12.76402
    431       0.00000           0.469069           12.76402
    432       0.00000           0.469069           12.76402

  What follows are estimated values for band gap, HOMO, LUMO, etc.
  | They are estimated on a discrete k-point grid and not necessarily exact.
  | For converged numbers, create a DOS and/or band structure plot on a denser k-grid.

  Highest occupied state (VBM) at    -10.36766471 eV (relative to internal zero)
  | Occupation number:      2.00000000
  | K-point:       1 at    0.000000    0.000000    0.000000 (in units of recip. lattice)

  Lowest unoccupied state (CBM) at    -5.76022289 eV (relative to internal zero)
  | Occupation number:      0.00000000
  | K-point:       1 at    0.000000    0.000000    0.000000 (in units of recip. lattice)

  The gap value is above 0.2 eV. Unless you are using a very sparse k-point grid,
  this system is most likely an insulator or a semiconductor.
  ESTIMATED overall HOMO-LUMO gap:      4.60744182 eV between HOMO at k-point 1 and LUMO at k-point 1
  | This appears to be a direct band gap.

  Total energy components:
  | Sum of eigenvalues            :       -4089.35059363 Ha     -111276.89135856 eV
  | XC energy correction          :        -643.09092616 Ha      -17499.39446023 eV
  | XC potential correction       :         848.58122951 Ha       23091.07011571 eV
  | Free-atom electrostatic energy:       -3520.04356369 Ha      -95785.25886840 eV
  | Hartree energy correction     :         -12.00781670 Ha        -326.74931725 eV
  | Entropy correction            :           0.00000000 Ha           0.00000000 eV
  | ---------------------------
  | Total energy                  :       -7415.91167067 Ha     -201797.22388873 eV
  | Total energy, T -> 0          :       -7415.91167067 Ha     -201797.22388873 eV  <-- do not rely on this value for anything but (periodic) metals
  | Electronic free energy        :       -7415.91167067 Ha     -201797.22388873 eV

  Derived energy quantities:
  | Kinetic energy                :        7407.13486389 Ha      201558.39482461 eV
  | Electrostatic energy          :      -14179.95560840 Ha     -385856.22425312 eV
  | Energy correction for multipole
  | error in Hartree potential    :           0.02605829 Ha           0.70908226 eV
  | Sum of eigenvalues per atom                           :       -2060.68317331 eV
  | Total energy (T->0) per atom                          :       -3736.98562757 eV  <-- do not rely on this value for anything but (periodic) metals
  | Electronic free energy per atom                       :       -3736.98562757 eV

  Self-consistency convergence accuracy:
  | Change of charge density      :  0.4108E-09
  | Change of unmixed KS density  :  0.4108E-09
  | Change of sum of eigenvalues  :  0.5395E-08 eV
  | Change of total energy        : -0.1732E-09 eV

  Writing Kohn-Sham eigenvalues.
  K-point:       1 at    0.000000    0.000000    0.000000 (in units of recip. lattice)

  State    Occupation    Eigenvalue [Ha]    Eigenvalue [eV]
      1       2.00000         -46.222850        -1257.78775
      2       2.00000         -46.222850        -1257.78775
      3       2.00000         -46.222850        -1257.78775
      4       2.00000         -46.222850        -1257.78775
      5       2.00000         -46.222850        -1257.78775
      6       2.00000         -46.222850        -1257.78775
      7       2.00000         -46.222850        -1257.78775
      8       2.00000         -46.222850        -1257.78775
      9       2.00000         -46.222850        -1257.78775
     10       2.00000         -46.222850        -1257.78775
     11       2.00000         -46.222850        -1257.78775
     12       2.00000         -46.222850        -1257.78775
     13       2.00000         -46.222850        -1257.78775
     14       2.00000         -46.222850        -1257.78775
     15       2.00000         -46.222850        -1257.78775
     16       2.00000         -46.222850        -1257.78775
     17       2.00000         -46.222850        -1257.78775
     18       2.00000         -46.222850        -1257.78775
     19       2.00000         -46.222850        -1257.78775
     20       2.00000         -46.222850        -1257.78775
     21       2.00000         -46.222850        -1257.78775
     22       2.00000         -46.222850        -1257.78775
     23       2.00000         -46.222850        -1257.78775
     24       2.00000         -46.222850        -1257.78775
     25       2.00000         -46.222850        -1257.78775
     26       2.00000         -46.222850        -1257.78775
     27       2.00000         -46.222850        -1257.78775
     28       2.00000         -18.740134         -509.94500
     29       2.00000         -18.740134         -509.94500
     30       2.00000         -18.740134         -509.94500
     31       2.00000         -18.740134         -509.94500
     32       2.00000         -18.740134         -509.94500
     33       2.00000         -18.740134         -509.94500
     34       2.00000         -18.740134         -509.94500
     35       2.00000         -18.740134         -509.94500
     36       2.00000         -18.740134         -509.94500
     37       2.00000         -18.740134         -509.94500
     38       2.00000         -18.740134         -509.94500
     39       2.00000         -18.740134         -509.94500
     40       2.00000         -18.740134         -509.94500
     41       2.00000         -18.740134         -509.94500
     42       2.00000         -18.740134         -509.94500
     43       2.00000         -18.740134         -509.94500
     44       2.00000         -18.740134         -509.94500
     45       2.00000         -18.740134         -509.94500
     46       2.00000         -18.740134         -509.94500
     47       2.00000         -18.740134         -509.94500
     48       2.00000         -18.740134         -509.94500
     49       2.00000         -18.740134         -509.94500
     50       2.00000         -18.740134         -509.94500
     51       2.00000         -18.740134         -509.94500
     52       2.00000         -18.740134         -509.94500
     53       2.00000         -18.740134         -509.94500
     54       2.00000         -18.740134         -509.94500
     55       2.00000          -3.009604          -81.89549
     56       2.00000          -3.009351          -81.88861
     57       2.00000          -3.009351          -81.88861
     58       2.00000          -3.009351          -81.88861
     59       2.00000          -3.009351          -81.88861
     60       2.00000          -3.009351          -81.88861
     61       2.00000          -3.009351          -81.88861
     62       2.00000          -3.009351          -81.88861
     63       2.00000          -3.009351          -81.88861
     64       2.00000          -3.009268          -81.88634
     65       2.00000          -3.009268          -81.88634
     66       2.00000          -3.009268          -81.88634
     67       2.00000          -3.009268          -81.88634
     68       2.00000          -3.009268          -81.88634
     69       2.00000          -3.009268          -81.88634
     70       2.00000          -3.009183          -81.88404
     71       2.00000          -3.009183          -81.88404
     72       2.00000          -3.009183          -81.88404
     73       2.00000          -3.009183          -81.88404
     74       2.00000          -3.009183          -81.88404
     75       2.00000          -3.009183          -81.88404
     76       2.00000          -3.009183          -81.88404
     77       2.00000          -3.009183          -81.88404
     78       2.00000          -3.009183          -81.88404
     79       2.00000          -3.009183          -81.88404
     80       2.00000          -3.009183          -81.88404
     81       2.00000          -3.009183          -81.88404
     82       2.00000          -1.813407          -49.34533
     83       2.00000          -1.813407          -49.34533
     84       2.00000          -1.813407          -49.34533
     85       2.00000          -1.813407          -49.34533
     86       2.00000          -1.813407          -49.34533
     87       2.00000          -1.813407          -49.34533
     88       2.00000          -1.813407          -49.34533
     89       2.00000          -1.813407          -49.34533
     90       2.00000          -1.813106          -49.33711
     91       2.00000          -1.813106          -49.33711
     92       2.00000          -1.813106          -49.33711
     93       2.00000          -1.813106          -49.33711
     94       2.00000          -1.813106          -49.33711
     95       2.00000          -1.813106          -49.33711
     96       2.00000          -1.813084          -49.33653
     97       2.00000          -1.813084          -49.33653
     98       2.00000          -1.813084          -49.33653
     99       2.00000          -1.813084          -49.33653
    100       2.00000          -1.813084          -49.33653
    101       2.00000          -1.813084          -49.33653
    102       2.00000          -1.813084          -49.33653
    103       2.00000          -1.813084          -49.33653
    104       2.00000          -1.813084          -49.33653
    105       2.00000          -1.813084          -49.33653
    106       2.00000          -1.813084          -49.33653
    107       2.00000          -1.813084          -49.33653
    108       2.00000          -1.812928          -49.33227
    109       2.00000          -1.812928          -49.33227
    110       2.00000          -1.812928          -49.33227
    111       2.00000          -1.812928          -49.33227
    112       2.00000          -1.812928          -49.33227
    113       2.00000          -1.812928          -49.33227
    114       2.00000          -1.812928          -49.33227
    115       2.00000          -1.812928          -49.33227
    116       2.00000          -1.812928          -49.33227
    117       2.00000          -1.812928          -49.33227
    118       2.00000          -1.812928          -49.33227
    119       2.00000          -1.812928          -49.33227
    120       2.00000          -1.811791          -49.30134
    121       2.00000          -1.811791          -49.30134
    122       2.00000          -1.811791          -49.30134
    123       2.00000          -1.811791          -49.30134
    124       2.00000          -1.811791          -49.30134
    125       2.00000          -1.811791          -49.30134
    126       2.00000          -1.811791          -49.30134
    127       2.00000          -1.811791          -49.30134
    128       2.00000          -1.811791          -49.30134
    129       2.00000          -1.811791          -49.30134
    130       2.00000          -1.811791          -49.30134
    131       2.00000          -1.811791          -49.30134
    132       2.00000          -1.811638          -49.29719
    133       2.00000          -1.811638          -49.29719
    134       2.00000          -1.811638          -49.29719
    135       2.00000          -1.811638          -49.29719
    136       2.00000          -1.811638          -49.29719
    137       2.00000          -1.811638          -49.29719
    138       2.00000          -1.811638          -49.29719
    139       2.00000          -1.811638          -49.29719
    140       2.00000          -1.811638          -49.29719
    141       2.00000          -1.811638          -49.29719
    142       2.00000          -1.811638          -49.29719
    143       2.00000          -1.811638          -49.29719
    144       2.00000          -1.811231          -49.28610
    145       2.00000          -1.811231          -49.28610
    146       2.00000          -1.811231          -49.28610
    147       2.00000          -1.811231          -49.28610
    148       2.00000          -1.811231          -49.28610
    149       2.00000          -1.811231          -49.28610
    150       2.00000          -1.811231          -49.28610
    151       2.00000          -1.811231          -49.28610
    152       2.00000          -1.811231          -49.28610
    153       2.00000          -1.811231          -49.28610
    154       2.00000          -1.811231          -49.28610
    155       2.00000          -1.811231          -49.28610
    156       2.00000          -1.811231          -49.28610
    157       2.00000          -1.811231          -49.28610
    158       2.00000          -1.811231          -49.28610
    159       2.00000          -1.811231          -49.28610
    160       2.00000          -1.810983          -49.27934
    161       2.00000          -1.810983          -49.27934
    162       2.00000          -1.810983          -49.27934
    163       2.00000          -1.004645          -27.33779
    164       2.00000          -0.968777          -26.36175
    165       2.00000          -0.968777          -26.36175
    166       2.00000          -0.968777          -26.36175
    167       2.00000          -0.968777          -26.36175
    168       2.00000          -0.968777          -26.36175
    169       2.00000          -0.968777          -26.36175
    170       2.00000          -0.968777          -26.36175
    171       2.00000          -0.968777          -26.36175
    172       2.00000          -0.960830          -26.14552
    173       2.00000          -0.960830          -26.14552
    174       2.00000          -0.960830          -26.14552
    175       2.00000          -0.960830          -26.14552
    176       2.00000          -0.960830          -26.14552
    177       2.00000          -0.960830          -26.14552
    178       2.00000          -0.946323          -25.75076
    179       2.00000          -0.946323          -25.75076
    180       2.00000          -0.946323          -25.75076
    181       2.00000          -0.946323          -25.75076
    182       2.00000          -0.946323          -25.75076
    183       2.00000          -0.946323          -25.75076
    184       2.00000          -0.946323          -25.75076
    185       2.00000          -0.946323          -25.75076
    186       2.00000          -0.946323          -25.75076
    187       2.00000          -0.946323          -25.75076
    188       2.00000          -0.946323          -25.75076
    189       2.00000          -0.946323          -25.75076
    190       2.00000          -0.516928          -14.06632
    191       2.00000          -0.516928          -14.06632
    192       2.00000          -0.516928          -14.06632
    193       2.00000          -0.516928          -14.06632
    194       2.00000          -0.516928          -14.06632
    195       2.00000          -0.516928          -14.06632
    196       2.00000          -0.516928          -14.06632
    197       2.00000          -0.516928          -14.06632
    198       2.00000          -0.507958          -13.82224
    199       2.00000          -0.507958          -13.82224
    200       2.00000          -0.507958          -13.82224
    201       2.00000          -0.507958          -13.82224
    202       2.00000          -0.507958          -13.82224
    203       2.00000          -0.507958          -13.82224
    204       2.00000          -0.500567          -13.62113
    205       2.00000          -0.500567          -13.62113
    206       2.00000          -0.500567          -13.62113
    207       2.00000          -0.500567          -13.62113
    208       2.00000          -0.500567          -13.62113
    209       2.00000          -0.500567          -13.62113
    210       2.00000          -0.500567          -13.62113
    211       2.00000          -0.500567          -13.62113
    212       2.00000          -0.500567          -13.62113
    213       2.00000          -0.500567          -13.62113
    214       2.00000          -0.500567          -13.62113
    215       2.00000          -0.500567          -13.62113
    216       2.00000          -0.494269          -13.44975
    217       2.00000          -0.494269          -13.44975
    218       2.00000          -0.494269          -13.44975
    219       2.00000          -0.494269          -13.44975
    220       2.00000          -0.494269          -13.44975
    221       2.00000          -0.494269          -13.44975
    222       2.00000          -0.494269          -13.44975
    223       2.00000          -0.494269          -13.44975
    224       2.00000          -0.494269          -13.44975
    225       2.00000          -0.494269          -13.44975
    226       2.00000          -0.494269          -13.44975
    227       2.00000          -0.494269          -13.44975
    228       2.00000          -0.420054          -11.43025
    229       2.00000          -0.420054          -11.43025
    230       2.00000          -0.420054          -11.43025
    231       2.00000          -0.420054          -11.43025
    232       2.00000          -0.420054          -11.43025
    233       2.00000          -0.420054          -11.43025
    234       2.00000          -0.420054          -11.43025
    235       2.00000          -0.420054          -11.43025
    236       2.00000          -0.420054          -11.43025
    237       2.00000          -0.420054          -11.43025
    238       2.00000          -0.420054          -11.43025
    239       2.00000          -0.420054          -11.43025
    240       2.00000          -0.417942          -11.37278
    241       2.00000          -0.417942          -11.37278
    242       2.00000          -0.417942          -11.37278
    243       2.00000          -0.417942          -11.37278
    244       2.00000          -0.417942          -11.37278
    245       2.00000          -0.417942          -11.37278
    246       2.00000          -0.417942          -11.37278
    247       2.00000          -0.417942          -11.37278
    248       2.00000          -0.417942          -11.37278
    249       2.00000          -0.417942          -11.37278
    250       2.00000          -0.417942          -11.37278
    251       2.00000          -0.417942          -11.37278
    252       2.00000          -0.399410          -10.86851
    253       2.00000          -0.399410          -10.86851
    254       2.00000          -0.399410          -10.86851
    255       2.00000          -0.399410          -10.86851
    256       2.00000          -0.399410          -10.86851
    257       2.00000          -0.399410          -10.86851
    258       2.00000          -0.399410          -10.86850
    259       2.00000          -0.399410          -10.86850
    260       2.00000          -0.399410          -10.86850
    261       2.00000          -0.399410          -10.86850
    262       2.00000          -0.399410          -10.86850
    263       2.00000          -0.399410          -10.86850
    264       2.00000          -0.399410          -10.86850
    265       2.00000          -0.399410          -10.86850
    266       2.00000          -0.399410          -10.86850
    267       2.00000          -0.399410          -10.86850
    268       2.00000          -0.381005          -10.36767
    269       2.00000          -0.381005          -10.36767
    270       2.00000          -0.381005          -10.36766
    271       0.00000          -0.211684           -5.76022
    272       0.00000          -0.105002           -2.85725
    273       0.00000          -0.105002           -2.85725
    274       0.00000          -0.105002           -2.85725
    275       0.00000          -0.105002           -2.85725
    276       0.00000          -0.105002           -2.85725
    277       0.00000          -0.105002           -2.85725
    278       0.00000          -0.105002           -2.85725
    279       0.00000          -0.105002           -2.85725
    280       0.00000          -0.047945           -1.30465
    281       0.00000          -0.047945           -1.30465
    282       0.00000          -0.047945           -1.30465
    283       0.00000          -0.047945           -1.30465
    284       0.00000          -0.047945           -1.30465
    285       0.00000          -0.047945           -1.30465
    286       0.00000          -0.020266           -0.55147
    287       0.00000          -0.020266           -0.55147
    288       0.00000          -0.020266           -0.55147
    289       0.00000          -0.020266           -0.55147
    290       0.00000          -0.020266           -0.55147
    291       0.00000          -0.020266           -0.55147
    292       0.00000          -0.008937           -0.24318
    293       0.00000          -0.008937           -0.24318
    294       0.00000          -0.008937           -0.24318
    295       0.00000          -0.008937           -0.24318
    296       0.00000          -0.008937           -0.24318
    297       0.00000          -0.008937           -0.24318
    298       0.00000          -0.008937           -0.24318
    299       0.00000          -0.008937           -0.24318
    300       0.00000          -0.008937           -0.24318
    301       0.00000          -0.008937           -0.24318
    302       0.00000          -0.008937           -0.24318
    303       0.00000          -0.008937           -0.24318
    304       0.00000           0.059632            1.62268
    305       0.00000           0.059632            1.62268
    306       0.00000           0.059632            1.62268
    307       0.00000           0.059632            1.62268
    308       0.00000           0.059632            1.62268
    309       0.00000           0.059632            1.62268
    310       0.00000           0.059632            1.62268
    311       0.00000           0.059632            1.62268
    312       0.00000           0.059632            1.62268
    313       0.00000           0.059632            1.62268
    314       0.00000           0.059632            1.62268
    315       0.00000           0.059632            1.62268
    316       0.00000           0.063180            1.71922
    317       0.00000           0.063180            1.71922
    318       0.00000           0.063180            1.71922
    319       0.00000           0.063180            1.71922
    320       0.00000           0.063180            1.71922
    321       0.00000           0.063180            1.71922
    322       0.00000           0.063180            1.71922
    323       0.00000           0.063180            1.71922
    324       0.00000           0.068483            1.86350
    325       0.00000           0.068483            1.86350
    326       0.00000           0.068483            1.86350
    327       0.00000           0.068483            1.86350
    328       0.00000           0.068483            1.86350
    329       0.00000           0.068483            1.86350
    330       0.00000           0.068483            1.86350
    331       0.00000           0.068483            1.86350
    332       0.00000           0.068483            1.86350
    333       0.00000           0.068483            1.86350
    334       0.00000           0.068483            1.86351
    335       0.00000           0.068483            1.86351
    336       0.00000           0.127351            3.46541
    337       0.00000           0.127351            3.46541
    338       0.00000           0.127352            3.46541
    339       0.00000           0.127352            3.46541
    340       0.00000           0.127352            3.46541
    341       0.00000           0.127352            3.46541
    342       0.00000           0.196211            5.33916
    343       0.00000           0.196211            5.33916
    344       0.00000           0.196211            5.33916
    345       0.00000           0.225916            6.14748
    346       0.00000           0.225916            6.14748
    347       0.00000           0.225916            6.14748
    348       0.00000           0.225916            6.14748
    349       0.00000           0.225916            6.14748
    350       0.00000           0.225916            6.14748
    351       0.00000           0.225916            6.14748
    352       0.00000           0.225916            6.14748
    353       0.00000           0.225916            6.14748
    354       0.00000           0.225916            6.14748
    355       0.00000           0.225916            6.14749
    356       0.00000           0.225916            6.14749
    357       0.00000           0.225916            6.14749
    358       0.00000           0.225916            6.14749
    359       0.00000           0.225916            6.14749
    360       0.00000           0.225916            6.14749
    361       0.00000           0.274468            7.46865
    362       0.00000           0.274468            7.46865
    363       0.00000           0.274468            7.46865
    364       0.00000           0.274468            7.46865
    365       0.00000           0.274468            7.46865
    366       0.00000           0.274468            7.46865
    367       0.00000           0.274468            7.46865
    368       0.00000           0.274468            7.46865
    369       0.00000           0.274468            7.46865
    370       0.00000           0.274468            7.46865
    371       0.00000           0.274468            7.46865
    372       0.00000           0.274468            7.46865
    373       0.00000           0.282509            7.68746
    374       0.00000           0.282509            7.68746
    375       0.00000           0.282509            7.68746
    376       0.00000           0.282509            7.68746
    377       0.00000           0.282509            7.68746
    378       0.00000           0.282509            7.68746
    379       0.00000           0.282509            7.68746
    380       0.00000           0.282509            7.68746
    381       0.00000           0.282509            7.68746
    382       0.00000           0.282509            7.68746
    383       0.00000           0.282509            7.68746
    384       0.00000           0.282509            7.68746
    385       0.00000           0.306892            8.35097
    386       0.00000           0.306892            8.35097
    387       0.00000           0.306892            8.35097
    388       0.00000           0.306892            8.35097
    389       0.00000           0.306892            8.35097
    390       0.00000           0.306892            8.35097
    391       0.00000           0.306892            8.35097
    392       0.00000           0.306892            8.35097
    393       0.00000           0.306892            8.35097
    394       0.00000           0.306892            8.35097
    395       0.00000           0.306893            8.35097
    396       0.00000           0.306893            8.35097
    397       0.00000           0.335247            9.12254
    398       0.00000           0.387986           10.55763
    399       0.00000           0.387986           10.55763
    400       0.00000           0.387986           10.55763
    401       0.00000           0.387986           10.55763
    402       0.00000           0.387986           10.55763
    403       0.00000           0.387986           10.55763
    404       0.00000           0.387986           10.55763
    405       0.00000           0.387986           10.55763
    406       0.00000           0.387986           10.55763
    407       0.00000           0.387986           10.55763
    408       0.00000           0.387986           10.55763
    409       0.00000           0.387986           10.55763
    410       0.00000           0.387986           10.55763
    411       0.00000           0.387986           10.55763
    412       0.00000           0.387986           10.55763
    413       0.00000           0.387986           10.55763
    414       0.00000           0.410336           11.16581
    415       0.00000           0.410337           11.16583
    416       0.00000           0.421718           11.47553
    417       0.00000           0.421718           11.47553
    418       0.00000           0.421718           11.47553
    419       0.00000           0.421718           11.47553
    420       0.00000           0.421718           11.47553
    421       0.00000           0.421718           11.47553
    422       0.00000           0.421718           11.47553
    423       0.00000           0.421718           11.47553
    424       0.00000           0.469069           12.76402
    425       0.00000           0.469069           12.76402
    426       0.00000           0.469069           12.76402
    427       0.00000           0.469069           12.76402
    428       0.00000           0.469069           12.76402
    429       0.00000           0.469069           12.76402
    430       0.00000           0.469069           12.76402
    431       0.00000           0.469069           12.76402
    432       0.00000           0.469069           12.76402

  What follows are estimated values for band gap, HOMO, LUMO, etc.
  | They are estimated on a discrete k-point grid and not necessarily exact.
  | For converged numbers, create a DOS and/or band structure plot on a denser k-grid.

  Highest occupied state (VBM) at    -10.36766471 eV (relative to internal zero)
  | Occupation number:      2.00000000
  | K-point:       1 at    0.000000    0.000000    0.000000 (in units of recip. lattice)

  Lowest unoccupied state (CBM) at    -5.76022289 eV (relative to internal zero)
  | Occupation number:      0.00000000
  | K-point:       1 at    0.000000    0.000000    0.000000 (in units of recip. lattice)

  The gap value is above 0.2 eV. Unless you are using a very sparse k-point grid,
  this system is most likely an insulator or a semiconductor.
  ESTIMATED overall HOMO-LUMO gap:      4.60744182 eV between HOMO at k-point 1 and LUMO at k-point 1
  | This appears to be a direct band gap.

  | Chemical Potential                          :    -8.06394380 eV
  | Note that, for insulating systems, the printed 'chemical potential' value is not uniquely defined.
  | It can be anywhere in the energy gap, as long as it correctly separates occupied and unoccupied states.
  | In systems with a gap, the physically relevant chemical potential is the VBM or HOMO.

  Self-consistency cycle converged.


------------------------------------------------------------
  End self-consistency iteration #     1       :  max(cpu_time)    wall_clock(cpu1)
  | Time for this iteration                     :        3.745 s           3.799 s
  | Charge density update                       :        0.000 s           0.000 s
  | Density mixing                              :        0.001 s           0.001 s
  | Hartree multipole update                    :        0.034 s           0.034 s
  | Hartree multipole summation                 :        0.147 s           0.149 s
  | Integration                                 :        3.450 s           3.500 s
  | Solution of K.-S. eqns.                     :        0.112 s           0.113 s
  | Total energy evaluation                     :        0.000 s           0.000 s

  Partial memory accounting:
  | Current value for overall tracked memory usage:
  |   Minimum:       78.703 MB (on task 139)
  |   Maximum:       78.804 MB (on task  64)
  |   Average:       78.725 MB
  | Peak value for overall tracked memory usage:
  |   Minimum:      160.211 MB (on task 127 after allocating wave)
  |   Maximum:      163.328 MB (on task 149 after allocating wave)
  |   Average:      161.398 MB
  | Largest tracked array allocation so far:
  |   Minimum:       51.368 MB (overlap_matrix on task   0)
  |   Maximum:       51.368 MB (overlap_matrix on task   0)
  |   Average:       51.368 MB
  Note:  These values currently only include a subset of arrays which are explicitly tracked.
  The "true" memory usage will be greater.
------------------------------------------------------------

  Energy and forces in a compact form:
  | Total energy uncorrected      :         -0.201797223888732E+06 eV
  | Total energy corrected        :         -0.201797223888732E+06 eV  <-- do not rely on this value for anything but (periodic) metals
  | Electronic free energy        :         -0.201797223888732E+06 eV

  ------------------------------------ 
  Start decomposition of the XC Energy 
  ------------------------------------ 
  X and C from original XC functional choice 
  Hartree-Fock Energy :          0.000000000 Ha              0.000000000 eV
  X Energy            :       -603.156144793 Ha         -16412.713769495 eV
  C Energy            :        -39.934781368 Ha          -1086.680690734 eV
  XC Energy w/o HF    :       -643.090926161 Ha         -17499.394460229 eV
  Total XC Energy     :       -643.090926161 Ha         -17499.394460229 eV
  ------------------------------------ 
  LDA X and C from self-consistent density 
  X Energy LDA        :       -603.156144793 Ha         -16412.713769495 eV
  C Energy LDA        :        -39.934781368 Ha          -1086.680690734 eV
  ------------------------------------ 
  End decomposition of the XC Energy 
  ------------------------------------ 

------------------------------------------------------------

------------------------------------------------------------------------------
  Final output of selected total energy values:

  The following output summarizes some interesting total energy values
  at the end of a run (AFTER all relaxation, molecular dynamics, etc.).

  | Total energy of the DFT / Hartree-Fock s.c.f. calculation      :        -201797.223888732 eV
  | Final zero-broadening corrected energy (caution - metals only) :        -201797.223888732 eV
  | For reference only, the value of 1 Hartree used in FHI-aims is :             27.211384500 eV
  | For reference only, the overall average (free atom contribution
  | + realspace contribution) of the electrostatic potential after
  | s.c.f. convergence is                                          :            -17.230672148 eV

  Before relying on these values, please be sure to understand exactly which
  total energy value is referred to by a given number. Different objects may
  all carry the same name 'total energy'. Definitions:

  Total energy of the DFT / Hartree-Fock s.c.f. calculation:
  | Note that this energy does not include ANY quantities calculated after the
  | s.c.f. cycle, in particular not ANY RPA, MP2, etc. many-body perturbation terms.

  Final zero-broadening corrected energy:
  | For metallic systems only, a broadening of the occupation numbers at the Fermi
  | level can be extrapolated back to zero broadening by an electron-gas inspired
  | formula. For all systems that are not real metals, this value can be
  | meaningless and should be avoided.

------------------------------------------------------------------------------
  Methods described in the following list of references were used in this FHI-aims run.
  If you publish the results, please make sure to cite these reference if they apply.
  FHI-aims is an academic code, and for our developers (often, Ph.D. students
  and postdocs), scientific credit in the community is essential.
  Thank you for helping us!

  For any use of FHI-aims, please cite:

    Volker Blum, Ralf Gehrke, Felix Hanke, Paula Havu, Ville Havu,
    Xinguo Ren, Karsten Reuter, and Matthias Scheffler
    'Ab initio molecular simulations with numeric atom-centered orbitals'
    Computer Physics Communications 180, 2175-2196 (2009)
    http://doi.org/10.1016/j.cpc.2009.06.022


  The provided symmetry information was generated with SPGlib:

    Atsushi Togo, Yusuke Seto, Dimitar Pashov
    SPGlib 1.7.3 obtained from http://spglib.sourceforge.net
    Licence: New BSD license
    Copyright (C) 2008 Atsushi Togo


  The ELSI infrastructure was used in your run to solve the Kohn-Sham electronic structure.
  Please check out https://wordpress.elsi-interchange.org to learn more.
  If scalability is important for your project, please acknowledge ELSI by citing:

    V. W-z. Yu, F. Corsetti, A. Garcia, W. P. Huhn, M. Jacquelin, W. Jia,
    B. Lange, L. Lin, J. Lu, W. Mi, A. Seifitokaldani, A. Vazquez-Mayagoitia,
    C. Yang, H. Yang, and V. Blum
    'ELSI: A unified software interface for Kohn-Sham electronic structure solvers'
    Computer Physics Communications 222, 267-285 (2018).
    http://doi.org/10.1016/j.cpc.2017.09.007


  For the real-space grid partitioning and parallelization used in this calculation, please cite:

    Ville Havu, Volker Blum, Paula Havu, and Matthias Scheffler,
    'Efficient O(N) integration for all-electron electronic structure calculation'
    'using numerically tabulated basis functions'
    Journal of Computational Physics 228, 8367-8379 (2009).
    http://doi.org/10.1016/j.jcp.2009.08.008

  Of course, there are many other important community references, e.g., those cited in the
  above references. Our list is limited to references that describe implementations in the
  FHI-aims code. The reason is purely practical (length of this list) - please credit others as well.
------------------------------------------------------------
Warnings summary:

At least    0 warnings were raised during execution.

------------------------------------------------------------
          Leaving FHI-aims.
          Date     :  20260811, Time     :  180809.574

          Computational steps:
          | Number of self-consistency cycles          :            1
          | Number of SCF (re)initializations          :            1

          Detailed time accounting                     :  max(cpu_time)    wall_clock(cpu1)
          | Total time                                  :       24.801 s          25.508 s
          | Preparation time                            :        0.125 s           0.126 s
          | Boundary condition initalization            :        0.560 s           0.587 s
          | Grid partitioning                           :        0.535 s           0.598 s
          | Preloading free-atom quantities on grid     :        0.935 s           0.941 s
          | Free-atom superposition energy              :        0.055 s           0.054 s
          | Total time for integrations                 :       13.622 s          13.749 s
          | Total time for solution of K.-S. equations  :        0.325 s           0.331 s
          | Total time for density update               :        7.508 s           7.609 s
          | Total time for mixing                       :        0.001 s           0.001 s
          | Total time for Hartree multipole update     :        0.067 s           0.067 s
          | Total time for Hartree multipole sum        :        0.295 s           0.298 s
          | Total time for total energy evaluation      :        0.001 s           0.000 s
          | Total time for scaled ZORA corrections      :        0.000 s           0.000 s
          | Total time for matrix I/O                   :        0.301 s           0.309 s

          Partial memory accounting:
          | Residual value for overall tracked memory usage across tasks:     0.000000 MB (should be 0.000000 MB)
          | Peak values for overall tracked memory usage:
          |   Minimum:      160.211 MB (on task 127 after allocating wave)
          |   Maximum:      163.328 MB (on task 149 after allocating wave)
          |   Average:      161.398 MB
          | Largest tracked array allocation:
          |   Minimum:       51.368 MB (overlap_matrix on task   0)
          |   Maximum:       51.368 MB (overlap_matrix on task   0)
          |   Average:       51.368 MB
          Note:  These values currently only include a subset of arrays which are explicitly tracked.
          The "true" memory usage will be greater.

          Have a nice day.
------------------------------------------------------------
