8
Lattice="4.24 0.0 0.0 0.0 4.24 0.0 0.0 0.0 4.24" Properties=species:S:1:pos:R:3:displacements:R:3 energy=-29895.9935605642 free_energy=-29895.9935605642 polarization="-0.000484644639 -0.000484644639 -0.000484644639" REF_dipole="-0.0023057443837005685 -0.0023057443837005685 -0.0023057443837005685" pbc="T T T"
Mg      -0.00028868      -0.00028868      -0.00028868      -0.00028868      -0.00028868      -0.00028868
Mg       2.11971132       2.11971132      -0.00028868      -0.00028868      -0.00028868      -0.00028868
Mg       2.11971132      -0.00028868       2.11971132      -0.00028868      -0.00028868      -0.00028868
Mg      -0.00028868       2.11971132       2.11971132      -0.00028868      -0.00028868      -0.00028868
O        0.00000000       0.00000000       2.12000000       0.00000000       0.00000000       0.00000000
O        2.12000000       0.00000000       0.00000000       0.00000000       0.00000000       0.00000000
O        0.00000000       2.12000000       0.00000000       0.00000000       0.00000000       0.00000000
O        2.12000000       2.12000000       2.12000000       0.00000000       0.00000000       0.00000000
8
Lattice="4.24 0.0 0.0 0.0 4.24 0.0 0.0 0.0 4.24" Properties=species:S:1:pos:R:3:displacements:R:3 energy=-29895.9935603937 free_energy=-29895.9935603937 polarization="0.000541849169 0.000433479352 0.000433479352" REF_dipole="0.0025779005434011836 0.0020623205146485936 0.0020623205146485936" pbc="T T T"
Mg       0.00000000       0.00000000       0.00000000       0.00000000       0.00000000       0.00000000
Mg       2.12000000       2.12000000       0.00000000       0.00000000       0.00000000       0.00000000
Mg       2.12000000       0.00000000       2.12000000       0.00000000       0.00000000       0.00000000
Mg       0.00000000       2.12000000       2.12000000       0.00000000       0.00000000       0.00000000
O       -0.00051640      -0.00025820       2.11974180      -0.00051640      -0.00025820      -0.00025820
O        2.11974180      -0.00025820      -0.00025820      -0.00025820      -0.00025820      -0.00025820
O       -0.00025820       2.11974180      -0.00025820      -0.00025820      -0.00025820      -0.00025820
O        2.11974180       2.11974180       2.11974180      -0.00025820      -0.00025820      -0.00025820
8
Lattice="4.24 0.0 0.0 0.0 4.24 0.0 0.0 0.0 4.24" Properties=species:S:1:pos:R:3:displacements:R:3 energy=-29895.9935625447 free_energy=-29895.9935625447 polarization="-7.816566e-15 3.3838805e-14 5.5606457e-14" REF_dipole="-3.7188079066577313e-14 1.609914322809392e-13 2.6455317073101303e-13" pbc="T T T"
Mg       0.00000000       0.00000000       0.00000000       0.00000000       0.00000000       0.00000000
Mg       2.12000000       2.12000000       0.00000000       0.00000000       0.00000000       0.00000000
Mg       2.12000000       0.00000000       2.12000000       0.00000000       0.00000000       0.00000000
Mg       0.00000000       2.12000000       2.12000000       0.00000000       0.00000000       0.00000000
O        0.00000000       0.00000000       2.12000000       0.00000000       0.00000000       0.00000000
O        2.12000000       0.00000000       0.00000000       0.00000000       0.00000000       0.00000000
O        0.00000000       2.12000000       0.00000000       0.00000000       0.00000000       0.00000000
O        2.12000000       2.12000000       2.12000000       0.00000000       0.00000000       0.00000000
8
Lattice="4.24 0.0 0.0 0.0 4.24 0.0 0.0 0.0 4.24" Properties=species:S:1:pos:R:3:displacements:R:3 energy=-29895.9935603938 free_energy=-29895.9935603938 polarization="-0.000541849169 -0.000433479352 -0.000433479352" REF_dipole="-0.0025779005434011836 -0.0020623205146485936 -0.0020623205146485936" pbc="T T T"
Mg       0.00000000       0.00000000       0.00000000       0.00000000       0.00000000       0.00000000
Mg       2.12000000       2.12000000       0.00000000       0.00000000       0.00000000       0.00000000
Mg       2.12000000       0.00000000       2.12000000       0.00000000       0.00000000       0.00000000
Mg       0.00000000       2.12000000       2.12000000       0.00000000       0.00000000       0.00000000
O        0.00051640       0.00025820       2.12025820       0.00051640       0.00025820       0.00025820
O        2.12025820       0.00025820       0.00025820       0.00025820       0.00025820       0.00025820
O        0.00025820       2.12025820       0.00025820       0.00025820       0.00025820       0.00025820
O        2.12025820       2.12025820       2.12025820       0.00025820       0.00025820       0.00025820
8
Lattice="4.24 0.0 0.0 0.0 4.24 0.0 0.0 0.0 4.24" Properties=species:S:1:pos:R:3:displacements:R:3 energy=-29895.9935605644 free_energy=-29895.9935605644 polarization="0.000484644639 0.000484644639 0.000484644639" REF_dipole="0.0023057443837005685 0.0023057443837005685 0.0023057443837005685" pbc="T T T"
Mg       0.00028868       0.00028868       0.00028868       0.00028868       0.00028868       0.00028868
Mg       2.12028868       2.12028868       0.00028868       0.00028868       0.00028868       0.00028868
Mg       2.12028868       0.00028868       2.12028868       0.00028868       0.00028868       0.00028868
Mg       0.00028868       2.12028868       2.12028868       0.00028868       0.00028868       0.00028868
O        0.00000000       0.00000000       2.12000000       0.00000000       0.00000000       0.00000000
O        2.12000000       0.00000000       0.00000000       0.00000000       0.00000000       0.00000000
O        0.00000000       2.12000000       0.00000000       0.00000000       0.00000000       0.00000000
O        2.12000000       2.12000000       2.12000000       0.00000000       0.00000000       0.00000000
