------------------------------------------------------------
          Invoking FHI-aims ...

          When using FHI-aims, please cite the following reference:

            Volker Blum, Ralf Gehrke, Felix Hanke, Paula Havu,
            Ville Havu, Xinguo Ren, Karsten Reuter, and Matthias Scheffler,
            'Ab Initio Molecular Simulations with Numeric Atom-Centered Orbitals',
            Computer Physics Communications 180, 2175-2196 (2009)

          In addition, many other developments in FHI-aims are likely important for
          your particular application. If so, please cite them. A partial list of references
          is written at the end of this file. Thank you for giving credit to the authors
          of these developments.

          For general information about FHI-aims please find us at

            https://fhi-aims.org

          Online tutorials can be found at

            https://fhi-aims-club.gitlab.io/tutorials/tutorials-overview/

          For any questions about FHI-aims, please visit our slack channel at

            https://fhi-aims.slack.com

          and our main development and support site at

            https://aims-git.rz-berlin.mpg.de .

          The latter site, in particular, has a wiki to collect information, as well
          as an issue tracker to log discussions, suggest improvements, and report issues
          or bugs. https://aims-git.rz-berlin.mpg.de is also the main development site
          of the project and all new and updated code versions can be obtained there.
          Please send an email to aims-coordinators@ms1p.org and we will add
          you to these sites. They are for you and everyone is welcome there.

------------------------------------------------------------



  Date     :  20260614, Time     :  113804.905
  Time zero on CPU 1             :   0.190474000000000E+00  s.
  Internal wall clock time zero  :           550669084.905  s.

  FHI-aims created a unique identifier for this run for later identification
  aims_uuid : 10BEBF32-8B16-4A6E-A3F3-13AE72DC50FE

  Build configuration of the current instance of FHI-aims
  -------------------------------------------------------
  FHI-aims version      : 260527
  Commit number         : 59e070fb4
  CMake host system     : Linux-5.14.0-570.103.1.el9_6.x86_64
  CMake version         : 3.26.5
  OS Distribution       : Red Hat Enterprise Linux 9.6 (Plow)
  Built on              : AMD EPYC 9554 64-Core Processor
  Fortran compiler      : /mpcdf/soft/RHEL_9/packages/x86_64/intel_oneapi/2024.0/mpi/2021.11/bin/mpiifort (Intel) version 2021.1.0.20231117
  Fortran compiler flags: -O3 -ip -fp-model precise -diag-disable=10448
  C compiler            : /mpcdf/soft/RHEL_9/packages/x86_64/intel/2024.0.2/bin/icx (IntelLLVM) version 2024.0.2
  C compiler flags      : -O3 -std=gnu99
  C++ compiler          : /mpcdf/soft/RHEL_9/packages/x86_64/intel/2024.0.2/bin/icpx (IntelLLVM) version 2024.0.2
  C++ compiler flags    : -O3 -std=c++14
  HIP compiler          :
  HIP compiler flags    :
  HIP GPU arch          :
  Using MPI
  Using ScaLAPACK
  Using LibXC
  Using i-PI
  Using RLSY
  Using GREENX
  Linking against: /mpcdf/soft/RHEL_9/packages/x86_64/intel_oneapi/2024.0/mkl/latest/lib/libmkl_intel_lp64.so
                   /mpcdf/soft/RHEL_9/packages/x86_64/intel_oneapi/2024.0/mkl/latest/lib/libmkl_sequential.so
                   /mpcdf/soft/RHEL_9/packages/x86_64/intel_oneapi/2024.0/mkl/latest/lib/libmkl_core.so
                   /mpcdf/soft/RHEL_9/packages/x86_64/intel_oneapi/2024.0/mkl/latest/lib/libmkl_blacs_intelmpi_lp64.so
                   /mpcdf/soft/RHEL_9/packages/x86_64/intel_oneapi/2024.0/mkl/latest/lib/libmkl_scalapack_lp64.so

  Using      800 parallel tasks.
  Task        0 on host vipc2146 reporting.
  Task        1 on host vipc2146 reporting.
  Task        2 on host vipc2146 reporting.
  Task        3 on host vipc2146 reporting.
  Task        4 on host vipc2146 reporting.
  Task        5 on host vipc2146 reporting.
  Task        6 on host vipc2146 reporting.
  Task        7 on host vipc2146 reporting.
  Task        8 on host vipc2146 reporting.
  Task        9 on host vipc2146 reporting.
  Task       10 on host vipc2146 reporting.
  Task       11 on host vipc2146 reporting.
  Task       12 on host vipc2146 reporting.
  Task       13 on host vipc2146 reporting.
  Task       14 on host vipc2146 reporting.
  Task       15 on host vipc2146 reporting.
  Task       16 on host vipc2146 reporting.
  Task       17 on host vipc2146 reporting.
  Task       18 on host vipc2146 reporting.
  Task       19 on host vipc2146 reporting.
  Task       20 on host vipc2146 reporting.
  Task       21 on host vipc2146 reporting.
  Task       22 on host vipc2146 reporting.
  Task       23 on host vipc2146 reporting.
  Task       24 on host vipc2146 reporting.
  Task       25 on host vipc2146 reporting.
  Task       26 on host vipc2146 reporting.
  Task       27 on host vipc2146 reporting.
  Task       28 on host vipc2146 reporting.
  Task       29 on host vipc2146 reporting.
  Task       30 on host vipc2146 reporting.
  Task       31 on host vipc2146 reporting.
  Task       32 on host vipc2146 reporting.
  Task       33 on host vipc2146 reporting.
  Task       34 on host vipc2146 reporting.
  Task       35 on host vipc2146 reporting.
  Task       36 on host vipc2146 reporting.
  Task       37 on host vipc2146 reporting.
  Task       38 on host vipc2146 reporting.
  Task       39 on host vipc2146 reporting.
  Task       40 on host vipc2146 reporting.
  Task       41 on host vipc2146 reporting.
  Task       42 on host vipc2146 reporting.
  Task       43 on host vipc2146 reporting.
  Task       44 on host vipc2146 reporting.
  Task       45 on host vipc2146 reporting.
  Task       46 on host vipc2146 reporting.
  Task       47 on host vipc2146 reporting.
  Task       48 on host vipc2146 reporting.
  Task       49 on host vipc2146 reporting.
  Task       50 on host vipc2146 reporting.
  Task       51 on host vipc2146 reporting.
  Task       52 on host vipc2146 reporting.
  Task       53 on host vipc2146 reporting.
  Task       54 on host vipc2146 reporting.
  Task       55 on host vipc2146 reporting.
  Task       56 on host vipc2146 reporting.
  Task       57 on host vipc2146 reporting.
  Task       58 on host vipc2146 reporting.
  Task       59 on host vipc2146 reporting.
  Task       60 on host vipc2146 reporting.
  Task       61 on host vipc2146 reporting.
  Task       62 on host vipc2146 reporting.
  Task       63 on host vipc2146 reporting.
  Task       64 on host vipc2146 reporting.
  Task       65 on host vipc2146 reporting.
  Task       66 on host vipc2146 reporting.
  Task       67 on host vipc2146 reporting.
  Task       68 on host vipc2146 reporting.
  Task       69 on host vipc2146 reporting.
  Task       70 on host vipc2146 reporting.
  Task       71 on host vipc2146 reporting.
  Task       72 on host vipc2146 reporting.
  Task       73 on host vipc2146 reporting.
  Task       74 on host vipc2146 reporting.
  Task       75 on host vipc2146 reporting.
  Task       76 on host vipc2146 reporting.
  Task       77 on host vipc2146 reporting.
  Task       78 on host vipc2146 reporting.
  Task       79 on host vipc2146 reporting.
  Task       80 on host vipc2146 reporting.
  Task       81 on host vipc2146 reporting.
  Task       82 on host vipc2146 reporting.
  Task       83 on host vipc2146 reporting.
  Task       84 on host vipc2146 reporting.
  Task       85 on host vipc2146 reporting.
  Task       86 on host vipc2146 reporting.
  Task       87 on host vipc2146 reporting.
  Task       88 on host vipc2146 reporting.
  Task       89 on host vipc2146 reporting.
  Task       90 on host vipc2146 reporting.
  Task       91 on host vipc2146 reporting.
  Task       92 on host vipc2146 reporting.
  Task       93 on host vipc2146 reporting.
  Task       94 on host vipc2146 reporting.
  Task       95 on host vipc2146 reporting.
  Task       96 on host vipc2146 reporting.
  Task       97 on host vipc2146 reporting.
  Task       98 on host vipc2146 reporting.
  Task       99 on host vipc2146 reporting.
  Task      100 on host vipc2146 reporting.
  Task      101 on host vipc2146 reporting.
  Task      102 on host vipc2146 reporting.
  Task      103 on host vipc2146 reporting.
  Task      104 on host vipc2146 reporting.
  Task      105 on host vipc2146 reporting.
  Task      106 on host vipc2146 reporting.
  Task      107 on host vipc2146 reporting.
  Task      108 on host vipc2146 reporting.
  Task      109 on host vipc2146 reporting.
  Task      110 on host vipc2146 reporting.
  Task      111 on host vipc2146 reporting.
  Task      112 on host vipc2146 reporting.
  Task      113 on host vipc2146 reporting.
  Task      114 on host vipc2146 reporting.
  Task      115 on host vipc2152 reporting.
  Task      116 on host vipc2152 reporting.
  Task      117 on host vipc2152 reporting.
  Task      118 on host vipc2152 reporting.
  Task      119 on host vipc2152 reporting.
  Task      120 on host vipc2152 reporting.
  Task      121 on host vipc2152 reporting.
  Task      122 on host vipc2152 reporting.
  Task      123 on host vipc2152 reporting.
  Task      124 on host vipc2152 reporting.
  Task      125 on host vipc2152 reporting.
  Task      126 on host vipc2152 reporting.
  Task      127 on host vipc2152 reporting.
  Task      128 on host vipc2152 reporting.
  Task      129 on host vipc2152 reporting.
  Task      130 on host vipc2152 reporting.
  Task      131 on host vipc2152 reporting.
  Task      132 on host vipc2152 reporting.
  Task      133 on host vipc2152 reporting.
  Task      134 on host vipc2152 reporting.
  Task      135 on host vipc2152 reporting.
  Task      136 on host vipc2152 reporting.
  Task      137 on host vipc2152 reporting.
  Task      138 on host vipc2152 reporting.
  Task      139 on host vipc2152 reporting.
  Task      140 on host vipc2152 reporting.
  Task      141 on host vipc2152 reporting.
  Task      142 on host vipc2152 reporting.
  Task      143 on host vipc2152 reporting.
  Task      144 on host vipc2152 reporting.
  Task      145 on host vipc2152 reporting.
  Task      146 on host vipc2152 reporting.
  Task      147 on host vipc2152 reporting.
  Task      148 on host vipc2152 reporting.
  Task      149 on host vipc2152 reporting.
  Task      150 on host vipc2152 reporting.
  Task      151 on host vipc2152 reporting.
  Task      152 on host vipc2152 reporting.
  Task      153 on host vipc2152 reporting.
  Task      154 on host vipc2152 reporting.
  Task      155 on host vipc2152 reporting.
  Task      156 on host vipc2152 reporting.
  Task      157 on host vipc2152 reporting.
  Task      158 on host vipc2152 reporting.
  Task      159 on host vipc2152 reporting.
  Task      160 on host vipc2152 reporting.
  Task      161 on host vipc2152 reporting.
  Task      162 on host vipc2152 reporting.
  Task      163 on host vipc2152 reporting.
  Task      164 on host vipc2152 reporting.
  Task      165 on host vipc2152 reporting.
  Task      166 on host vipc2152 reporting.
  Task      167 on host vipc2152 reporting.
  Task      168 on host vipc2152 reporting.
  Task      169 on host vipc2152 reporting.
  Task      170 on host vipc2152 reporting.
  Task      171 on host vipc2152 reporting.
  Task      172 on host vipc2152 reporting.
  Task      173 on host vipc2152 reporting.
  Task      174 on host vipc2152 reporting.
  Task      175 on host vipc2152 reporting.
  Task      176 on host vipc2152 reporting.
  Task      177 on host vipc2152 reporting.
  Task      178 on host vipc2152 reporting.
  Task      179 on host vipc2152 reporting.
  Task      180 on host vipc2152 reporting.
  Task      181 on host vipc2152 reporting.
  Task      182 on host vipc2152 reporting.
  Task      183 on host vipc2152 reporting.
  Task      184 on host vipc2152 reporting.
  Task      185 on host vipc2152 reporting.
  Task      186 on host vipc2152 reporting.
  Task      187 on host vipc2152 reporting.
  Task      188 on host vipc2152 reporting.
  Task      189 on host vipc2152 reporting.
  Task      190 on host vipc2152 reporting.
  Task      191 on host vipc2152 reporting.
  Task      192 on host vipc2152 reporting.
  Task      193 on host vipc2152 reporting.
  Task      194 on host vipc2152 reporting.
  Task      195 on host vipc2152 reporting.
  Task      196 on host vipc2152 reporting.
  Task      197 on host vipc2152 reporting.
  Task      198 on host vipc2152 reporting.
  Task      199 on host vipc2152 reporting.
  Task      200 on host vipc2152 reporting.
  Task      201 on host vipc2152 reporting.
  Task      202 on host vipc2152 reporting.
  Task      203 on host vipc2152 reporting.
  Task      204 on host vipc2152 reporting.
  Task      205 on host vipc2152 reporting.
  Task      206 on host vipc2152 reporting.
  Task      207 on host vipc2152 reporting.
  Task      208 on host vipc2152 reporting.
  Task      209 on host vipc2152 reporting.
  Task      210 on host vipc2152 reporting.
  Task      211 on host vipc2152 reporting.
  Task      212 on host vipc2152 reporting.
  Task      213 on host vipc2152 reporting.
  Task      214 on host vipc2152 reporting.
  Task      215 on host vipc2152 reporting.
  Task      216 on host vipc2152 reporting.
  Task      217 on host vipc2152 reporting.
  Task      218 on host vipc2152 reporting.
  Task      219 on host vipc2152 reporting.
  Task      220 on host vipc2152 reporting.
  Task      221 on host vipc2152 reporting.
  Task      222 on host vipc2152 reporting.
  Task      223 on host vipc2152 reporting.
  Task      224 on host vipc2152 reporting.
  Task      225 on host vipc2152 reporting.
  Task      226 on host vipc2152 reporting.
  Task      227 on host vipc2152 reporting.
  Task      228 on host vipc2152 reporting.
  Task      229 on host vipc2152 reporting.
  Task      230 on host vipc2179 reporting.
  Task      231 on host vipc2179 reporting.
  Task      232 on host vipc2179 reporting.
  Task      233 on host vipc2179 reporting.
  Task      234 on host vipc2179 reporting.
  Task      235 on host vipc2179 reporting.
  Task      236 on host vipc2179 reporting.
  Task      237 on host vipc2179 reporting.
  Task      238 on host vipc2179 reporting.
  Task      239 on host vipc2179 reporting.
  Task      240 on host vipc2179 reporting.
  Task      241 on host vipc2179 reporting.
  Task      242 on host vipc2179 reporting.
  Task      243 on host vipc2179 reporting.
  Task      244 on host vipc2179 reporting.
  Task      245 on host vipc2179 reporting.
  Task      246 on host vipc2179 reporting.
  Task      247 on host vipc2179 reporting.
  Task      248 on host vipc2179 reporting.
  Task      249 on host vipc2179 reporting.
  Task      250 on host vipc2179 reporting.
  Task      251 on host vipc2179 reporting.
  Task      252 on host vipc2179 reporting.
  Task      253 on host vipc2179 reporting.
  Task      254 on host vipc2179 reporting.
  Task      255 on host vipc2179 reporting.
  Task      256 on host vipc2179 reporting.
  Task      257 on host vipc2179 reporting.
  Task      258 on host vipc2179 reporting.
  Task      259 on host vipc2179 reporting.
  Task      260 on host vipc2179 reporting.
  Task      261 on host vipc2179 reporting.
  Task      262 on host vipc2179 reporting.
  Task      263 on host vipc2179 reporting.
  Task      264 on host vipc2179 reporting.
  Task      265 on host vipc2179 reporting.
  Task      266 on host vipc2179 reporting.
  Task      267 on host vipc2179 reporting.
  Task      268 on host vipc2179 reporting.
  Task      269 on host vipc2179 reporting.
  Task      270 on host vipc2179 reporting.
  Task      271 on host vipc2179 reporting.
  Task      272 on host vipc2179 reporting.
  Task      273 on host vipc2179 reporting.
  Task      274 on host vipc2179 reporting.
  Task      275 on host vipc2179 reporting.
  Task      276 on host vipc2179 reporting.
  Task      277 on host vipc2179 reporting.
  Task      278 on host vipc2179 reporting.
  Task      279 on host vipc2179 reporting.
  Task      280 on host vipc2179 reporting.
  Task      281 on host vipc2179 reporting.
  Task      282 on host vipc2179 reporting.
  Task      283 on host vipc2179 reporting.
  Task      284 on host vipc2179 reporting.
  Task      285 on host vipc2179 reporting.
  Task      286 on host vipc2179 reporting.
  Task      287 on host vipc2179 reporting.
  Task      288 on host vipc2179 reporting.
  Task      289 on host vipc2179 reporting.
  Task      290 on host vipc2179 reporting.
  Task      291 on host vipc2179 reporting.
  Task      292 on host vipc2179 reporting.
  Task      293 on host vipc2179 reporting.
  Task      294 on host vipc2179 reporting.
  Task      295 on host vipc2179 reporting.
  Task      296 on host vipc2179 reporting.
  Task      297 on host vipc2179 reporting.
  Task      298 on host vipc2179 reporting.
  Task      299 on host vipc2179 reporting.
  Task      300 on host vipc2179 reporting.
  Task      301 on host vipc2179 reporting.
  Task      302 on host vipc2179 reporting.
  Task      303 on host vipc2179 reporting.
  Task      304 on host vipc2179 reporting.
  Task      305 on host vipc2179 reporting.
  Task      306 on host vipc2179 reporting.
  Task      307 on host vipc2179 reporting.
  Task      308 on host vipc2179 reporting.
  Task      309 on host vipc2179 reporting.
  Task      310 on host vipc2179 reporting.
  Task      311 on host vipc2179 reporting.
  Task      312 on host vipc2179 reporting.
  Task      313 on host vipc2179 reporting.
  Task      314 on host vipc2179 reporting.
  Task      315 on host vipc2179 reporting.
  Task      316 on host vipc2179 reporting.
  Task      317 on host vipc2179 reporting.
  Task      318 on host vipc2179 reporting.
  Task      319 on host vipc2179 reporting.
  Task      320 on host vipc2179 reporting.
  Task      321 on host vipc2179 reporting.
  Task      322 on host vipc2179 reporting.
  Task      323 on host vipc2179 reporting.
  Task      324 on host vipc2179 reporting.
  Task      325 on host vipc2179 reporting.
  Task      326 on host vipc2179 reporting.
  Task      327 on host vipc2179 reporting.
  Task      328 on host vipc2179 reporting.
  Task      329 on host vipc2179 reporting.
  Task      330 on host vipc2179 reporting.
  Task      331 on host vipc2179 reporting.
  Task      332 on host vipc2179 reporting.
  Task      333 on host vipc2179 reporting.
  Task      334 on host vipc2179 reporting.
  Task      335 on host vipc2179 reporting.
  Task      336 on host vipc2179 reporting.
  Task      337 on host vipc2179 reporting.
  Task      338 on host vipc2179 reporting.
  Task      339 on host vipc2179 reporting.
  Task      340 on host vipc2179 reporting.
  Task      341 on host vipc2179 reporting.
  Task      342 on host vipc2179 reporting.
  Task      343 on host vipc2179 reporting.
  Task      344 on host vipc2471 reporting.
  Task      345 on host vipc2471 reporting.
  Task      346 on host vipc2471 reporting.
  Task      347 on host vipc2471 reporting.
  Task      348 on host vipc2471 reporting.
  Task      349 on host vipc2471 reporting.
  Task      350 on host vipc2471 reporting.
  Task      351 on host vipc2471 reporting.
  Task      352 on host vipc2471 reporting.
  Task      353 on host vipc2471 reporting.
  Task      354 on host vipc2471 reporting.
  Task      355 on host vipc2471 reporting.
  Task      356 on host vipc2471 reporting.
  Task      357 on host vipc2471 reporting.
  Task      358 on host vipc2471 reporting.
  Task      359 on host vipc2471 reporting.
  Task      360 on host vipc2471 reporting.
  Task      361 on host vipc2471 reporting.
  Task      362 on host vipc2471 reporting.
  Task      363 on host vipc2471 reporting.
  Task      364 on host vipc2471 reporting.
  Task      365 on host vipc2471 reporting.
  Task      366 on host vipc2471 reporting.
  Task      367 on host vipc2471 reporting.
  Task      368 on host vipc2471 reporting.
  Task      369 on host vipc2471 reporting.
  Task      370 on host vipc2471 reporting.
  Task      371 on host vipc2471 reporting.
  Task      372 on host vipc2471 reporting.
  Task      373 on host vipc2471 reporting.
  Task      374 on host vipc2471 reporting.
  Task      375 on host vipc2471 reporting.
  Task      376 on host vipc2471 reporting.
  Task      377 on host vipc2471 reporting.
  Task      378 on host vipc2471 reporting.
  Task      379 on host vipc2471 reporting.
  Task      380 on host vipc2471 reporting.
  Task      381 on host vipc2471 reporting.
  Task      382 on host vipc2471 reporting.
  Task      383 on host vipc2471 reporting.
  Task      384 on host vipc2471 reporting.
  Task      385 on host vipc2471 reporting.
  Task      386 on host vipc2471 reporting.
  Task      387 on host vipc2471 reporting.
  Task      388 on host vipc2471 reporting.
  Task      389 on host vipc2471 reporting.
  Task      390 on host vipc2471 reporting.
  Task      391 on host vipc2471 reporting.
  Task      392 on host vipc2471 reporting.
  Task      393 on host vipc2471 reporting.
  Task      394 on host vipc2471 reporting.
  Task      395 on host vipc2471 reporting.
  Task      396 on host vipc2471 reporting.
  Task      397 on host vipc2471 reporting.
  Task      398 on host vipc2471 reporting.
  Task      399 on host vipc2471 reporting.
  Task      400 on host vipc2471 reporting.
  Task      401 on host vipc2471 reporting.
  Task      402 on host vipc2471 reporting.
  Task      403 on host vipc2471 reporting.
  Task      404 on host vipc2471 reporting.
  Task      405 on host vipc2471 reporting.
  Task      406 on host vipc2471 reporting.
  Task      407 on host vipc2471 reporting.
  Task      408 on host vipc2471 reporting.
  Task      409 on host vipc2471 reporting.
  Task      410 on host vipc2471 reporting.
  Task      411 on host vipc2471 reporting.
  Task      412 on host vipc2471 reporting.
  Task      413 on host vipc2471 reporting.
  Task      414 on host vipc2471 reporting.
  Task      415 on host vipc2471 reporting.
  Task      416 on host vipc2471 reporting.
  Task      417 on host vipc2471 reporting.
  Task      418 on host vipc2471 reporting.
  Task      419 on host vipc2471 reporting.
  Task      420 on host vipc2471 reporting.
  Task      421 on host vipc2471 reporting.
  Task      422 on host vipc2471 reporting.
  Task      423 on host vipc2471 reporting.
  Task      424 on host vipc2471 reporting.
  Task      425 on host vipc2471 reporting.
  Task      426 on host vipc2471 reporting.
  Task      427 on host vipc2471 reporting.
  Task      428 on host vipc2471 reporting.
  Task      429 on host vipc2471 reporting.
  Task      430 on host vipc2471 reporting.
  Task      431 on host vipc2471 reporting.
  Task      432 on host vipc2471 reporting.
  Task      433 on host vipc2471 reporting.
  Task      434 on host vipc2471 reporting.
  Task      435 on host vipc2471 reporting.
  Task      436 on host vipc2471 reporting.
  Task      437 on host vipc2471 reporting.
  Task      438 on host vipc2471 reporting.
  Task      439 on host vipc2471 reporting.
  Task      440 on host vipc2471 reporting.
  Task      441 on host vipc2471 reporting.
  Task      442 on host vipc2471 reporting.
  Task      443 on host vipc2471 reporting.
  Task      444 on host vipc2471 reporting.
  Task      445 on host vipc2471 reporting.
  Task      446 on host vipc2471 reporting.
  Task      447 on host vipc2471 reporting.
  Task      448 on host vipc2471 reporting.
  Task      449 on host vipc2471 reporting.
  Task      450 on host vipc2471 reporting.
  Task      451 on host vipc2471 reporting.
  Task      452 on host vipc2471 reporting.
  Task      453 on host vipc2471 reporting.
  Task      454 on host vipc2471 reporting.
  Task      455 on host vipc2471 reporting.
  Task      456 on host vipc2471 reporting.
  Task      457 on host vipc2471 reporting.
  Task      458 on host vipc2473 reporting.
  Task      459 on host vipc2473 reporting.
  Task      460 on host vipc2473 reporting.
  Task      461 on host vipc2473 reporting.
  Task      462 on host vipc2473 reporting.
  Task      463 on host vipc2473 reporting.
  Task      464 on host vipc2473 reporting.
  Task      465 on host vipc2473 reporting.
  Task      466 on host vipc2473 reporting.
  Task      467 on host vipc2473 reporting.
  Task      468 on host vipc2473 reporting.
  Task      469 on host vipc2473 reporting.
  Task      470 on host vipc2473 reporting.
  Task      471 on host vipc2473 reporting.
  Task      472 on host vipc2473 reporting.
  Task      473 on host vipc2473 reporting.
  Task      474 on host vipc2473 reporting.
  Task      475 on host vipc2473 reporting.
  Task      476 on host vipc2473 reporting.
  Task      477 on host vipc2473 reporting.
  Task      478 on host vipc2473 reporting.
  Task      479 on host vipc2473 reporting.
  Task      480 on host vipc2473 reporting.
  Task      481 on host vipc2473 reporting.
  Task      482 on host vipc2473 reporting.
  Task      483 on host vipc2473 reporting.
  Task      484 on host vipc2473 reporting.
  Task      485 on host vipc2473 reporting.
  Task      486 on host vipc2473 reporting.
  Task      487 on host vipc2473 reporting.
  Task      488 on host vipc2473 reporting.
  Task      489 on host vipc2473 reporting.
  Task      490 on host vipc2473 reporting.
  Task      491 on host vipc2473 reporting.
  Task      492 on host vipc2473 reporting.
  Task      493 on host vipc2473 reporting.
  Task      494 on host vipc2473 reporting.
  Task      495 on host vipc2473 reporting.
  Task      496 on host vipc2473 reporting.
  Task      497 on host vipc2473 reporting.
  Task      498 on host vipc2473 reporting.
  Task      499 on host vipc2473 reporting.
  Task      500 on host vipc2473 reporting.
  Task      501 on host vipc2473 reporting.
  Task      502 on host vipc2473 reporting.
  Task      503 on host vipc2473 reporting.
  Task      504 on host vipc2473 reporting.
  Task      505 on host vipc2473 reporting.
  Task      506 on host vipc2473 reporting.
  Task      507 on host vipc2473 reporting.
  Task      508 on host vipc2473 reporting.
  Task      509 on host vipc2473 reporting.
  Task      510 on host vipc2473 reporting.
  Task      511 on host vipc2473 reporting.
  Task      512 on host vipc2473 reporting.
  Task      513 on host vipc2473 reporting.
  Task      514 on host vipc2473 reporting.
  Task      515 on host vipc2473 reporting.
  Task      516 on host vipc2473 reporting.
  Task      517 on host vipc2473 reporting.
  Task      518 on host vipc2473 reporting.
  Task      519 on host vipc2473 reporting.
  Task      520 on host vipc2473 reporting.
  Task      521 on host vipc2473 reporting.
  Task      522 on host vipc2473 reporting.
  Task      523 on host vipc2473 reporting.
  Task      524 on host vipc2473 reporting.
  Task      525 on host vipc2473 reporting.
  Task      526 on host vipc2473 reporting.
  Task      527 on host vipc2473 reporting.
  Task      528 on host vipc2473 reporting.
  Task      529 on host vipc2473 reporting.
  Task      530 on host vipc2473 reporting.
  Task      531 on host vipc2473 reporting.
  Task      532 on host vipc2473 reporting.
  Task      533 on host vipc2473 reporting.
  Task      534 on host vipc2473 reporting.
  Task      535 on host vipc2473 reporting.
  Task      536 on host vipc2473 reporting.
  Task      537 on host vipc2473 reporting.
  Task      538 on host vipc2473 reporting.
  Task      539 on host vipc2473 reporting.
  Task      540 on host vipc2473 reporting.
  Task      541 on host vipc2473 reporting.
  Task      542 on host vipc2473 reporting.
  Task      543 on host vipc2473 reporting.
  Task      544 on host vipc2473 reporting.
  Task      545 on host vipc2473 reporting.
  Task      546 on host vipc2473 reporting.
  Task      547 on host vipc2473 reporting.
  Task      548 on host vipc2473 reporting.
  Task      549 on host vipc2473 reporting.
  Task      550 on host vipc2473 reporting.
  Task      551 on host vipc2473 reporting.
  Task      552 on host vipc2473 reporting.
  Task      553 on host vipc2473 reporting.
  Task      554 on host vipc2473 reporting.
  Task      555 on host vipc2473 reporting.
  Task      556 on host vipc2473 reporting.
  Task      557 on host vipc2473 reporting.
  Task      558 on host vipc2473 reporting.
  Task      559 on host vipc2473 reporting.
  Task      560 on host vipc2473 reporting.
  Task      561 on host vipc2473 reporting.
  Task      562 on host vipc2473 reporting.
  Task      563 on host vipc2473 reporting.
  Task      564 on host vipc2473 reporting.
  Task      565 on host vipc2473 reporting.
  Task      566 on host vipc2473 reporting.
  Task      567 on host vipc2473 reporting.
  Task      568 on host vipc2473 reporting.
  Task      569 on host vipc2473 reporting.
  Task      570 on host vipc2473 reporting.
  Task      571 on host vipc2473 reporting.
  Task      572 on host vipc2480 reporting.
  Task      573 on host vipc2480 reporting.
  Task      574 on host vipc2480 reporting.
  Task      575 on host vipc2480 reporting.
  Task      576 on host vipc2480 reporting.
  Task      577 on host vipc2480 reporting.
  Task      578 on host vipc2480 reporting.
  Task      579 on host vipc2480 reporting.
  Task      580 on host vipc2480 reporting.
  Task      581 on host vipc2480 reporting.
  Task      582 on host vipc2480 reporting.
  Task      583 on host vipc2480 reporting.
  Task      584 on host vipc2480 reporting.
  Task      585 on host vipc2480 reporting.
  Task      586 on host vipc2480 reporting.
  Task      587 on host vipc2480 reporting.
  Task      588 on host vipc2480 reporting.
  Task      589 on host vipc2480 reporting.
  Task      590 on host vipc2480 reporting.
  Task      591 on host vipc2480 reporting.
  Task      592 on host vipc2480 reporting.
  Task      593 on host vipc2480 reporting.
  Task      594 on host vipc2480 reporting.
  Task      595 on host vipc2480 reporting.
  Task      596 on host vipc2480 reporting.
  Task      597 on host vipc2480 reporting.
  Task      598 on host vipc2480 reporting.
  Task      599 on host vipc2480 reporting.
  Task      600 on host vipc2480 reporting.
  Task      601 on host vipc2480 reporting.
  Task      602 on host vipc2480 reporting.
  Task      603 on host vipc2480 reporting.
  Task      604 on host vipc2480 reporting.
  Task      605 on host vipc2480 reporting.
  Task      606 on host vipc2480 reporting.
  Task      607 on host vipc2480 reporting.
  Task      608 on host vipc2480 reporting.
  Task      609 on host vipc2480 reporting.
  Task      610 on host vipc2480 reporting.
  Task      611 on host vipc2480 reporting.
  Task      612 on host vipc2480 reporting.
  Task      613 on host vipc2480 reporting.
  Task      614 on host vipc2480 reporting.
  Task      615 on host vipc2480 reporting.
  Task      616 on host vipc2480 reporting.
  Task      617 on host vipc2480 reporting.
  Task      618 on host vipc2480 reporting.
  Task      619 on host vipc2480 reporting.
  Task      620 on host vipc2480 reporting.
  Task      621 on host vipc2480 reporting.
  Task      622 on host vipc2480 reporting.
  Task      623 on host vipc2480 reporting.
  Task      624 on host vipc2480 reporting.
  Task      625 on host vipc2480 reporting.
  Task      626 on host vipc2480 reporting.
  Task      627 on host vipc2480 reporting.
  Task      628 on host vipc2480 reporting.
  Task      629 on host vipc2480 reporting.
  Task      630 on host vipc2480 reporting.
  Task      631 on host vipc2480 reporting.
  Task      632 on host vipc2480 reporting.
  Task      633 on host vipc2480 reporting.
  Task      634 on host vipc2480 reporting.
  Task      635 on host vipc2480 reporting.
  Task      636 on host vipc2480 reporting.
  Task      637 on host vipc2480 reporting.
  Task      638 on host vipc2480 reporting.
  Task      639 on host vipc2480 reporting.
  Task      640 on host vipc2480 reporting.
  Task      641 on host vipc2480 reporting.
  Task      642 on host vipc2480 reporting.
  Task      643 on host vipc2480 reporting.
  Task      644 on host vipc2480 reporting.
  Task      645 on host vipc2480 reporting.
  Task      646 on host vipc2480 reporting.
  Task      647 on host vipc2480 reporting.
  Task      648 on host vipc2480 reporting.
  Task      649 on host vipc2480 reporting.
  Task      650 on host vipc2480 reporting.
  Task      651 on host vipc2480 reporting.
  Task      652 on host vipc2480 reporting.
  Task      653 on host vipc2480 reporting.
  Task      654 on host vipc2480 reporting.
  Task      655 on host vipc2480 reporting.
  Task      656 on host vipc2480 reporting.
  Task      657 on host vipc2480 reporting.
  Task      658 on host vipc2480 reporting.
  Task      659 on host vipc2480 reporting.
  Task      660 on host vipc2480 reporting.
  Task      661 on host vipc2480 reporting.
  Task      662 on host vipc2480 reporting.
  Task      663 on host vipc2480 reporting.
  Task      664 on host vipc2480 reporting.
  Task      665 on host vipc2480 reporting.
  Task      666 on host vipc2480 reporting.
  Task      667 on host vipc2480 reporting.
  Task      668 on host vipc2480 reporting.
  Task      669 on host vipc2480 reporting.
  Task      670 on host vipc2480 reporting.
  Task      671 on host vipc2480 reporting.
  Task      672 on host vipc2480 reporting.
  Task      673 on host vipc2480 reporting.
  Task      674 on host vipc2480 reporting.
  Task      675 on host vipc2480 reporting.
  Task      676 on host vipc2480 reporting.
  Task      677 on host vipc2480 reporting.
  Task      678 on host vipc2480 reporting.
  Task      679 on host vipc2480 reporting.
  Task      680 on host vipc2480 reporting.
  Task      681 on host vipc2480 reporting.
  Task      682 on host vipc2480 reporting.
  Task      683 on host vipc2480 reporting.
  Task      684 on host vipc2480 reporting.
  Task      685 on host vipc2480 reporting.
  Task      686 on host vipc2533 reporting.
  Task      687 on host vipc2533 reporting.
  Task      688 on host vipc2533 reporting.
  Task      689 on host vipc2533 reporting.
  Task      690 on host vipc2533 reporting.
  Task      691 on host vipc2533 reporting.
  Task      692 on host vipc2533 reporting.
  Task      693 on host vipc2533 reporting.
  Task      694 on host vipc2533 reporting.
  Task      695 on host vipc2533 reporting.
  Task      696 on host vipc2533 reporting.
  Task      697 on host vipc2533 reporting.
  Task      698 on host vipc2533 reporting.
  Task      699 on host vipc2533 reporting.
  Task      700 on host vipc2533 reporting.
  Task      701 on host vipc2533 reporting.
  Task      702 on host vipc2533 reporting.
  Task      703 on host vipc2533 reporting.
  Task      704 on host vipc2533 reporting.
  Task      705 on host vipc2533 reporting.
  Task      706 on host vipc2533 reporting.
  Task      707 on host vipc2533 reporting.
  Task      708 on host vipc2533 reporting.
  Task      709 on host vipc2533 reporting.
  Task      710 on host vipc2533 reporting.
  Task      711 on host vipc2533 reporting.
  Task      712 on host vipc2533 reporting.
  Task      713 on host vipc2533 reporting.
  Task      714 on host vipc2533 reporting.
  Task      715 on host vipc2533 reporting.
  Task      716 on host vipc2533 reporting.
  Task      717 on host vipc2533 reporting.
  Task      718 on host vipc2533 reporting.
  Task      719 on host vipc2533 reporting.
  Task      720 on host vipc2533 reporting.
  Task      721 on host vipc2533 reporting.
  Task      722 on host vipc2533 reporting.
  Task      723 on host vipc2533 reporting.
  Task      724 on host vipc2533 reporting.
  Task      725 on host vipc2533 reporting.
  Task      726 on host vipc2533 reporting.
  Task      727 on host vipc2533 reporting.
  Task      728 on host vipc2533 reporting.
  Task      729 on host vipc2533 reporting.
  Task      730 on host vipc2533 reporting.
  Task      731 on host vipc2533 reporting.
  Task      732 on host vipc2533 reporting.
  Task      733 on host vipc2533 reporting.
  Task      734 on host vipc2533 reporting.
  Task      735 on host vipc2533 reporting.
  Task      736 on host vipc2533 reporting.
  Task      737 on host vipc2533 reporting.
  Task      738 on host vipc2533 reporting.
  Task      739 on host vipc2533 reporting.
  Task      740 on host vipc2533 reporting.
  Task      741 on host vipc2533 reporting.
  Task      742 on host vipc2533 reporting.
  Task      743 on host vipc2533 reporting.
  Task      744 on host vipc2533 reporting.
  Task      745 on host vipc2533 reporting.
  Task      746 on host vipc2533 reporting.
  Task      747 on host vipc2533 reporting.
  Task      748 on host vipc2533 reporting.
  Task      749 on host vipc2533 reporting.
  Task      750 on host vipc2533 reporting.
  Task      751 on host vipc2533 reporting.
  Task      752 on host vipc2533 reporting.
  Task      753 on host vipc2533 reporting.
  Task      754 on host vipc2533 reporting.
  Task      755 on host vipc2533 reporting.
  Task      756 on host vipc2533 reporting.
  Task      757 on host vipc2533 reporting.
  Task      758 on host vipc2533 reporting.
  Task      759 on host vipc2533 reporting.
  Task      760 on host vipc2533 reporting.
  Task      761 on host vipc2533 reporting.
  Task      762 on host vipc2533 reporting.
  Task      763 on host vipc2533 reporting.
  Task      764 on host vipc2533 reporting.
  Task      765 on host vipc2533 reporting.
  Task      766 on host vipc2533 reporting.
  Task      767 on host vipc2533 reporting.
  Task      768 on host vipc2533 reporting.
  Task      769 on host vipc2533 reporting.
  Task      770 on host vipc2533 reporting.
  Task      771 on host vipc2533 reporting.
  Task      772 on host vipc2533 reporting.
  Task      773 on host vipc2533 reporting.
  Task      774 on host vipc2533 reporting.
  Task      775 on host vipc2533 reporting.
  Task      776 on host vipc2533 reporting.
  Task      777 on host vipc2533 reporting.
  Task      778 on host vipc2533 reporting.
  Task      779 on host vipc2533 reporting.
  Task      780 on host vipc2533 reporting.
  Task      781 on host vipc2533 reporting.
  Task      782 on host vipc2533 reporting.
  Task      783 on host vipc2533 reporting.
  Task      784 on host vipc2533 reporting.
  Task      785 on host vipc2533 reporting.
  Task      786 on host vipc2533 reporting.
  Task      787 on host vipc2533 reporting.
  Task      788 on host vipc2533 reporting.
  Task      789 on host vipc2533 reporting.
  Task      790 on host vipc2533 reporting.
  Task      791 on host vipc2533 reporting.
  Task      792 on host vipc2533 reporting.
  Task      793 on host vipc2533 reporting.
  Task      794 on host vipc2533 reporting.
  Task      795 on host vipc2533 reporting.
  Task      796 on host vipc2533 reporting.
  Task      797 on host vipc2533 reporting.
  Task      798 on host vipc2533 reporting.
  Task      799 on host vipc2533 reporting.

  Obtaining array dimensions for all initial allocations:
  
  -----------------------------------------------------------------------
  Parsing control.in (first pass over file, find array dimensions only).
  The contents of control.in will be repeated verbatim below
  unless switched off by setting 'verbatim_writeout .false.' .
  in the first line of control.in .
  -----------------------------------------------------------------------
  
  xc                           pw-lda
  relativistic                 atomic_zora scalar
  k_grid                       2 2 2
  sc_accuracy_rho              1d-1
  sc_iter_limit                1
  postprocess_anyway          .true.
  elsi_restart                 read
  force_complex_eigenvectors  .true.
  use_alltoall                 .false.
  output polarization          3 2 2 3
  
  ################################################################################
  #
  #  FHI-aims code project
  #  VB, Fritz-Haber Institut, 2009
  #
  #  Suggested "light" defaults for Ba atom (to be pasted into control.in file)
  #  Be sure to double-check any results obtained with these settings for post-processing,
  #  e.g., with the "tight" defaults and larger basis sets.
  #
  #  2020/09/27 Increase cut_pot 4.0 -> 5.0, radial_base 5.5 -> 6.5 AA
  #             for better description of metallic Ba.
  #
  ################################################################################
    species          Ba
  #     global species definitions
      nucleus        56
      mass           137.327
  #
      l_hartree      4
  #
      cut_pot        5.0  1.5  1.0
      basis_dep_cutoff    1e-4
  #
      radial_base    65  6.5
      radial_multiplier  1
      angular_grids specified
        division   0.6752  110
        division   0.9746  194
  #      division   1.2241  302
  #      division   1.3850  434
  #      division   1.4734  590
  #      division   1.6010  770
  #      division   4.8366  974
  #      outer_grid  974
        outer_grid  194
  ################################################################################
  #
  #  Definition of "minimal" basis
  #
  ################################################################################
  #     valence basis states
      valence      6  s   2.
      valence      5  p   6.
      valence      4  d  10.
  #     ion occupancy
      ion_occ      6  s   1.
      ion_occ      5  p   6.
      ion_occ      4  d  10.
  ################################################################################
  #
  #  Suggested additional basis functions. For production calculations,
  #  uncomment them one after another (the most important basis functions are
  #  listed first).
  #
  #  Constructed for dimers: 2.65, 3.00, 3.50, 4.40, 5.50 Ang
  #
  ################################################################################
  #  "First tier" - improvements: -1277.43 meV to -9.16 meV
       ionic 5 d auto
       ionic 4 f auto
       hydro 3 p 2.7
  #     hydro 4 s 3.3
  #  "Second tier" - improvements: -64.04 (!) meV to -0.25 meV
  #     hydro 4 f 5.8
  #     hydro 5 g 7.4
  #     hydro 4 d 4.5
  #     hydro 6 h 11.2
  #     hydro 5 p 6.6
  #     hydro 2 s 3.2
  #  "Third tier" - max. impr. -1.16 meV, min. impr. -0.08 meV
  #     hydro 5 f 7.4
  #     hydro 5 g 10.8
  #     hydro 4 d 2.3
  #     hydro 4 p 3.7
  #     hydro 5 s 4.0
  #  Further functions - impr. -0.35 meV and below
  #     hydro 5 d 3.5
  #     hydro 6 d 0.4
  #     hydro 2 p 2.5
  #     hydro 5 f 12
  #     hydro 6 d 8.8
  ################################################################################
  #
  #  FHI-aims code project
  #  VB, Fritz-Haber Institut, 2009
  #
  #  Suggested "light" defaults for Ti atom (to be pasted into control.in file)
  #  Be sure to double-check any results obtained with these settings for post-processing,
  #  e.g., with the "tight" defaults and larger basis sets.
  #
  ################################################################################
    species        Ti
  #     global species definitions
      nucleus             22
      mass                47.867
  #
      l_hartree           4
  #
      cut_pot             3.5          1.5  1.0
      basis_dep_cutoff    1e-4
  #
      radial_base         48 5.0
      radial_multiplier   1
      angular_grids       specified
        division   0.5171   50
        division   0.9824  110
        division   1.2917  194
  #      division   1.4940  302
  #      division   1.6934  434
  #      division   1.8425  590
  #      division   2.1901  770
  #      division   2.2896  974
  #      division   2.8244 1202
  #      outer_grid  974
        outer_grid  194
  ################################################################################
  #
  #  Definition of "minimal" basis
  #
  ################################################################################
  #     valence basis states
      valence      4  s   2.
      valence      3  p   6.
      valence      3  d   2.
  #     ion occupancy
      ion_occ      4  s   1.
      ion_occ      3  p   6.
      ion_occ      3  d   1.
  ################################################################################
  #
  #  Suggested additional basis functions. For production calculations,
  #  uncomment them one after another (the most important basis functions are
  #  listed first).
  #
  #  Constructed for dimers: 1.6 A, 1.85 A, 2.5 A, 3.25 A, 4.25 A
  #
  ################################################################################
  #  "First tier" - improvements: -396.25 meV to -19.41 meV
       hydro 4 f 8
       hydro 3 d 2.7
       ionic 4 p auto
  #     hydro 5 g 11.6
  #     ionic 4 s auto
  #  "Second tier" - improvements: -16.30 meV to -2.03 meV
  #     hydro 3 d 4.4
  #     hydro 6 h 16
  #     hydro 4 f 9.4
  #     hydro 4 p 4.5
  #     hydro 1 s 0.5
  #  "Third tier" - improvements: -6.28 meV to -0.37 meV
  #     hydro 4 d 6.4
  #     hydro 4 f 10
  #     hydro 5 g 12
  #     hydro 2 p 1.7
  #     hydro 6 h 16.4
  #     hydro 4 s 3.8
  #  Further basis functions: -0.45 meV and smaller improvements
  #     hydro 3 d 8.8
  #     hydro 5 p 18
  #     hydro 4 f 22.4
  #     hydro 5 f 7.2  # -0.16 meV
  #     hydro 3 d 2.1  # -0.11 meV
  #     hydro 5 g 7.4  # -0.09 meV
  ################################################################################
  #
  #  FHI-aims code project
  #  VB, Fritz-Haber Institut, 2009
  #
  #  Suggested "light" defaults for O atom (to be pasted into control.in file)
  #  Be sure to double-check any results obtained with these settings for post-processing,
  #  e.g., with the "tight" defaults and larger basis sets.
  #
  ################################################################################
    species        O
  #     global species definitions
      nucleus             8
      mass                15.9994
  #
      l_hartree           4
  #
      cut_pot             3.5  1.5  1.0
      basis_dep_cutoff    1e-4
  #
      radial_base         36 5.0
      radial_multiplier   1
       angular_grids specified
        division   0.2659   50
        division   0.4451  110
        division   0.6052  194
  #      division   0.7543  302
  #      division   0.8014  434
  #      division   0.8507  590
  #      division   0.8762  770
  #      division   0.9023  974
  #      division   1.2339 1202
  #      outer_grid 974
        outer_grid 194
  ################################################################################
  #
  #  Definition of "minimal" basis
  #
  ################################################################################
  #     valence basis states
      valence      2  s   2.
      valence      2  p   4.
  #     ion occupancy
      ion_occ      2  s   1.
      ion_occ      2  p   3.
  ################################################################################
  #
  #  Suggested additional basis functions. For production calculations,
  #  uncomment them one after another (the most important basis functions are
  #  listed first).
  #
  #  Constructed for dimers: 1.0 A, 1.208 A, 1.5 A, 2.0 A, 3.0 A
  #
  ################################################################################
  #  "First tier" - improvements: -699.05 meV to -159.38 meV
       hydro 2 p 1.8
       hydro 3 d 7.6
       hydro 3 s 6.4
  #  "Second tier" - improvements: -49.91 meV to -5.39 meV
  #     hydro 4 f 11.6
  #     hydro 3 p 6.2
  #     hydro 3 d 5.6
  #     hydro 5 g 17.6
  #     hydro 1 s 0.75
  #  "Third tier" - improvements: -2.83 meV to -0.50 meV
  #     ionic 2 p auto
  #     hydro 4 f 10.8
  #     hydro 4 d 4.7
  #     hydro 2 s 6.8
  #  "Fourth tier" - improvements: -0.40 meV to -0.12 meV
  #     hydro 3 p 5
  #     hydro 3 s 3.3
  #     hydro 5 g 15.6
  #     hydro 4 f 17.6
  #     hydro 4 d 14
  # Further basis functions - -0.08 meV and below
  #     hydro 3 s 2.1
  #     hydro 4 d 11.6
  #     hydro 3 p 16
  #     hydro 2 s 17.2
  
  -----------------------------------------------------------------------
  Completed first pass over input file control.in .
  -----------------------------------------------------------------------
  
  
  -----------------------------------------------------------------------
  Parsing geometry.in (first pass over file, find array dimensions only).
  The contents of geometry.in will be repeated verbatim below
  unless switched off by setting 'verbatim_writeout .false.' .
  in the first line of geometry.in .
  -----------------------------------------------------------------------
  
  #===============================================================================
  # Created using the Atomic Simulation Environment (ASE)
  
  # Thu Oct 16 21:43:50 2025
  
  #=======================================================
  lattice_vector 31.4562237215280014 0.0000000262560000 -0.0000000119520000
  lattice_vector 0.0000000262560000 31.4562593622320001 -0.0000000066800000
  lattice_vector -0.0000000116080000 -0.0000000064720000 31.8576707905919996
  atom 0.0000006851581051 0.0000010260904366 0.0046675955348320 Ba
  atom 3.9320286503491055 0.0000010293724366 0.0046675940408320 Ba
  atom 7.8640566155401048 0.0000010326544366 0.0046675925468320 Ba
  atom 11.7960845807311046 0.0000010359364366 0.0046675910528320 Ba
  atom 15.7281125459221069 0.0000010392184366 0.0046675895588320 Ba
  atom 19.6601405111131058 0.0000010425004366 0.0046675880648320 Ba
  atom 23.5921684763041064 0.0000010457824366 0.0046675865708320 Ba
  atom 27.5241964414951070 0.0000010490644366 0.0046675850768320 Ba
  atom 0.0000006884401051 3.9320334463694366 0.0046675946998320 Ba
  atom 3.9320286536311055 3.9320334496514366 0.0046675932058320 Ba
  atom 7.8640566188221044 3.9320334529334366 0.0046675917118320 Ba
  atom 11.7960845840131050 3.9320334562154367 0.0046675902178320 Ba
  atom 15.7281125492041074 3.9320334594974367 0.0046675887238320 Ba
  atom 19.6601405143951062 3.9320334627794367 0.0046675872298320 Ba
  atom 23.5921684795861069 3.9320334660614367 0.0046675857358320 Ba
  atom 27.5241964447771075 3.9320334693434367 0.0046675842418320 Ba
  atom 0.0000006917221051 7.8640658666484367 0.0046675938648320 Ba
  atom 3.9320286569131055 7.8640658699304362 0.0046675923708320 Ba
  atom 7.8640566221041048 7.8640658732124367 0.0046675908768320 Ba
  atom 11.7960845872951055 7.8640658764944362 0.0046675893828320 Ba
  atom 15.7281125524861078 7.8640658797764367 0.0046675878888320 Ba
  atom 19.6601405176771067 7.8640658830584362 0.0046675863948320 Ba
  atom 23.5921684828681073 7.8640658863404367 0.0046675849008320 Ba
  atom 27.5241964480591079 7.8640658896224362 0.0046675834068320 Ba
  atom 0.0000006950041051 11.7960982869274371 0.0046675930298320 Ba
  atom 3.9320286601951056 11.7960982902094358 0.0046675915358320 Ba
  atom 7.8640566253861044 11.7960982934914362 0.0046675900418320 Ba
  atom 11.7960845905771059 11.7960982967734367 0.0046675885478320 Ba
  atom 15.7281125557681083 11.7960983000554371 0.0046675870538320 Ba
  atom 19.6601405209591071 11.7960983033374358 0.0046675855598320 Ba
  atom 23.5921684861501078 11.7960983066194363 0.0046675840658320 Ba
  atom 27.5241964513411084 11.7960983099014367 0.0046675825718320 Ba
  atom 0.0000006982861051 15.7281307072064358 0.0046675921948320 Ba
  atom 3.9320286634771056 15.7281307104884363 0.0046675907008320 Ba
  atom 7.8640566286681048 15.7281307137704367 0.0046675892068320 Ba
  atom 11.7960845938591046 15.7281307170524371 0.0046675877128320 Ba
  atom 15.7281125590501070 15.7281307203344358 0.0046675862188320 Ba
  atom 19.6601405242411076 15.7281307236164363 0.0046675847248320 Ba
  atom 23.5921684894321082 15.7281307268984367 0.0046675832308320 Ba
  atom 27.5241964546231088 15.7281307301804372 0.0046675817368320 Ba
  atom 0.0000007015681051 19.6601631274854363 0.0046675913598320 Ba
  atom 3.9320286667591056 19.6601631307674367 0.0046675898658320 Ba
  atom 7.8640566319501044 19.6601631340494372 0.0046675883718320 Ba
  atom 11.7960845971411050 19.6601631373314376 0.0046675868778320 Ba
  atom 15.7281125623321074 19.6601631406134381 0.0046675853838320 Ba
  atom 19.6601405275231080 19.6601631438954350 0.0046675838898320 Ba
  atom 23.5921684927141087 19.6601631471774354 0.0046675823958320 Ba
  atom 27.5241964579051093 19.6601631504594359 0.0046675809018320 Ba
  atom 0.0000007048501051 23.5921955477644367 0.0046675905248320 Ba
  atom 3.9320286700411056 23.5921955510464372 0.0046675890308320 Ba
  atom 7.8640566352321049 23.5921955543284376 0.0046675875368320 Ba
  atom 11.7960846004231055 23.5921955576104381 0.0046675860428320 Ba
  atom 15.7281125656141079 23.5921955608924350 0.0046675845488320 Ba
  atom 19.6601405308051049 23.5921955641744354 0.0046675830548320 Ba
  atom 23.5921684959961055 23.5921955674564359 0.0046675815608320 Ba
  atom 27.5241964611871062 23.5921955707384363 0.0046675800668320 Ba
  atom 0.0000007081321051 27.5242279680434372 0.0046675896898320 Ba
  atom 3.9320286733231056 27.5242279713254376 0.0046675881958320 Ba
  atom 7.8640566385141044 27.5242279746074381 0.0046675867018320 Ba
  atom 11.7960846037051059 27.5242279778894350 0.0046675852078320 Ba
  atom 15.7281125688961083 27.5242279811714354 0.0046675837138320 Ba
  atom 19.6601405340871054 27.5242279844534359 0.0046675822198320 Ba
  atom 23.5921684992781060 27.5242279877354363 0.0046675807258320 Ba
  atom 27.5241964644691066 27.5242279910174368 0.0046675792318320 Ba
  atom 0.0000006837071051 0.0000010252814366 3.9868764443588316 Ba
  atom 3.9320286488981058 0.0000010285634366 3.9868764428648316 Ba
  atom 7.8640566140891046 0.0000010318454366 3.9868764413708315 Ba
  atom 11.7960845792801035 0.0000010351274366 3.9868764398768315 Ba
  atom 15.7281125444711058 0.0000010384094366 3.9868764383828315 Ba
  atom 19.6601405096621065 0.0000010416914366 3.9868764368888314 Ba
  atom 23.5921684748531071 0.0000010449734366 3.9868764353948314 Ba
  atom 27.5241964400441077 0.0000010482554366 3.9868764339008318 Ba
  atom 0.0000006869891051 3.9320334455604367 3.9868764435238315 Ba
  atom 3.9320286521801058 3.9320334488424367 3.9868764420298315 Ba
  atom 7.8640566173711042 3.9320334521244367 3.9868764405358315 Ba
  atom 11.7960845825621039 3.9320334554064367 3.9868764390418314 Ba
  atom 15.7281125477531063 3.9320334586884367 3.9868764375478314 Ba
  atom 19.6601405129441069 3.9320334619704367 3.9868764360538318 Ba
  atom 23.5921684781351075 3.9320334652524367 3.9868764345598318 Ba
  atom 27.5241964433261082 3.9320334685344367 3.9868764330658317 Ba
  atom 0.0000006902711051 7.8640658658394367 3.9868764426888315 Ba
  atom 3.9320286554621058 7.8640658691214362 3.9868764411948314 Ba
  atom 7.8640566206531046 7.8640658724034367 3.9868764397008314 Ba
  atom 11.7960845858441044 7.8640658756854362 3.9868764382068318 Ba
  atom 15.7281125510351067 7.8640658789674367 3.9868764367128318 Ba
  atom 19.6601405162261074 7.8640658822494363 3.9868764352188317 Ba
  atom 23.5921684814171080 7.8640658855314367 3.9868764337248317 Ba
  atom 27.5241964466081086 7.8640658888134363 3.9868764322308317 Ba
  atom 0.0000006935531051 11.7960982861184380 3.9868764418538314 Ba
  atom 3.9320286587441058 11.7960982894004367 3.9868764403598318 Ba
  atom 7.8640566239351042 11.7960982926824371 3.9868764388658318 Ba
  atom 11.7960845891261048 11.7960982959644376 3.9868764373718317 Ba
  atom 15.7281125543171072 11.7960982992464380 3.9868764358778317 Ba
  atom 19.6601405195081078 11.7960983025284367 3.9868764343838317 Ba
  atom 23.5921684846991084 11.7960983058104372 3.9868764328898316 Ba
  atom 27.5241964498901091 11.7960983090924376 3.9868764313958316 Ba
  atom 0.0000006968351051 15.7281307063974367 3.9868764410188318 Ba
  atom 3.9320286620261058 15.7281307096794372 3.9868764395248317 Ba
  atom 7.8640566272171046 15.7281307129614376 3.9868764380308317 Ba
  atom 11.7960845924081035 15.7281307162434381 3.9868764365368317 Ba
  atom 15.7281125575991059 15.7281307195254367 3.9868764350428316 Ba
  atom 19.6601405227901083 15.7281307228074372 3.9868764335488316 Ba
  atom 23.5921684879811089 15.7281307260894376 3.9868764320548316 Ba
  atom 27.5241964531721095 15.7281307293714381 3.9868764305608315 Ba
  atom 0.0000007001171051 19.6601631266764372 3.9868764401838317 Ba
  atom 3.9320286653081058 19.6601631299584376 3.9868764386898317 Ba
  atom 7.8640566304991042 19.6601631332404381 3.9868764371958316 Ba
  atom 11.7960845956901039 19.6601631365224385 3.9868764357018316 Ba
  atom 15.7281125608811063 19.6601631398044390 3.9868764342078316 Ba
  atom 19.6601405260721087 19.6601631430864359 3.9868764327138315 Ba
  atom 23.5921684912631093 19.6601631463684363 3.9868764312198315 Ba
  atom 27.5241964564541099 19.6601631496504368 3.9868764297258314 Ba
  atom 0.0000007033991051 23.5921955469554376 3.9868764393488316 Ba
  atom 3.9320286685901058 23.5921955502374381 3.9868764378548316 Ba
  atom 7.8640566337811046 23.5921955535194385 3.9868764363608316 Ba
  atom 11.7960845989721044 23.5921955568014390 3.9868764348668315 Ba
  atom 15.7281125641631068 23.5921955600834359 3.9868764333728315 Ba
  atom 19.6601405293541056 23.5921955633654363 3.9868764318788315 Ba
  atom 23.5921684945451062 23.5921955666474368 3.9868764303848314 Ba
  atom 27.5241964597361068 23.5921955699294372 3.9868764288908314 Ba
  atom 0.0000007066811051 27.5242279672344381 3.9868764385138316 Ba
  atom 3.9320286718721058 27.5242279705164385 3.9868764370198315 Ba
  atom 7.8640566370631042 27.5242279737984390 3.9868764355258315 Ba
  atom 11.7960846022541048 27.5242279770804359 3.9868764340318315 Ba
  atom 15.7281125674451072 27.5242279803624363 3.9868764325378314 Ba
  atom 19.6601405326361061 27.5242279836444368 3.9868764310438314 Ba
  atom 23.5921684978271067 27.5242279869264372 3.9868764295498318 Ba
  atom 27.5241964630181073 27.5242279902084377 3.9868764280558318 Ba
  atom 0.0000006822561051 0.0000010244724366 7.9690852931828315 Ba
  atom 3.9320286474471056 0.0000010277544366 7.9690852916888320 Ba
  atom 7.8640566126381053 0.0000010310364366 7.9690852901948315 Ba
  atom 11.7960845778291041 0.0000010343184366 7.9690852887008319 Ba
  atom 15.7281125430201065 0.0000010376004366 7.9690852872068314 Ba
  atom 19.6601405082111071 0.0000010408824366 7.9690852857128318 Ba
  atom 23.5921684734021078 0.0000010441644366 7.9690852842188313 Ba
  atom 27.5241964385931084 0.0000010474464366 7.9690852827248317 Ba
  atom 0.0000006855381051 3.9320334447514367 7.9690852923478319 Ba
  atom 3.9320286507291056 3.9320334480334367 7.9690852908538314 Ba
  atom 7.8640566159201049 3.9320334513154367 7.9690852893598318 Ba
  atom 11.7960845811111046 3.9320334545974367 7.9690852878658314 Ba
  atom 15.7281125463021070 3.9320334578794367 7.9690852863718318 Ba
  atom 19.6601405114931076 3.9320334611614367 7.9690852848778313 Ba
  atom 23.5921684766841082 3.9320334644434367 7.9690852833838317 Ba
  atom 27.5241964418751088 3.9320334677254367 7.9690852818898312 Ba
  atom 0.0000006888201051 7.8640658650304367 7.9690852915128314 Ba
  atom 3.9320286540111056 7.8640658683124363 7.9690852900188318 Ba
  atom 7.8640566192021053 7.8640658715944367 7.9690852885248313 Ba
  atom 11.7960845843931050 7.8640658748764363 7.9690852870308317 Ba
  atom 15.7281125495841074 7.8640658781584367 7.9690852855368313 Ba
  atom 19.6601405147751080 7.8640658814404363 7.9690852840428317 Ba
  atom 23.5921684799661087 7.8640658847224367 7.9690852825488312 Ba
  atom 27.5241964451571093 7.8640658880044363 7.9690852810548316 Ba
  atom 0.0000006921021051 11.7960982853094372 7.9690852906778318 Ba
  atom 3.9320286572931056 11.7960982885914358 7.9690852891838313 Ba
  atom 7.8640566224841049 11.7960982918734363 7.9690852876898317 Ba
  atom 11.7960845876751055 11.7960982951554367 7.9690852861958312 Ba
  atom 15.7281125528661079 11.7960982984374372 7.9690852847018316 Ba
  atom 19.6601405180571085 11.7960983017194359 7.9690852832078312 Ba
  atom 23.5921684832481091 11.7960983050014363 7.9690852817138316 Ba
  atom 27.5241964484391097 11.7960983082834368 7.9690852802198311 Ba
  atom 0.0000006953841051 15.7281307055884358 7.9690852898428313 Ba
  atom 3.9320286605751056 15.7281307088704363 7.9690852883488317 Ba
  atom 7.8640566257661053 15.7281307121524367 7.9690852868548312 Ba
  atom 11.7960845909571042 15.7281307154344372 7.9690852853608316 Ba
  atom 15.7281125561481065 15.7281307187164359 7.9690852838668311 Ba
  atom 19.6601405213391089 15.7281307219984363 7.9690852823728315 Ba
  atom 23.5921684865301096 15.7281307252804368 7.9690852808788319 Ba
  atom 27.5241964517211102 15.7281307285624372 7.9690852793848315 Ba
  atom 0.0000006986661051 19.6601631258674381 7.9690852890078316 Ba
  atom 3.9320286638571056 19.6601631291494385 7.9690852875138312 Ba
  atom 7.8640566290481049 19.6601631324314390 7.9690852860198316 Ba
  atom 11.7960845942391046 19.6601631357134394 7.9690852845258311 Ba
  atom 15.7281125594301070 19.6601631389954399 7.9690852830318315 Ba
  atom 19.6601405246211094 19.6601631422774368 7.9690852815378319 Ba
  atom 23.5921684898121100 19.6601631455594372 7.9690852800438314 Ba
  atom 27.5241964550031106 19.6601631488414377 7.9690852785498318 Ba
  atom 0.0000007019481051 23.5921955461464385 7.9690852881728311 Ba
  atom 3.9320286671391056 23.5921955494284390 7.9690852866788315 Ba
  atom 7.8640566323301053 23.5921955527104394 7.9690852851848319 Ba
  atom 11.7960845975211051 23.5921955559924399 7.9690852836908315 Ba
  atom 15.7281125627121074 23.5921955592744368 7.9690852821968319 Ba
  atom 19.6601405279031063 23.5921955625564372 7.9690852807028314 Ba
  atom 23.5921684930941069 23.5921955658384377 7.9690852792088318 Ba
  atom 27.5241964582851075 23.5921955691204381 7.9690852777148313 Ba
  atom 0.0000007052301051 27.5242279664254390 7.9690852873378315 Ba
  atom 3.9320286704211056 27.5242279697074395 7.9690852858438319 Ba
  atom 7.8640566356121049 27.5242279729894399 7.9690852843498314 Ba
  atom 11.7960846008031055 27.5242279762714368 7.9690852828558318 Ba
  atom 15.7281125659941079 27.5242279795534373 7.9690852813618314 Ba
  atom 19.6601405311851067 27.5242279828354377 7.9690852798678318 Ba
  atom 23.5921684963761074 27.5242279861174381 7.9690852783738313 Ba
  atom 27.5241964615671080 27.5242279893994386 7.9690852768798317 Ba
  atom 0.0000006808051051 0.0000010236634366 11.9512941420068319 Ba
  atom 3.9320286459961058 0.0000010269454366 11.9512941405128323 Ba
  atom 7.8640566111871051 0.0000010302274366 11.9512941390188310 Ba
  atom 11.7960845763781030 0.0000010335094366 11.9512941375248314 Ba
  atom 15.7281125415691054 0.0000010367914366 11.9512941360308318 Ba
  atom 19.6601405067601078 0.0000010400734366 11.9512941345368322 Ba
  atom 23.5921684719511084 0.0000010433554366 11.9512941330428308 Ba
  atom 27.5241964371421091 0.0000010466374366 11.9512941315488312 Ba
  atom 0.0000006840871051 3.9320334439424367 11.9512941411718323 Ba
  atom 3.9320286492781058 3.9320334472244367 11.9512941396778309 Ba
  atom 7.8640566144691046 3.9320334505064367 11.9512941381838314 Ba
  atom 11.7960845796601035 3.9320334537884367 11.9512941366898318 Ba
  atom 15.7281125448511059 3.9320334570704367 11.9512941351958322 Ba
  atom 19.6601405100421083 3.9320334603524367 11.9512941337018308 Ba
  atom 23.5921684752331089 3.9320334636344367 11.9512941322078312 Ba
  atom 27.5241964404241095 3.9320334669164367 11.9512941307138316 Ba
  atom 0.0000006873691051 7.8640658642214367 11.9512941403368309 Ba
  atom 3.9320286525601058 7.8640658675034363 11.9512941388428313 Ba
  atom 7.8640566177511051 7.8640658707854367 11.9512941373488317 Ba
  atom 11.7960845829421039 7.8640658740674363 11.9512941358548321 Ba
  atom 15.7281125481331063 7.8640658773494367 11.9512941343608308 Ba
  atom 19.6601405133241087 7.8640658806314363 11.9512941328668312 Ba
  atom 23.5921684785151093 7.8640658839134367 11.9512941313728316 Ba
  atom 27.5241964437061100 7.8640658871954363 11.9512941298788320 Ba
  atom 0.0000006906511051 11.7960982845004381 11.9512941395018313 Ba
  atom 3.9320286558421058 11.7960982877824367 11.9512941380078317 Ba
  atom 7.8640566210331047 11.7960982910644372 11.9512941365138321 Ba
  atom 11.7960845862241044 11.7960982943464376 11.9512941350198307 Ba
  atom 15.7281125514151068 11.7960982976284381 11.9512941335258311 Ba
  atom 19.6601405166061092 11.7960983009104368 11.9512941320318316 Ba
  atom 23.5921684817971098 11.7960983041924372 11.9512941305378320 Ba
  atom 27.5241964469881104 11.7960983074744377 11.9512941290438306 Ba
  atom 0.0000006939331051 15.7281307047794368 11.9512941386668317 Ba
  atom 3.9320286591241058 15.7281307080614372 11.9512941371728321 Ba
  atom 7.8640566243151051 15.7281307113434377 11.9512941356788307 Ba
  atom 11.7960845895061031 15.7281307146254381 11.9512941341848311 Ba
  atom 15.7281125546971055 15.7281307179074368 11.9512941326908315 Ba
  atom 19.6601405198881096 15.7281307211894372 11.9512941311968319 Ba
  atom 23.5921684850791102 15.7281307244714377 11.9512941297028323 Ba
  atom 27.5241964502701109 15.7281307277534381 11.9512941282088310 Ba
  atom 0.0000006972151051 19.6601631250584354 11.9512941378318320 Ba
  atom 3.9320286624061058 19.6601631283404359 11.9512941363378307 Ba
  atom 7.8640566275971047 19.6601631316224363 11.9512941348438311 Ba
  atom 11.7960845927881035 19.6601631349044368 11.9512941333498315 Ba
  atom 15.7281125579791059 19.6601631381864372 11.9512941318558319 Ba
  atom 19.6601405231701101 19.6601631414684341 11.9512941303618323 Ba
  atom 23.5921684883611107 19.6601631447504346 11.9512941288678309 Ba
  atom 27.5241964535521113 19.6601631480324350 11.9512941273738313 Ba
  atom 0.0000007004971051 23.5921955453374359 11.9512941369968306 Ba
  atom 3.9320286656881058 23.5921955486194364 11.9512941355028310 Ba
  atom 7.8640566308791051 23.5921955519014368 11.9512941340088314 Ba
  atom 11.7960845960701040 23.5921955551834372 11.9512941325148319 Ba
  atom 15.7281125612611064 23.5921955584654341 11.9512941310208323 Ba
  atom 19.6601405264521070 23.5921955617474346 11.9512941295268309 Ba
  atom 23.5921684916431076 23.5921955650294350 11.9512941280328313 Ba
  atom 27.5241964568341082 23.5921955683114355 11.9512941265388317 Ba
  atom 0.0000007037791051 27.5242279656164364 11.9512941361618310 Ba
  atom 3.9320286689701058 27.5242279688984368 11.9512941346678314 Ba
  atom 7.8640566341611047 27.5242279721804373 11.9512941331738318 Ba
  atom 11.7960845993521044 27.5242279754624342 11.9512941316798322 Ba
  atom 15.7281125645431068 27.5242279787444346 11.9512941301858309 Ba
  atom 19.6601405297341074 27.5242279820264351 11.9512941286918313 Ba
  atom 23.5921684949251080 27.5242279853084355 11.9512941271978317 Ba
  atom 27.5241964601161087 27.5242279885904360 11.9512941257038321 Ba
  atom 0.0000006793541051 0.0000010228544366 15.9335029908308314 Ba
  atom 3.9320286445451056 0.0000010261364366 15.9335029893368318 Ba
  atom 7.8640566097361049 0.0000010294184366 15.9335029878428323 Ba
  atom 11.7960845749271037 0.0000010327004366 15.9335029863488309 Ba
  atom 15.7281125401181061 0.0000010359824366 15.9335029848548313 Ba
  atom 19.6601405053091085 0.0000010392644366 15.9335029833608317 Ba
  atom 23.5921684705001091 0.0000010425464366 15.9335029818668321 Ba
  atom 27.5241964356911097 0.0000010458284366 15.9335029803728307 Ba
  atom 0.0000006826361051 3.9320334431334367 15.9335029899958318 Ba
  atom 3.9320286478271056 3.9320334464154367 15.9335029885018322 Ba
  atom 7.8640566130181044 3.9320334496974367 15.9335029870078309 Ba
  atom 11.7960845782091042 3.9320334529794367 15.9335029855138313 Ba
  atom 15.7281125434001066 3.9320334562614367 15.9335029840198317 Ba
  atom 19.6601405085911090 3.9320334595434367 15.9335029825258321 Ba
  atom 23.5921684737821096 3.9320334628254368 15.9335029810318307 Ba
  atom 27.5241964389731102 3.9320334661074368 15.9335029795378311 Ba
  atom 0.0000006859181051 7.8640658634124367 15.9335029891608322 Ba
  atom 3.9320286511091056 7.8640658666944363 15.9335029876668308 Ba
  atom 7.8640566163001049 7.8640658699764368 15.9335029861728312 Ba
  atom 11.7960845814911046 7.8640658732584363 15.9335029846788316 Ba
  atom 15.7281125466821070 7.8640658765404368 15.9335029831848320 Ba
  atom 19.6601405118731094 7.8640658798224363 15.9335029816908307 Ba
  atom 23.5921684770641100 7.8640658831044368 15.9335029801968311 Ba
  atom 27.5241964422551106 7.8640658863864363 15.9335029787028315 Ba
  atom 0.0000006892001051 11.7960982836914372 15.9335029883258308 Ba
  atom 3.9320286543911056 11.7960982869734359 15.9335029868318312 Ba
  atom 7.8640566195821044 11.7960982902554363 15.9335029853378316 Ba
  atom 11.7960845847731051 11.7960982935374368 15.9335029838438320 Ba
  atom 15.7281125499641075 11.7960982968194372 15.9335029823498306 Ba
  atom 19.6601405151551099 11.7960983001014359 15.9335029808558311 Ba
  atom 23.5921684803461105 11.7960983033834363 15.9335029793618315 Ba
  atom 27.5241964455371111 11.7960983066654368 15.9335029778678319 Ba
  atom 0.0000006924821051 15.7281307039704359 15.9335029874908312 Ba
  atom 3.9320286576731056 15.7281307072524363 15.9335029859968316 Ba
  atom 7.8640566228641049 15.7281307105344368 15.9335029845028320 Ba
  atom 11.7960845880551037 15.7281307138164372 15.9335029830088306 Ba
  atom 15.7281125532461061 15.7281307170984359 15.9335029815148310 Ba
  atom 19.6601405184371103 15.7281307203804364 15.9335029800208314 Ba
  atom 23.5921684836281109 15.7281307236624368 15.9335029785268318 Ba
  atom 27.5241964488191115 15.7281307269444373 15.9335029770328322 Ba
  atom 0.0000006957641051 19.6601631242494364 15.9335029866558315 Ba
  atom 3.9320286609551056 19.6601631275314368 15.9335029851618319 Ba
  atom 7.8640566261461045 19.6601631308134372 15.9335029836678306 Ba
  atom 11.7960845913371042 19.6601631340954377 15.9335029821738310 Ba
  atom 15.7281125565281066 19.6601631373774381 15.9335029806798314 Ba
  atom 19.6601405217191108 19.6601631406594350 15.9335029791858318 Ba
  atom 23.5921684869101114 19.6601631439414355 15.9335029776918322 Ba
  atom 27.5241964521011120 19.6601631472234359 15.9335029761978308 Ba
  atom 0.0000006990461051 23.5921955445284368 15.9335029858208319 Ba
  atom 3.9320286642371056 23.5921955478104373 15.9335029843268305 Ba
  atom 7.8640566294281049 23.5921955510924377 15.9335029828328310 Ba
  atom 11.7960845946191046 23.5921955543744382 15.9335029813388314 Ba
  atom 15.7281125598101070 23.5921955576564351 15.9335029798448318 Ba
  atom 19.6601405250011076 23.5921955609384355 15.9335029783508322 Ba
  atom 23.5921684901921083 23.5921955642204360 15.9335029768568308 Ba
  atom 27.5241964553831089 23.5921955675024364 15.9335029753628312 Ba
  atom 0.0000007023281051 27.5242279648074373 15.9335029849858323 Ba
  atom 3.9320286675191056 27.5242279680894377 15.9335029834918309 Ba
  atom 7.8640566327101045 27.5242279713714382 15.9335029819978313 Ba
  atom 11.7960845979011051 27.5242279746534351 15.9335029805038317 Ba
  atom 15.7281125630921075 27.5242279779354355 15.9335029790098321 Ba
  atom 19.6601405282831081 27.5242279812174360 15.9335029775158308 Ba
  atom 23.5921684934741087 27.5242279844994364 15.9335029760218312 Ba
  atom 27.5241964586651093 27.5242279877814369 15.9335029745278316 Ba
  atom 0.0000006779031051 0.0000010220454366 19.9157118396548327 Ba
  atom 3.9320286430941058 0.0000010253274366 19.9157118381608313 Ba
  atom 7.8640566082851047 0.0000010286094366 19.9157118366668300 Ba
  atom 11.7960845734761044 0.0000010318914366 19.9157118351728322 Ba
  atom 15.7281125386671068 0.0000010351734366 19.9157118336788308 Ba
  atom 19.6601405038581056 0.0000010384554366 19.9157118321848330 Ba
  atom 23.5921684690491062 0.0000010417374366 19.9157118306908316 Ba
  atom 27.5241964342401069 0.0000010450194366 19.9157118291968303 Ba
  atom 0.0000006811851051 3.9320334423244367 19.9157118388198313 Ba
  atom 3.9320286463761058 3.9320334456064368 19.9157118373258299 Ba
  atom 7.8640566115671042 3.9320334488884368 19.9157118358318321 Ba
  atom 11.7960845767581048 3.9320334521704368 19.9157118343378308 Ba
  atom 15.7281125419491072 3.9320334554524368 19.9157118328438330 Ba
  atom 19.6601405071401061 3.9320334587344368 19.9157118313498316 Ba
  atom 23.5921684723311067 3.9320334620164368 19.9157118298558302 Ba
  atom 27.5241964375221073 3.9320334652984368 19.9157118283618324 Ba
  atom 0.0000006844671051 7.8640658626034368 19.9157118379848299 Ba
  atom 3.9320286496581058 7.8640658658854363 19.9157118364908321 Ba
  atom 7.8640566148491047 7.8640658691674368 19.9157118349968307 Ba
  atom 11.7960845800401053 7.8640658724494363 19.9157118335028329 Ba
  atom 15.7281125452311077 7.8640658757314368 19.9157118320088315 Ba
  atom 19.6601405104221065 7.8640658790134363 19.9157118305148302 Ba
  atom 23.5921684756131071 7.8640658822954368 19.9157118290208324 Ba
  atom 27.5241964408041078 7.8640658855774364 19.9157118275268310 Ba
  atom 0.0000006877491051 11.7960982828824381 19.9157118371498321 Ba
  atom 3.9320286529401058 11.7960982861644368 19.9157118356558307 Ba
  atom 7.8640566181311042 11.7960982894464372 19.9157118341618329 Ba
  atom 11.7960845833221057 11.7960982927284377 19.9157118326678315 Ba
  atom 15.7281125485131081 11.7960982960104381 19.9157118311738301 Ba
  atom 19.6601405137041070 11.7960982992924368 19.9157118296798323 Ba
  atom 23.5921684788951076 11.7960983025744373 19.9157118281858310 Ba
  atom 27.5241964440861082 11.7960983058564377 19.9157118266918296 Ba
  atom 0.0000006910311051 15.7281307031614368 19.9157118363148307 Ba
  atom 3.9320286562221058 15.7281307064434372 19.9157118348208328 Ba
  atom 7.8640566214131047 15.7281307097254377 19.9157118333268315 Ba
  atom 11.7960845866041044 15.7281307130074381 19.9157118318328301 Ba
  atom 15.7281125517951068 15.7281307162894368 19.9157118303388323 Ba
  atom 19.6601405169861074 15.7281307195714373 19.9157118288448309 Ba
  atom 23.5921684821771080 15.7281307228534377 19.9157118273508331 Ba
  atom 27.5241964473681087 15.7281307261354382 19.9157118258568318 Ba
  atom 0.0000006943131051 19.6601631234404373 19.9157118354798328 Ba
  atom 3.9320286595041058 19.6601631267224377 19.9157118339858314 Ba
  atom 7.8640566246951042 19.6601631300044382 19.9157118324918301 Ba
  atom 11.7960845898861049 19.6601631332864386 19.9157118309978323 Ba
  atom 15.7281125550771073 19.6601631365684391 19.9157118295038309 Ba
  atom 19.6601405202681079 19.6601631398504360 19.9157118280098331 Ba
  atom 23.5921684854591085 19.6601631431324364 19.9157118265158317 Ba
  atom 27.5241964506501091 19.6601631464144369 19.9157118250218304 Ba
  atom 0.0000006975951051 23.5921955437194377 19.9157118346448314 Ba
  atom 3.9320286627861059 23.5921955470014382 19.9157118331508300 Ba
  atom 7.8640566279771047 23.5921955502834386 19.9157118316568322 Ba
  atom 11.7960845931681053 23.5921955535654391 19.9157118301628309 Ba
  atom 15.7281125583591077 23.5921955568474360 19.9157118286688330 Ba
  atom 19.6601405235501048 23.5921955601294364 19.9157118271748317 Ba
  atom 23.5921684887411054 23.5921955634114369 19.9157118256808303 Ba
  atom 27.5241964539321060 23.5921955666934373 19.9157118241868325 Ba
  atom 0.0000007008771051 27.5242279639984382 19.9157118338098300 Ba
  atom 3.9320286660681059 27.5242279672804386 19.9157118323158322 Ba
  atom 7.8640566312591043 27.5242279705624391 19.9157118308218308 Ba
  atom 11.7960845964501058 27.5242279738444360 19.9157118293278330 Ba
  atom 15.7281125616411082 27.5242279771264364 19.9157118278338316 Ba
  atom 19.6601405268321052 27.5242279804084369 19.9157118263398303 Ba
  atom 23.5921684920231058 27.5242279836904373 19.9157118248458325 Ba
  atom 27.5241964572141065 27.5242279869724378 19.9157118233518311 Ba
  atom 0.0000006764521051 0.0000010212364366 23.8979206884788304 Ba
  atom 3.9320286416431056 0.0000010245184366 23.8979206869848326 Ba
  atom 7.8640566068341053 0.0000010278004366 23.8979206854908313 Ba
  atom 11.7960845720251033 0.0000010310824366 23.8979206839968299 Ba
  atom 15.7281125372161057 0.0000010343644366 23.8979206825028321 Ba
  atom 19.6601405024071063 0.0000010376464366 23.8979206810088307 Ba
  atom 23.5921684675981069 0.0000010409284366 23.8979206795148329 Ba
  atom 27.5241964327891075 0.0000010442104366 23.8979206780208315 Ba
  atom 0.0000006797341051 3.9320334415154363 23.8979206876438326 Ba
  atom 3.9320286449251056 3.9320334447974363 23.8979206861498312 Ba
  atom 7.8640566101161049 3.9320334480794363 23.8979206846558299 Ba
  atom 11.7960845753071037 3.9320334513614363 23.8979206831618320 Ba
  atom 15.7281125404981061 3.9320334546434363 23.8979206816678307 Ba
  atom 19.6601405056891068 3.9320334579254363 23.8979206801738329 Ba
  atom 23.5921684708801074 3.9320334612074364 23.8979206786798315 Ba
  atom 27.5241964360711080 3.9320334644894364 23.8979206771858301 Ba
  atom 0.0000006830161051 7.8640658617944368 23.8979206868088312 Ba
  atom 3.9320286482071056 7.8640658650764363 23.8979206853148298 Ba
  atom 7.8640566133981054 7.8640658683584368 23.8979206838208320 Ba
  atom 11.7960845785891042 7.8640658716404364 23.8979206823268306 Ba
  atom 15.7281125437801066 7.8640658749224368 23.8979206808328328 Ba
  atom 19.6601405089711072 7.8640658782044364 23.8979206793388315 Ba
  atom 23.5921684741621078 7.8640658814864368 23.8979206778448301 Ba
  atom 27.5241964393531084 7.8640658847684364 23.8979206763508323 Ba
  atom 0.0000006862981051 11.7960982820734372 23.8979206859738298 Ba
  atom 3.9320286514891056 11.7960982853554359 23.8979206844798320 Ba
  atom 7.8640566166801049 11.7960982886374364 23.8979206829858306 Ba
  atom 11.7960845818711046 11.7960982919194368 23.8979206814918328 Ba
  atom 15.7281125470621070 11.7960982952014373 23.8979206799978314 Ba
  atom 19.6601405122531077 11.7960982984834359 23.8979206785038301 Ba
  atom 23.5921684774441083 11.7960983017654364 23.8979206770098322 Ba
  atom 27.5241964426351089 11.7960983050474368 23.8979206755158309 Ba
  atom 0.0000006895801051 15.7281307023524359 23.8979206851388319 Ba
  atom 3.9320286547711056 15.7281307056344364 23.8979206836448306 Ba
  atom 7.8640566199621054 15.7281307089164368 23.8979206821508328 Ba
  atom 11.7960845851531033 15.7281307121984373 23.8979206806568314 Ba
  atom 15.7281125503441057 15.7281307154804360 23.8979206791628300 Ba
  atom 19.6601405155351081 15.7281307187624364 23.8979206776688322 Ba
  atom 23.5921684807261087 15.7281307220444369 23.8979206761748308 Ba
  atom 27.5241964459171093 15.7281307253264373 23.8979206746808330 Ba
  atom 0.0000006928621051 19.6601631226314382 23.8979206843038305 Ba
  atom 3.9320286580531056 19.6601631259134386 23.8979206828098327 Ba
  atom 7.8640566232441049 19.6601631291954391 23.8979206813158314 Ba
  atom 11.7960845884351038 19.6601631324774395 23.8979206798218300 Ba
  atom 15.7281125536261062 19.6601631357594400 23.8979206783278322 Ba
  atom 19.6601405188171086 19.6601631390414369 23.8979206768338308 Ba
  atom 23.5921684840081092 19.6601631423234373 23.8979206753398330 Ba
  atom 27.5241964491991098 19.6601631456054378 23.8979206738458316 Ba
  atom 0.0000006961441051 23.5921955429104386 23.8979206834688327 Ba
  atom 3.9320286613351056 23.5921955461924391 23.8979206819748313 Ba
  atom 7.8640566265261054 23.5921955494744395 23.8979206804808300 Ba
  atom 11.7960845917171042 23.5921955527564400 23.8979206789868321 Ba
  atom 15.7281125569081066 23.5921955560384369 23.8979206774928308 Ba
  atom 19.6601405220991055 23.5921955593204373 23.8979206759988330 Ba
  atom 23.5921684872901061 23.5921955626024378 23.8979206745048316 Ba
  atom 27.5241964524811067 23.5921955658844382 23.8979206730108302 Ba
  atom 0.0000006994261051 27.5242279631894391 23.8979206826338313 Ba
  atom 3.9320286646171057 27.5242279664714395 23.8979206811398299 Ba
  atom 7.8640566298081049 27.5242279697534400 23.8979206796458321 Ba
  atom 11.7960845949991047 27.5242279730354369 23.8979206781518307 Ba
  atom 15.7281125601901071 27.5242279763174373 23.8979206766578329 Ba
  atom 19.6601405253811059 27.5242279795994378 23.8979206751638316 Ba
  atom 23.5921684905721065 27.5242279828814382 23.8979206736698302 Ba
  atom 27.5241964557631071 27.5242279861634387 23.8979206721758324 Ba
  atom 0.0000006750011051 0.0000010204274366 27.8801295373028317 Ba
  atom 3.9320286401921059 0.0000010237094366 27.8801295358088304 Ba
  atom 7.8640566053831051 0.0000010269914366 27.8801295343148325 Ba
  atom 11.7960845705741040 0.0000010302734366 27.8801295328208312 Ba
  atom 15.7281125357651064 0.0000010335554366 27.8801295313268298 Ba
  atom 19.6601405009561070 0.0000010368374366 27.8801295298328320 Ba
  atom 23.5921684661471076 0.0000010401194366 27.8801295283388306 Ba
  atom 27.5241964313381082 0.0000010434014366 27.8801295268448328 Ba
  atom 0.0000006782831051 3.9320334407064363 27.8801295364678303 Ba
  atom 3.9320286434741059 3.9320334439884363 27.8801295349738325 Ba
  atom 7.8640566086651047 3.9320334472704364 27.8801295334798311 Ba
  atom 11.7960845738561044 3.9320334505524364 27.8801295319858298 Ba
  atom 15.7281125390471068 3.9320334538344364 27.8801295304918320 Ba
  atom 19.6601405042381074 3.9320334571164364 27.8801295289978306 Ba
  atom 23.5921684694291081 3.9320334603984364 27.8801295275038328 Ba
  atom 27.5241964346201087 3.9320334636804364 27.8801295260098314 Ba
  atom 0.0000006815651051 7.8640658609854368 27.8801295356328325 Ba
  atom 3.9320286467561059 7.8640658642674364 27.8801295341388311 Ba
  atom 7.8640566119471051 7.8640658675494368 27.8801295326448297 Ba
  atom 11.7960845771381049 7.8640658708314364 27.8801295311508319 Ba
  atom 15.7281125423291073 7.8640658741134368 27.8801295296568306 Ba
  atom 19.6601405075201079 7.8640658773954364 27.8801295281628327 Ba
  atom 23.5921684727111085 7.8640658806774368 27.8801295266688314 Ba
  atom 27.5241964379021091 7.8640658839594364 27.8801295251748300 Ba
  atom 0.0000006848471051 11.7960982812644382 27.8801295347978311 Ba
  atom 3.9320286500381059 11.7960982845464368 27.8801295333038297 Ba
  atom 7.8640566152291047 11.7960982878284373 27.8801295318098319 Ba
  atom 11.7960845804201053 11.7960982911104377 27.8801295303158305 Ba
  atom 15.7281125456111077 11.7960982943924382 27.8801295288218327 Ba
  atom 19.6601405108021083 11.7960982976744369 27.8801295273278313 Ba
  atom 23.5921684759931090 11.7960983009564373 27.8801295258338300 Ba
  atom 27.5241964411841096 11.7960983042384377 27.8801295243398322 Ba
  atom 0.0000006881291051 15.7281307015434368 27.8801295339628297 Ba
  atom 3.9320286533201059 15.7281307048254373 27.8801295324688319 Ba
  atom 7.8640566185111052 15.7281307081074377 27.8801295309748305 Ba
  atom 11.7960845837021040 15.7281307113894382 27.8801295294808327 Ba
  atom 15.7281125488931064 15.7281307146714369 27.8801295279868313 Ba
  atom 19.6601405140841088 15.7281307179534373 27.8801295264928299 Ba
  atom 23.5921684792751094 15.7281307212354378 27.8801295249988321 Ba
  atom 27.5241964444661100 15.7281307245174382 27.8801295235048308 Ba
  atom 0.0000006914111051 19.6601631218224355 27.8801295331278318 Ba
  atom 3.9320286566021059 19.6601631251044360 27.8801295316338305 Ba
  atom 7.8640566217931047 19.6601631283864364 27.8801295301398326 Ba
  atom 11.7960845869841044 19.6601631316684369 27.8801295286458313 Ba
  atom 15.7281125521751068 19.6601631349504373 27.8801295271518299 Ba
  atom 19.6601405173661092 19.6601631382324342 27.8801295256578321 Ba
  atom 23.5921684825571099 19.6601631415144347 27.8801295241638307 Ba
  atom 27.5241964477481105 19.6601631447964351 27.8801295226698329 Ba
  atom 0.0000006946931051 23.5921955421014360 27.8801295322928304 Ba
  atom 3.9320286598841059 23.5921955453834364 27.8801295307988326 Ba
  atom 7.8640566250751052 23.5921955486654369 27.8801295293048312 Ba
  atom 11.7960845902661049 23.5921955519474373 27.8801295278108299 Ba
  atom 15.7281125554571073 23.5921955552294342 27.8801295263168321 Ba
  atom 19.6601405206481061 23.5921955585114347 27.8801295248228307 Ba
  atom 23.5921684858391068 23.5921955617934351 27.8801295233288329 Ba
  atom 27.5241964510301074 23.5921955650754356 27.8801295218348315 Ba
  atom 0.0000006979751051 27.5242279623804365 27.8801295314578326 Ba
  atom 3.9320286631661059 27.5242279656624369 27.8801295299638312 Ba
  atom 7.8640566283571047 27.5242279689444374 27.8801295284698298 Ba
  atom 11.7960845935481053 27.5242279722264342 27.8801295269758320 Ba
  atom 15.7281125587391077 27.5242279755084347 27.8801295254818307 Ba
  atom 19.6601405239301066 27.5242279787904351 27.8801295239878328 Ba
  atom 23.5921684891211072 27.5242279820724356 27.8801295224938315 Ba
  atom 27.5241964543121078 27.5242279853544360 27.8801295209998301 Ba
  atom 1.9660138165955494 31.4562589878454446 2.0488160531267825 O
  atom 5.8980417817865503 31.4562589911274451 2.0488160516327829 O
  atom 9.8300697469775500 31.4562589944094455 2.0488160501387829 O
  atom 13.7620977121685506 31.4562589976914424 2.0488160486447828 O
  atom 17.6941256773595512 31.4562590009734429 2.0488160471507828 O
  atom 21.6261536425505518 31.4562590042554433 2.0488160456567828 O
  atom 25.5581816077415525 31.4562590075374438 2.0488160441627827 O
  atom 29.4902095729325495 31.4562590108194442 2.0488160426687827 O
  atom 1.9660137936215496 3.9320320458924467 2.0488160589717825 O
  atom 5.8980417588125498 3.9320320491744467 2.0488160574777825 O
  atom 9.8300697240035504 3.9320320524564467 2.0488160559837829 O
  atom 13.7620976891945510 3.9320320557384463 2.0488160544897829 O
  atom 17.6941256543855516 3.9320320590204463 2.0488160529957828 O
  atom 21.6261536195765522 3.9320320623024463 2.0488160515017828 O
  atom 25.5581815847675529 3.9320320655844463 2.0488160500077828 O
  atom 29.4902095499585499 3.9320320688664463 2.0488160485137827 O
  atom 1.9660137969035496 7.8640644661714463 2.0488160581367829 O
  atom 5.8980417620945502 7.8640644694534467 2.0488160566427829 O
  atom 9.8300697272855491 7.8640644727354463 2.0488160551487828 O
  atom 13.7620976924765497 7.8640644760174467 2.0488160536547828 O
  atom 17.6941256576675521 7.8640644792994463 2.0488160521607828 O
  atom 21.6261536228585527 7.8640644825814467 2.0488160506667827 O
  atom 25.5581815880495533 7.8640644858634463 2.0488160491727827 O
  atom 29.4902095532405504 7.8640644891454468 2.0488160476787827 O
  atom 1.9660138001855496 11.7960968864504476 2.0488160573017828 O
  atom 5.8980417653765498 11.7960968897324481 2.0488160558077828 O
  atom 9.8300697305675495 11.7960968930144467 2.0488160543137828 O
  atom 13.7620976957585501 11.7960968962964472 2.0488160528197827 O
  atom 17.6941256609495525 11.7960968995784476 2.0488160513257827 O
  atom 21.6261536261405531 11.7960969028604481 2.0488160498317827 O
  atom 25.5581815913315538 11.7960969061424468 2.0488160483377826 O
  atom 29.4902095565225508 11.7960969094244472 2.0488160468437826 O
  atom 1.9660138034675494 15.7281293067294481 2.0488160564667828 O
  atom 5.8980417686585502 15.7281293100114468 2.0488160549727827 O
  atom 9.8300697338495500 15.7281293132934472 2.0488160534787827 O
  atom 13.7620976990405506 15.7281293165754477 2.0488160519847827 O
  atom 17.6941256642315494 15.7281293198574481 2.0488160504907826 O
  atom 21.6261536294225500 15.7281293231394468 2.0488160489967826 O
  atom 25.5581815946135507 15.7281293264214472 2.0488160475027826 O
  atom 29.4902095598045477 15.7281293297034477 2.0488160460087825 O
  atom 1.9660138067495494 19.6601617270084432 2.0488160556317827 O
  atom 5.8980417719405498 19.6601617302904437 2.0488160541377827 O
  atom 9.8300697371315504 19.6601617335724441 2.0488160526437826 O
  atom 13.7620977023225510 19.6601617368544446 2.0488160511497826 O
  atom 17.6941256675135499 19.6601617401364450 2.0488160496557826 O
  atom 21.6261536327045505 19.6601617434184455 2.0488160481617825 O
  atom 25.5581815978955511 19.6601617467004424 2.0488160466677825 O
  atom 29.4902095630865482 19.6601617499824428 2.0488160451737829 O
  atom 1.9660138100315494 23.5921941472874437 2.0488160547967826 O
  atom 5.8980417752225502 23.5921941505694441 2.0488160533027826 O
  atom 9.8300697404135491 23.5921941538514446 2.0488160518087826 O
  atom 13.7620977056045497 23.5921941571334450 2.0488160503147825 O
  atom 17.6941256707955503 23.5921941604154455 2.0488160488207825 O
  atom 21.6261536359865509 23.5921941636974424 2.0488160473267829 O
  atom 25.5581816011775516 23.5921941669794428 2.0488160458327829 O
  atom 29.4902095663685486 23.5921941702614433 2.0488160443387828 O
  atom 1.9660138133135494 27.5242265675664441 2.0488160539617826 O
  atom 5.8980417785045498 27.5242265708484446 2.0488160524677825 O
  atom 9.8300697436955495 27.5242265741304450 2.0488160509737825 O
  atom 13.7620977088865502 27.5242265774124455 2.0488160494797829 O
  atom 17.6941256740775508 27.5242265806944424 2.0488160479857829 O
  atom 21.6261536392685514 27.5242265839764428 2.0488160464917828 O
  atom 25.5581816044595520 27.5242265872584433 2.0488160449977828 O
  atom 29.4902095696505491 27.5242265905404437 2.0488160435037828 O
  atom 1.9660138151445494 31.4562589870364455 6.0310249019507829 O
  atom 5.8980417803355500 31.4562589903184460 6.0310249004567824 O
  atom 9.8300697455265489 31.4562589936004464 6.0310248989627828 O
  atom 13.7620977107175495 31.4562589968824433 6.0310248974687823 O
  atom 17.6941256759085519 31.4562590001644438 6.0310248959747828 O
  atom 21.6261536410995525 31.4562590034464442 6.0310248944807823 O
  atom 25.5581816062905531 31.4562590067284447 6.0310248929867827 O
  atom 29.4902095714815502 31.4562590100104451 6.0310248914927831 O
  atom 1.9660137921705496 3.9320320450834467 6.0310249077957829 O
  atom 5.8980417573615496 3.9320320483654467 6.0310249063017825 O
  atom 9.8300697225525493 3.9320320516474467 6.0310249048077829 O
  atom 13.7620976877435499 3.9320320549294463 6.0310249033137824 O
  atom 17.6941256529345523 3.9320320582114463 6.0310249018197828 O
  atom 21.6261536181255529 3.9320320614934463 6.0310249003257823 O
  atom 25.5581815833165535 3.9320320647754463 6.0310248988317827 O
  atom 29.4902095485075506 3.9320320680574463 6.0310248973377822 O
  atom 1.9660137954525496 7.8640644653624463 6.0310249069607824 O
  atom 5.8980417606435500 7.8640644686444467 6.0310249054667828 O
  atom 9.8300697258345480 7.8640644719264463 6.0310249039727823 O
  atom 13.7620976910255486 7.8640644752084468 6.0310249024787828 O
  atom 17.6941256562165528 7.8640644784904463 6.0310249009847823 O
  atom 21.6261536214075534 7.8640644817724468 6.0310248994907827 O
  atom 25.5581815865985540 7.8640644850544463 6.0310248979967831 O
  atom 29.4902095517895511 7.8640644883364468 6.0310248965027826 O
  atom 1.9660137987345496 11.7960968856414468 6.0310249061257828 O
  atom 5.8980417639255496 11.7960968889234472 6.0310249046317823 O
  atom 9.8300697291165484 11.7960968922054459 6.0310249031377827 O
  atom 13.7620976943075490 11.7960968954874463 6.0310249016437822 O
  atom 17.6941256594985532 11.7960968987694468 6.0310249001497827 O
  atom 21.6261536246895538 11.7960969020514472 6.0310248986557831 O
  atom 25.5581815898805544 11.7960969053334459 6.0310248971617826 O
  atom 29.4902095550715515 11.7960969086154464 6.0310248956677830 O
  atom 1.9660138020165494 15.7281293059204472 6.0310249052907823 O
  atom 5.8980417672075500 15.7281293092024459 6.0310249037967827 O
  atom 9.8300697323985489 15.7281293124844463 6.0310249023027831 O
  atom 13.7620976975895495 15.7281293157664468 6.0310249008087826 O
  atom 17.6941256627805501 15.7281293190484472 6.0310248993147830 O
  atom 21.6261536279715507 15.7281293223304459 6.0310248978207825 O
  atom 25.5581815931625513 15.7281293256124464 6.0310248963267830 O
  atom 29.4902095583535484 15.7281293288944468 6.0310248948327825 O
  atom 1.9660138052985494 19.6601617261994441 6.0310249044557827 O
  atom 5.8980417704895496 19.6601617294814446 6.0310249029617831 O
  atom 9.8300697356805493 19.6601617327634450 6.0310249014677826 O
  atom 13.7620977008715499 19.6601617360454455 6.0310248999737830 O
  atom 17.6941256660625506 19.6601617393274459 6.0310248984797825 O
  atom 21.6261536312535512 19.6601617426094464 6.0310248969857829 O
  atom 25.5581815964445518 19.6601617458914433 6.0310248954917824 O
  atom 29.4902095616355489 19.6601617491734437 6.0310248939977829 O
  atom 1.9660138085805494 23.5921941464784446 6.0310249036207830 O
  atom 5.8980417737715500 23.5921941497604450 6.0310249021267825 O
  atom 9.8300697389625480 23.5921941530424455 6.0310249006327830 O
  atom 13.7620977041535486 23.5921941563244459 6.0310248991387825 O
  atom 17.6941256693445510 23.5921941596064464 6.0310248976447829 O
  atom 21.6261536345355516 23.5921941628884433 6.0310248961507824 O
  atom 25.5581815997265522 23.5921941661704437 6.0310248946567828 O
  atom 29.4902095649175493 23.5921941694524442 6.0310248931627823 O
  atom 1.9660138118625494 27.5242265667574451 6.0310249027857825 O
  atom 5.8980417770535496 27.5242265700394455 6.0310249012917829 O
  atom 9.8300697422445484 27.5242265733214460 6.0310248997977824 O
  atom 13.7620977074355491 27.5242265766034464 6.0310248983037829 O
  atom 17.6941256726265514 27.5242265798854433 6.0310248968097824 O
  atom 21.6261536378175521 27.5242265831674437 6.0310248953157828 O
  atom 25.5581816030085527 27.5242265864494442 6.0310248938217823 O
  atom 29.4902095681995498 27.5242265897314446 6.0310248923277827 O
  atom 1.9660138136935494 31.4562589862274464 10.0132337507747842 O
  atom 5.8980417788845498 31.4562589895094469 10.0132337492807828 O
  atom 9.8300697440755496 31.4562589927914473 10.0132337477867832 O
  atom 13.7620977092665502 31.4562589960734442 10.0132337462927836 O
  atom 17.6941256744575526 31.4562589993554447 10.0132337447987840 O
  atom 21.6261536396485532 31.4562590026374451 10.0132337433047827 O
  atom 25.5581816048395538 31.4562590059194456 10.0132337418107831 O
  atom 29.4902095700305509 31.4562590092014460 10.0132337403167835 O
  atom 1.9660137907195496 3.9320320442744467 10.0132337566197833 O
  atom 5.8980417559105494 3.9320320475564468 10.0132337551257837 O
  atom 9.8300697211015500 3.9320320508384468 10.0132337536317841 O
  atom 13.7620976862925506 3.9320320541204463 10.0132337521377828 O
  atom 17.6941256514835530 3.9320320574024463 10.0132337506437832 O
  atom 21.6261536166745536 3.9320320606844463 10.0132337491497836 O
  atom 25.5581815818655542 3.9320320639664463 10.0132337476557840 O
  atom 29.4902095470565513 3.9320320672484463 10.0132337461617826 O
  atom 1.9660137940015496 7.8640644645534463 10.0132337557847837 O
  atom 5.8980417591925498 7.8640644678354468 10.0132337542907841 O
  atom 9.8300697243835486 7.8640644711174463 10.0132337527967827 O
  atom 13.7620976895745493 7.8640644743994468 10.0132337513027831 O
  atom 17.6941256547655534 7.8640644776814463 10.0132337498087836 O
  atom 21.6261536199565541 7.8640644809634468 10.0132337483147840 O
  atom 25.5581815851475547 7.8640644842454464 10.0132337468207826 O
  atom 29.4902095503385517 7.8640644875274468 10.0132337453267830 O
  atom 1.9660137972835496 11.7960968848324477 10.0132337549497841 O
  atom 5.8980417624745494 11.7960968881144481 10.0132337534557827 O
  atom 9.8300697276655491 11.7960968913964468 10.0132337519617831 O
  atom 13.7620976928565497 11.7960968946784472 10.0132337504677835 O
  atom 17.6941256580475539 11.7960968979604477 10.0132337489737839 O
  atom 21.6261536232385545 11.7960969012424481 10.0132337474797843 O
  atom 25.5581815884295551 11.7960969045244468 10.0132337459857830 O
  atom 29.4902095536205522 11.7960969078064473 10.0132337444917834 O
  atom 1.9660138005655494 15.7281293051114481 10.0132337541147827 O
  atom 5.8980417657565498 15.7281293083934468 10.0132337526207831 O
  atom 9.8300697309475495 15.7281293116754473 10.0132337511267835 O
  atom 13.7620976961385502 15.7281293149574477 10.0132337496327839 O
  atom 17.6941256613295508 15.7281293182394482 10.0132337481387843 O
  atom 21.6261536265205514 15.7281293215214468 10.0132337466447829 O
  atom 25.5581815917115520 15.7281293248034473 10.0132337451507833 O
  atom 29.4902095569025491 15.7281293280854477 10.0132337436567838 O
  atom 1.9660138038475494 19.6601617253904450 10.0132337532797830 O
  atom 5.8980417690385494 19.6601617286724455 10.0132337517857835 O
  atom 9.8300697342295500 19.6601617319544459 10.0132337502917839 O
  atom 13.7620976994205506 19.6601617352364464 10.0132337487977843 O
  atom 17.6941256646115512 19.6601617385184468 10.0132337473037829 O
  atom 21.6261536298025518 19.6601617418004473 10.0132337458097833 O
  atom 25.5581815949935525 19.6601617450824442 10.0132337443157837 O
  atom 29.4902095601845495 19.6601617483644446 10.0132337428217841 O
  atom 1.9660138071295494 23.5921941456694455 10.0132337524447834 O
  atom 5.8980417723205498 23.5921941489514460 10.0132337509507838 O
  atom 9.8300697375115487 23.5921941522334464 10.0132337494567842 O
  atom 13.7620977027025493 23.5921941555154469 10.0132337479627829 O
  atom 17.6941256678935517 23.5921941587974473 10.0132337464687833 O
  atom 21.6261536330845523 23.5921941620794442 10.0132337449747837 O
  atom 25.5581815982755529 23.5921941653614446 10.0132337434807841 O
  atom 29.4902095634665500 23.5921941686434451 10.0132337419867827 O
  atom 1.9660138104115494 27.5242265659484460 10.0132337516097838 O
  atom 5.8980417756025494 27.5242265692304464 10.0132337501157842 O
  atom 9.8300697407935491 27.5242265725124469 10.0132337486217828 O
  atom 13.7620977059845497 27.5242265757944473 10.0132337471277832 O
  atom 17.6941256711755521 27.5242265790764442 10.0132337456337837 O
  atom 21.6261536363665527 27.5242265823584447 10.0132337441397841 O
  atom 25.5581816015575534 27.5242265856404451 10.0132337426457827 O
  atom 29.4902095667485504 27.5242265889224456 10.0132337411517831 O
  atom 1.9660138122425495 31.4562589854184438 13.9954425995987837 O
  atom 5.8980417774335496 31.4562589887004442 13.9954425981047841 O
  atom 9.8300697426245502 31.4562589919824447 13.9954425966107827 O
  atom 13.7620977078155509 31.4562589952644416 13.9954425951167831 O
  atom 17.6941256730065497 31.4562589985464420 13.9954425936227835 O
  atom 21.6261536381975503 31.4562590018284425 13.9954425921287839 O
  atom 25.5581816033885509 31.4562590051104429 13.9954425906347826 O
  atom 29.4902095685795480 31.4562590083924434 13.9954425891407830 O
  atom 1.9660137892685496 3.9320320434654468 13.9954426054437828 O
  atom 5.8980417544595491 3.9320320467474468 13.9954426039497832 O
  atom 9.8300697196505507 3.9320320500294468 13.9954426024557836 O
  atom 13.7620976848415513 3.9320320533114463 13.9954426009617841 O
  atom 17.6941256500325501 3.9320320565934463 13.9954425994677827 O
  atom 21.6261536152235507 3.9320320598754464 13.9954425979737831 O
  atom 25.5581815804145513 3.9320320631574464 13.9954425964797835 O
  atom 29.4902095456055484 3.9320320664394464 13.9954425949857839 O
  atom 1.9660137925505496 7.8640644637444463 13.9954426046087832 O
  atom 5.8980417577415496 7.8640644670264468 13.9954426031147836 O
  atom 9.8300697229325493 7.8640644703084464 13.9954426016207840 O
  atom 13.7620976881235499 7.8640644735904468 13.9954426001267827 O
  atom 17.6941256533145506 7.8640644768724464 13.9954425986327831 O
  atom 21.6261536185055512 7.8640644801544468 13.9954425971387835 O
  atom 25.5581815836965518 7.8640644834364464 13.9954425956447839 O
  atom 29.4902095488875489 7.8640644867184468 13.9954425941507843 O
  atom 1.9660137958325496 11.7960968840234468 13.9954426037737836 O
  atom 5.8980417610235492 11.7960968873054473 13.9954426022797840 O
  atom 9.8300697262145498 11.7960968905874459 13.9954426007857826 O
  atom 13.7620976914055504 11.7960968938694464 13.9954425992917830 O
  atom 17.6941256565965510 11.7960968971514468 13.9954425977977834 O
  atom 21.6261536217875516 11.7960969004334473 13.9954425963037838 O
  atom 25.5581815869785522 11.7960969037154459 13.9954425948097843 O
  atom 29.4902095521695493 11.7960969069974464 13.9954425933157829 O
  atom 1.9660137991145494 15.7281293043024473 13.9954426029387839 O
  atom 5.8980417643055496 15.7281293075844459 13.9954426014447826 O
  atom 9.8300697294965502 15.7281293108664464 13.9954425999507830 O
  atom 13.7620976946875508 15.7281293141484468 13.9954425984567834 O
  atom 17.6941256598785479 15.7281293174304473 13.9954425969627838 O
  atom 21.6261536250695485 15.7281293207124460 13.9954425954687842 O
  atom 25.5581815902605491 15.7281293239944464 13.9954425939747829 O
  atom 29.4902095554515462 15.7281293272764469 13.9954425924807833 O
  atom 1.9660138023965494 19.6601617245814424 13.9954426021037825 O
  atom 5.8980417675875492 19.6601617278634428 13.9954426006097830 O
  atom 9.8300697327785507 19.6601617311454433 13.9954425991157834 O
  atom 13.7620976979695513 19.6601617344274437 13.9954425976217838 O
  atom 17.6941256631605484 19.6601617377094442 13.9954425961277842 O
  atom 21.6261536283515490 19.6601617409914446 13.9954425946337828 O
  atom 25.5581815935425496 19.6601617442734415 13.9954425931397832 O
  atom 29.4902095587335467 19.6601617475554420 13.9954425916457836 O
  atom 1.9660138056785494 23.5921941448604429 13.9954426012687829 O
  atom 5.8980417708695496 23.5921941481424433 13.9954425997747833 O
  atom 9.8300697360605493 23.5921941514244438 13.9954425982807837 O
  atom 13.7620977012515500 23.5921941547064442 13.9954425967867842 O
  atom 17.6941256664425488 23.5921941579884447 13.9954425952927828 O
  atom 21.6261536316335494 23.5921941612704416 13.9954425937987832 O
  atom 25.5581815968245500 23.5921941645524420 13.9954425923047836 O
  atom 29.4902095620155471 23.5921941678344425 13.9954425908107840 O
  atom 1.9660138089605494 27.5242265651394433 13.9954426004337833 O
  atom 5.8980417741515492 27.5242265684214438 13.9954425989397837 O
  atom 9.8300697393425498 27.5242265717034442 13.9954425974457841 O
  atom 13.7620977045335504 27.5242265749854447 13.9954425959517827 O
  atom 17.6941256697245493 27.5242265782674416 13.9954425944577832 O
  atom 21.6261536349155499 27.5242265815494420 13.9954425929637836 O
  atom 25.5581816001065505 27.5242265848314425 13.9954425914697840 O
  atom 29.4902095652975476 27.5242265881134429 13.9954425899757826 O
  atom 1.9660138107915495 31.4562589846094447 17.9776514484227832 O
  atom 5.8980417759825503 31.4562589878914451 17.9776514469287818 O
  atom 9.8300697411735491 31.4562589911734456 17.9776514454347840 O
  atom 13.7620977063645498 31.4562589944554425 17.9776514439407826 O
  atom 17.6941256715555504 31.4562589977374429 17.9776514424467848 O
  atom 21.6261536367465510 31.4562590010194434 17.9776514409527834 O
  atom 25.5581816019375516 31.4562590043014438 17.9776514394587821 O
  atom 29.4902095671285487 31.4562590075834443 17.9776514379647843 O
  atom 1.9660137878175497 3.9320320426564468 17.9776514542677823 O
  atom 5.8980417530085498 3.9320320459384468 17.9776514527737845 O
  atom 9.8300697181995496 3.9320320492204468 17.9776514512797831 O
  atom 13.7620976833905502 3.9320320525024464 17.9776514497857818 O
  atom 17.6941256485815508 3.9320320557844464 17.9776514482917840 O
  atom 21.6261536137725514 3.9320320590664464 17.9776514467977826 O
  atom 25.5581815789635520 3.9320320623484464 17.9776514453037848 O
  atom 29.4902095441545491 3.9320320656304464 17.9776514438097834 O
  atom 1.9660137910995497 7.8640644629354464 17.9776514534327845 O
  atom 5.8980417562905503 7.8640644662174468 17.9776514519387831 O
  atom 9.8300697214815482 7.8640644694994464 17.9776514504447817 O
  atom 13.7620976866725488 7.8640644727814468 17.9776514489507839 O
  atom 17.6941256518635512 7.8640644760634464 17.9776514474567826 O
  atom 21.6261536170545519 7.8640644793454468 17.9776514459627847 O
  atom 25.5581815822455525 7.8640644826274464 17.9776514444687834 O
  atom 29.4902095474365495 7.8640644859094468 17.9776514429747820 O
  atom 1.9660137943815497 11.7960968832144459 17.9776514525977831 O
  atom 5.8980417595725498 11.7960968864964464 17.9776514511037817 O
  atom 9.8300697247635487 11.7960968897784451 17.9776514496097839 O
  atom 13.7620976899545493 11.7960968930604455 17.9776514481157825 O
  atom 17.6941256551455517 11.7960968963424460 17.9776514466217847 O
  atom 21.6261536203365523 11.7960968996244464 17.9776514451277833 O
  atom 25.5581815855275529 11.7960969029064451 17.9776514436337820 O
  atom 29.4902095507185500 11.7960969061884455 17.9776514421397842 O
  atom 1.9660137976635494 15.7281293034934464 17.9776514517627817 O
  atom 5.8980417628545503 15.7281293067754451 17.9776514502687839 O
  atom 9.8300697280455491 15.7281293100574455 17.9776514487747825 O
  atom 13.7620976932365497 15.7281293133394460 17.9776514472807847 O
  atom 17.6941256584275486 15.7281293166214464 17.9776514457867833 O
  atom 21.6261536236185492 15.7281293199034451 17.9776514442927819 O
  atom 25.5581815888095498 15.7281293231854455 17.9776514427987841 O
  atom 29.4902095540005469 15.7281293264674460 17.9776514413047828 O
  atom 1.9660138009455495 19.6601617237724433 17.9776514509277838 O
  atom 5.8980417661365498 19.6601617270544438 17.9776514494337825 O
  atom 9.8300697313275496 19.6601617303364442 17.9776514479397846 O
  atom 13.7620976965185502 19.6601617336184447 17.9776514464457833 O
  atom 17.6941256617095490 19.6601617369004451 17.9776514449517819 O
  atom 21.6261536269005497 19.6601617401824456 17.9776514434577841 O
  atom 25.5581815920915503 19.6601617434644425 17.9776514419637827 O
  atom 29.4902095572825473 19.6601617467464429 17.9776514404697849 O
  atom 1.9660138042275495 23.5921941440514438 17.9776514500927824 O
  atom 5.8980417694185503 23.5921941473334442 17.9776514485987846 O
  atom 9.8300697346095482 23.5921941506154447 17.9776514471047832 O
  atom 13.7620976998005489 23.5921941538974451 17.9776514456107819 O
  atom 17.6941256649915495 23.5921941571794456 17.9776514441167841 O
  atom 21.6261536301825501 23.5921941604614425 17.9776514426227827 O
  atom 25.5581815953735507 23.5921941637434429 17.9776514411287849 O
  atom 29.4902095605645478 23.5921941670254434 17.9776514396347835 O
  atom 1.9660138075095495 27.5242265643304442 17.9776514492577846 O
  atom 5.8980417727005499 27.5242265676124447 17.9776514477637832 O
  atom 9.8300697378915487 27.5242265708944451 17.9776514462697818 O
  atom 13.7620977030825493 27.5242265741764456 17.9776514447757840 O
  atom 17.6941256682735499 27.5242265774584425 17.9776514432817827 O
  atom 21.6261536334645506 27.5242265807404429 17.9776514417877848 O
  atom 25.5581815986555512 27.5242265840224434 17.9776514402937835 O
  atom 29.4902095638465482 27.5242265873044438 17.9776514387997821 O
  atom 1.9660138093405495 31.4562589838004456 21.9598602972467845 O
  atom 5.8980417745315501 31.4562589870824461 21.9598602957527831 O
  atom 9.8300697397225498 31.4562589903644465 21.9598602942587817 O
  atom 13.7620977049135504 31.4562589936464434 21.9598602927647839 O
  atom 17.6941256701045511 31.4562589969284438 21.9598602912707825 O
  atom 21.6261536352955517 31.4562590002104443 21.9598602897767847 O
  atom 25.5581816004865523 31.4562590034924447 21.9598602882827834 O
  atom 29.4902095656775494 31.4562590067744452 21.9598602867887820 O
  atom 1.9660137863665497 3.9320320418474468 21.9598603030917836 O
  atom 5.8980417515575496 3.9320320451294468 21.9598603015977822 O
  atom 9.8300697167485502 3.9320320484114468 21.9598603001037844 O
  atom 13.7620976819395509 3.9320320516934464 21.9598602986097831 O
  atom 17.6941256471305515 3.9320320549754464 21.9598602971157817 O
  atom 21.6261536123215521 3.9320320582574464 21.9598602956217839 O
  atom 25.5581815775125527 3.9320320615394464 21.9598602941277825 O
  atom 29.4902095427035498 3.9320320648214464 21.9598602926337847 O
  atom 1.9660137896485497 7.8640644621264464 21.9598603022567822 O
  atom 5.8980417548395501 7.8640644654084468 21.9598603007627844 O
  atom 9.8300697200305489 7.8640644686904464 21.9598602992687830 O
  atom 13.7620976852215495 7.8640644719724468 21.9598602977747817 O
  atom 17.6941256504125519 7.8640644752544464 21.9598602962807838 O
  atom 21.6261536156035525 7.8640644785364469 21.9598602947867825 O
  atom 25.5581815807945532 7.8640644818184464 21.9598602932927847 O
  atom 29.4902095459855502 7.8640644851004469 21.9598602917987833 O
  atom 1.9660137929305497 11.7960968824054468 21.9598603014217844 O
  atom 5.8980417581215496 11.7960968856874473 21.9598602999277830 O
  atom 9.8300697233125494 11.7960968889694460 21.9598602984337816 O
  atom 13.7620976885035500 11.7960968922514464 21.9598602969397838 O
  atom 17.6941256536945524 11.7960968955334469 21.9598602954457824 O
  atom 21.6261536188855530 11.7960968988154473 21.9598602939517846 O
  atom 25.5581815840765536 11.7960969020974460 21.9598602924577833 O
  atom 29.4902095492675507 11.7960969053794464 21.9598602909637819 O
  atom 1.9660137962125495 15.7281293026844473 21.9598603005867830 O
  atom 5.8980417614035501 15.7281293059664460 21.9598602990927816 O
  atom 9.8300697265945498 15.7281293092484464 21.9598602975987838 O
  atom 13.7620976917855504 15.7281293125304469 21.9598602961047824 O
  atom 17.6941256569765493 15.7281293158124473 21.9598602946107846 O
  atom 21.6261536221675499 15.7281293190944460 21.9598602931167832 O
  atom 25.5581815873585505 15.7281293223764465 21.9598602916227819 O
  atom 29.4902095525495476 15.7281293256584469 21.9598602901287840 O
  atom 1.9660137994945495 19.6601617229634442 21.9598602997517816 O
  atom 5.8980417646855496 19.6601617262454447 21.9598602982577837 O
  atom 9.8300697298765503 19.6601617295274451 21.9598602967637824 O
  atom 13.7620976950675509 19.6601617328094456 21.9598602952697846 O
  atom 17.6941256602585497 19.6601617360914460 21.9598602937757832 O
  atom 21.6261536254495503 19.6601617393734465 21.9598602922817818 O
  atom 25.5581815906405510 19.6601617426554434 21.9598602907877840 O
  atom 29.4902095558315480 19.6601617459374438 21.9598602892937826 O
  atom 1.9660138027765495 23.5921941432424447 21.9598602989167837 O
  atom 5.8980417679675501 23.5921941465244451 21.9598602974227823 O
  atom 9.8300697331585489 23.5921941498064456 21.9598602959287845 O
  atom 13.7620976983495495 23.5921941530884460 21.9598602944347832 O
  atom 17.6941256635405502 23.5921941563704465 21.9598602929407818 O
  atom 21.6261536287315508 23.5921941596524434 21.9598602914467840 O
  atom 25.5581815939225514 23.5921941629344438 21.9598602899527826 O
  atom 29.4902095591135485 23.5921941662164443 21.9598602884587848 O
  atom 1.9660138060585495 27.5242265635214451 21.9598602980817823 O
  atom 5.8980417712495496 27.5242265668034456 21.9598602965877845 O
  atom 9.8300697364405494 27.5242265700854460 21.9598602950937831 O
  atom 13.7620977016315500 27.5242265733674465 21.9598602935997818 O
  atom 17.6941256668225506 27.5242265766494434 21.9598602921057839 O
  atom 21.6261536320135512 27.5242265799314438 21.9598602906117826 O
  atom 25.5581815972045518 27.5242265832134443 21.9598602891177848 O
  atom 29.4902095623955489 27.5242265864954447 21.9598602876237834 O
  atom 1.9660138078895495 31.4562589829914465 25.9420691460707822 O
  atom 5.8980417730805499 31.4562589862734470 25.9420691445767844 O
  atom 9.8300697382715505 31.4562589895554474 25.9420691430827830 O
  atom 13.7620977034625511 31.4562589928374443 25.9420691415887816 O
  atom 17.6941256686535517 31.4562589961194448 25.9420691400947838 O
  atom 21.6261536338445524 31.4562589994014452 25.9420691386007825 O
  atom 25.5581815990355530 31.4562590026834457 25.9420691371067846 O
  atom 29.4902095642265500 31.4562590059654461 25.9420691356127833 O
  atom 1.9660137849155497 3.9320320410384468 25.9420691519157849 O
  atom 5.8980417501065494 3.9320320443204468 25.9420691504217835 O
  atom 9.8300697152975509 3.9320320476024468 25.9420691489277822 O
  atom 13.7620976804885515 3.9320320508844464 25.9420691474337843 O
  atom 17.6941256456795522 3.9320320541664464 25.9420691459397830 O
  atom 21.6261536108705528 3.9320320574484464 25.9420691444457816 O
  atom 25.5581815760615534 3.9320320607304464 25.9420691429517838 O
  atom 29.4902095412525505 3.9320320640124464 25.9420691414577824 O
  atom 1.9660137881975497 7.8640644613174464 25.9420691510807835 O
  atom 5.8980417533885499 7.8640644645994469 25.9420691495867821 O
  atom 9.8300697185795496 7.8640644678814464 25.9420691480927843 O
  atom 13.7620976837705502 7.8640644711634469 25.9420691465987829 O
  atom 17.6941256489615526 7.8640644744454464 25.9420691451047816 O
  atom 21.6261536141525532 7.8640644777274469 25.9420691436107838 O
  atom 25.5581815793435538 7.8640644810094464 25.9420691421167824 O
  atom 29.4902095445345509 7.8640644842914469 25.9420691406227846 O
  atom 1.9660137914795497 11.7960968815964460 25.9420691502457821 O
  atom 5.8980417566705494 11.7960968848784464 25.9420691487517843 O
  atom 9.8300697218615500 11.7960968881604451 25.9420691472577829 O
  atom 13.7620976870525507 11.7960968914424456 25.9420691457637815 O
  atom 17.6941256522435530 11.7960968947244460 25.9420691442697837 O
  atom 21.6261536174345537 11.7960968980064465 25.9420691427757824 O
  atom 25.5581815826255543 11.7960969012884451 25.9420691412817845 O
  atom 29.4902095478165513 11.7960969045704456 25.9420691397877832 O
  atom 1.9660137947615495 15.7281293018754464 25.9420691494107842 O
  atom 5.8980417599525499 15.7281293051574451 25.9420691479167829 O
  atom 9.8300697251435505 15.7281293084394456 25.9420691464227815 O
  atom 13.7620976903345511 15.7281293117214460 25.9420691449287837 O
  atom 17.6941256555255499 15.7281293150034465 25.9420691434347823 O
  atom 21.6261536207165506 15.7281293182854451 25.9420691419407845 O
  atom 25.5581815859075512 15.7281293215674456 25.9420691404467831 O
  atom 29.4902095510985482 15.7281293248494460 25.9420691389527818 O
  atom 1.9660137980435495 19.6601617221544451 25.9420691485757828 O
  atom 5.8980417632345494 19.6601617254364456 25.9420691470817850 O
  atom 9.8300697284255509 19.6601617287184460 25.9420691455877837 O
  atom 13.7620976936165516 19.6601617320004465 25.9420691440937823 O
  atom 17.6941256588075504 19.6601617352824469 25.9420691425997845 O
  atom 21.6261536239985510 19.6601617385644474 25.9420691411057831 O
  atom 25.5581815891895516 19.6601617418464443 25.9420691396117817 O
  atom 29.4902095543805487 19.6601617451284447 25.9420691381177839 O
  atom 1.9660138013255495 23.5921941424334456 25.9420691477407850 O
  atom 5.8980417665165499 23.5921941457154460 25.9420691462467836 O
  atom 9.8300697317075496 23.5921941489974465 25.9420691447527823 O
  atom 13.7620976968985502 23.5921941522794469 25.9420691432587844 O
  atom 17.6941256620895508 23.5921941555614474 25.9420691417647831 O
  atom 21.6261536272805515 23.5921941588434443 25.9420691402707817 O
  atom 25.5581815924715521 23.5921941621254447 25.9420691387767839 O
  atom 29.4902095576625491 23.5921941654074452 25.9420691372827825 O
  atom 1.9660138046075495 27.5242265627124461 25.9420691469057836 O
  atom 5.8980417697985494 27.5242265659944465 25.9420691454117822 O
  atom 9.8300697349895501 27.5242265692764470 25.9420691439177844 O
  atom 13.7620977001805507 27.5242265725584474 25.9420691424237830 O
  atom 17.6941256653715513 27.5242265758404443 25.9420691409297817 O
  atom 21.6261536305625519 27.5242265791224447 25.9420691394357839 O
  atom 25.5581815957535525 27.5242265824044452 25.9420691379417825 O
  atom 29.4902095609445496 27.5242265856864456 25.9420691364477847 O
  atom 1.9660138064385493 31.4562589821824439 29.9242779948947835 O
  atom 5.8980417716295497 31.4562589854644443 29.9242779934007821 O
  atom 9.8300697368205494 31.4562589887464448 29.9242779919067843 O
  atom 13.7620977020115500 31.4562589920284417 29.9242779904127829 O
  atom 17.6941256672025524 31.4562589953104421 29.9242779889187815 O
  atom 21.6261536323935530 31.4562589985924426 29.9242779874247837 O
  atom 25.5581815975845537 31.4562590018744430 29.9242779859307824 O
  atom 29.4902095627755507 31.4562590051564435 29.9242779844367845 O
  atom 1.9660137834645495 3.9320320402294469 29.9242780007397826 O
  atom 5.8980417486555492 3.9320320435114469 29.9242779992457848 O
  atom 9.8300697138465498 3.9320320467934469 29.9242779977517834 O
  atom 13.7620976790375504 3.9320320500754464 29.9242779962577821 O
  atom 17.6941256442285528 3.9320320533574464 29.9242779947637842 O
  atom 21.6261536094195534 3.9320320566394464 29.9242779932697829 O
  atom 25.5581815746105541 3.9320320599214464 29.9242779917757815 O
  atom 29.4902095398015511 3.9320320632034464 29.9242779902817837 O
  atom 1.9660137867465495 7.8640644605084464 29.9242779999047848 O
  atom 5.8980417519375496 7.8640644637904469 29.9242779984107834 O
  atom 9.8300697171285485 7.8640644670724464 29.9242779969167820 O
  atom 13.7620976823195491 7.8640644703544469 29.9242779954227842 O
  atom 17.6941256475105533 7.8640644736364465 29.9242779939287828 O
  atom 21.6261536127015539 7.8640644769184469 29.9242779924347815 O
  atom 25.5581815778925545 7.8640644802004465 29.9242779909407837 O
  atom 29.4902095430835516 7.8640644834824469 29.9242779894467823 O
  atom 1.9660137900285495 11.7960968807874469 29.9242779990697834 O
  atom 5.8980417552195492 11.7960968840694473 29.9242779975757820 O
  atom 9.8300697204105489 11.7960968873514460 29.9242779960817842 O
  atom 13.7620976856015496 11.7960968906334465 29.9242779945877828 O
  atom 17.6941256507925537 11.7960968939154469 29.9242779930937814 O
  atom 21.6261536159835543 11.7960968971974474 29.9242779915997836 O
  atom 25.5581815811745550 11.7960969004794460 29.9242779901057823 O
  atom 29.4902095463655520 11.7960969037614465 29.9242779886117845 O
  atom 1.9660137933105493 15.7281293010664474 29.9242779982347820 O
  atom 5.8980417585015497 15.7281293043484460 29.9242779967407841 O
  atom 9.8300697236925494 15.7281293076304465 29.9242779952467828 O
  atom 13.7620976888835500 15.7281293109124469 29.9242779937527850 O
  atom 17.6941256540745506 15.7281293141944474 29.9242779922587836 O
  atom 21.6261536192655512 15.7281293174764460 29.9242779907647822 O
  atom 25.5581815844565519 15.7281293207584465 29.9242779892707844 O
  atom 29.4902095496475489 15.7281293240404469 29.9242779877767830 O
  atom 1.9660137965925493 19.6601617213454425 29.9242779973997841 O
  atom 5.8980417617835492 19.6601617246274429 29.9242779959057827 O
  atom 9.8300697269745498 19.6601617279094434 29.9242779944117849 O
  atom 13.7620976921655505 19.6601617311914438 29.9242779929177836 O
  atom 17.6941256573565511 19.6601617344734443 29.9242779914237822 O
  atom 21.6261536225475517 19.6601617377554447 29.9242779899297844 O
  atom 25.5581815877385523 19.6601617410374416 29.9242779884357830 O
  atom 29.4902095529295494 19.6601617443194421 29.9242779869417816 O
  atom 1.9660137998745493 23.5921941416244429 29.9242779965647827 O
  atom 5.8980417650655497 23.5921941449064434 29.9242779950707849 O
  atom 9.8300697302565485 23.5921941481884438 29.9242779935767835 O
  atom 13.7620976954475491 23.5921941514704443 29.9242779920827822 O
  atom 17.6941256606385515 23.5921941547524447 29.9242779905887843 O
  atom 21.6261536258295521 23.5921941580344416 29.9242779890947830 O
  atom 25.5581815910205528 23.5921941613164421 29.9242779876007816 O
  atom 29.4902095562115498 23.5921941645984425 29.9242779861067838 O
  atom 1.9660138031565493 27.5242265619034434 29.9242779957297849 O
  atom 5.8980417683475492 27.5242265651854439 29.9242779942357835 O
  atom 9.8300697335385490 27.5242265684674443 29.9242779927417821 O
  atom 13.7620976987295496 27.5242265717494448 29.9242779912477843 O
  atom 17.6941256639205520 27.5242265750314417 29.9242779897537829 O
  atom 21.6261536291115526 27.5242265783134421 29.9242779882597816 O
  atom 25.5581815943025532 27.5242265815954426 29.9242779867657838 O
  atom 29.4902095594935503 27.5242265848774430 29.9242779852717824 O
  atom 31.4562234651656034 1.9660159528218215 2.0488323968997966 O
  atom 3.9320277088286040 1.9660159298478215 2.0488324073577968 O
  atom 7.8640556740196041 1.9660159331298215 2.0488324058637968 O
  atom 11.7960836392106057 1.9660159364118215 2.0488324043697967 O
  atom 15.7281116044016045 1.9660159396938215 2.0488324028757967 O
  atom 19.6601395695926051 1.9660159429758215 2.0488324013817967 O
  atom 23.5921675347836022 1.9660159462578215 2.0488323998877966 O
  atom 27.5241954999746028 1.9660159495398215 2.0488323983937966 O
  atom 31.4562234684476039 5.8980483731008215 2.0488323960647969 O
  atom 3.9320277121106040 5.8980483501268210 2.0488324065227967 O
  atom 7.8640556773016046 5.8980483534088215 2.0488324050287967 O
  atom 11.7960836424926043 5.8980483566908211 2.0488324035347967 O
  atom 15.7281116076836032 5.8980483599728215 2.0488324020407966 O
  atom 19.6601395728746056 5.8980483632548211 2.0488324005467966 O
  atom 23.5921675380656026 5.8980483665368215 2.0488323990527966 O
  atom 27.5241955032566032 5.8980483698188211 2.0488323975587965 O
  atom 31.4562234717296043 9.8300807933798229 2.0488323952297969 O
  atom 3.9320277153926040 9.8300807704058215 2.0488324056877967 O
  atom 7.8640556805836042 9.8300807736878220 2.0488324041937966 O
  atom 11.7960836457746048 9.8300807769698224 2.0488324026997966 O
  atom 15.7281116109656036 9.8300807802518229 2.0488324012057966 O
  atom 19.6601395761566060 9.8300807835338215 2.0488323997117965 O
  atom 23.5921675413476031 9.8300807868158220 2.0488323982177969 O
  atom 27.5241955065386037 9.8300807900978224 2.0488323967237969 O
  atom 31.4562234750116048 13.7621132136588216 2.0488323943947968 O
  atom 3.9320277186746040 13.7621131906848220 2.0488324048527966 O
  atom 7.8640556838656046 13.7621131939668224 2.0488324033587966 O
  atom 11.7960836490566052 13.7621131972488229 2.0488324018647965 O
  atom 15.7281116142476041 13.7621132005308215 2.0488324003707969 O
  atom 19.6601395794386065 13.7621132038128220 2.0488323988767969 O
  atom 23.5921675446296035 13.7621132070948224 2.0488323973827969 O
  atom 27.5241955098206041 13.7621132103768229 2.0488323958887968 O
  atom 31.4562234782936052 17.6941456339378220 2.0488323935597967 O
  atom 3.9320277219566040 17.6941456109638189 2.0488324040177965 O
  atom 7.8640556871476042 17.6941456142458193 2.0488324025237969 O
  atom 11.7960836523386057 17.6941456175278198 2.0488324010297969 O
  atom 15.7281116175296045 17.6941456208098202 2.0488323995357969 O
  atom 19.6601395827206069 17.6941456240918207 2.0488323980417968 O
  atom 23.5921675479116040 17.6941456273738211 2.0488323965477968 O
  atom 27.5241955131026046 17.6941456306558216 2.0488323950537968 O
  atom 31.4562234815756057 21.6261780542168189 2.0488323927247967 O
  atom 3.9320277252386040 21.6261780312428193 2.0488324031827969 O
  atom 7.8640556904296046 21.6261780345248198 2.0488324016887969 O
  atom 11.7960836556206043 21.6261780378068202 2.0488324001947968 O
  atom 15.7281116208116032 21.6261780410888207 2.0488323987007968 O
  atom 19.6601395860026074 21.6261780443708211 2.0488323972067968 O
  atom 23.5921675511936044 21.6261780476528216 2.0488323957127967 O
  atom 27.5241955163846050 21.6261780509348220 2.0488323942187967 O
  atom 31.4562234848576061 25.5582104744958194 2.0488323918897966 O
  atom 3.9320277285206040 25.5582104515218198 2.0488324023477968 O
  atom 7.8640556937116042 25.5582104548038203 2.0488324008537968 O
  atom 11.7960836589026048 25.5582104580858207 2.0488323993597968 O
  atom 15.7281116240936036 25.5582104613678212 2.0488323978657967 O
  atom 19.6601395892846078 25.5582104646498216 2.0488323963717967 O
  atom 23.5921675544756049 25.5582104679318221 2.0488323948777967 O
  atom 27.5241955196666055 25.5582104712138189 2.0488323933837966 O
  atom 31.4562234881396030 29.4902428947748199 2.0488323910547965 O
  atom 3.9320277318026040 29.4902428718008203 2.0488324015127968 O
  atom 7.8640556969936046 29.4902428750828207 2.0488324000187967 O
  atom 11.7960836621846052 29.4902428783648212 2.0488323985247967 O
  atom 15.7281116273756041 29.4902428816468216 2.0488323970307967 O
  atom 19.6601395925666047 29.4902428849288221 2.0488323955367966 O
  atom 23.5921675577576018 29.4902428882108190 2.0488323940427966 O
  atom 27.5241955229486024 29.4902428914928194 2.0488323925487966 O
  atom 31.4562234637146041 1.9660159520128215 6.0310412457237970 O
  atom 3.9320277073776038 1.9660159290388215 6.0310412561817968 O
  atom 7.8640556725686039 1.9660159323208215 6.0310412546877972 O
  atom 11.7960836377596046 1.9660159356028215 6.0310412531937967 O
  atom 15.7281116029506034 1.9660159388848215 6.0310412516997971 O
  atom 19.6601395681416058 1.9660159421668215 6.0310412502057975 O
  atom 23.5921675333326029 1.9660159454488215 6.0310412487117970 O
  atom 27.5241954985236035 1.9660159487308215 6.0310412472177974 O
  atom 31.4562234669966045 5.8980483722918216 6.0310412448887973 O
  atom 3.9320277106596038 5.8980483493178211 6.0310412553467971 O
  atom 7.8640556758506044 5.8980483525998215 6.0310412538527975 O
  atom 11.7960836410416032 5.8980483558818211 6.0310412523587971 O
  atom 15.7281116062326021 5.8980483591638215 6.0310412508647975 O
  atom 19.6601395714236062 5.8980483624458211 6.0310412493707970 O
  atom 23.5921675366146033 5.8980483657278215 6.0310412478767974 O
  atom 27.5241955018056039 5.8980483690098211 6.0310412463827969 O
  atom 31.4562234702786050 9.8300807925708220 6.0310412440537968 O
  atom 3.9320277139416038 9.8300807695968206 6.0310412545117975 O
  atom 7.8640556791326039 9.8300807728788211 6.0310412530177970 O
  atom 11.7960836443236037 9.8300807761608215 6.0310412515237974 O
  atom 15.7281116095146025 9.8300807794428220 6.0310412500297970 O
  atom 19.6601395747056067 9.8300807827248207 6.0310412485357974 O
  atom 23.5921675398966038 9.8300807860068211 6.0310412470417969 O
  atom 27.5241955050876044 9.8300807892888216 6.0310412455477973 O
  atom 31.4562234735606054 13.7621132128498207 6.0310412432187972 O
  atom 3.9320277172236038 13.7621131898758211 6.0310412536767970 O
  atom 7.8640556824146044 13.7621131931578216 6.0310412521827974 O
  atom 11.7960836476056041 13.7621131964398220 6.0310412506887969 O
  atom 15.7281116127966030 13.7621131997218207 6.0310412491947973 O
  atom 19.6601395779876071 13.7621132030038211 6.0310412477007969 O
  atom 23.5921675431786042 13.7621132062858216 6.0310412462067973 O
  atom 27.5241955083696048 13.7621132095678220 6.0310412447127968 O
  atom 31.4562234768426059 17.6941456331288229 6.0310412423837967 O
  atom 3.9320277205056038 17.6941456101548198 6.0310412528417974 O
  atom 7.8640556856966040 17.6941456134368202 6.0310412513477969 O
  atom 11.7960836508876046 17.6941456167188207 6.0310412498537973 O
  atom 15.7281116160786034 17.6941456200008211 6.0310412483597968 O
  atom 19.6601395812696076 17.6941456232828216 6.0310412468657972 O
  atom 23.5921675464606047 17.6941456265648220 6.0310412453717968 O
  atom 27.5241955116516053 17.6941456298468225 6.0310412438777972 O
  atom 31.4562234801246063 21.6261780534078198 6.0310412415487971 O
  atom 3.9320277237876038 21.6261780304338203 6.0310412520067969 O
  atom 7.8640556889786044 21.6261780337158207 6.0310412505127973 O
  atom 11.7960836541696032 21.6261780369978212 6.0310412490187968 O
  atom 15.7281116193606021 21.6261780402798216 6.0310412475247972 O
  atom 19.6601395845516080 21.6261780435618221 6.0310412460307967 O
  atom 23.5921675497426051 21.6261780468438225 6.0310412445367971 O
  atom 27.5241955149336057 21.6261780501258229 6.0310412430427975 O
  atom 31.4562234834066068 25.5582104736868203 6.0310412407137974 O
  atom 3.9320277270696038 25.5582104507128207 6.0310412511717972 O
  atom 7.8640556922606040 25.5582104539948212 6.0310412496777968 O
  atom 11.7960836574516037 25.5582104572768216 6.0310412481837972 O
  atom 15.7281116226426025 25.5582104605588221 6.0310412466897967 O
  atom 19.6601395878336085 25.5582104638408225 6.0310412451957971 O
  atom 23.5921675530246056 25.5582104671228230 6.0310412437017975 O
  atom 27.5241955182156062 25.5582104704048199 6.0310412422077970 O
  atom 31.4562234866886037 29.4902428939658208 6.0310412398787969 O
  atom 3.9320277303516038 29.4902428709918212 6.0310412503367967 O
  atom 7.8640556955426044 29.4902428742738216 6.0310412488427971 O
  atom 11.7960836607336041 29.4902428775558221 6.0310412473487975 O
  atom 15.7281116259246030 29.4902428808378225 6.0310412458547971 O
  atom 19.6601395911156054 29.4902428841198230 6.0310412443607975 O
  atom 23.5921675563066024 29.4902428874018199 6.0310412428667970 O
  atom 27.5241955214976031 29.4902428906838203 6.0310412413727974 O
  atom 31.4562234622636048 1.9660159512038216 10.0132500945477965 O
  atom 3.9320277059266040 1.9660159282298215 10.0132501050057972 O
  atom 7.8640556711176037 1.9660159315118215 10.0132501035117976 O
  atom 11.7960836363086052 1.9660159347938215 10.0132501020177962 O
  atom 15.7281116014996041 1.9660159380758215 10.0132501005237966 O
  atom 19.6601395666906065 1.9660159413578215 10.0132500990297970 O
  atom 23.5921675318816035 1.9660159446398215 10.0132500975357974 O
  atom 27.5241954970726042 1.9660159479218215 10.0132500960417978 O
  atom 31.4562234655456052 5.8980483714828216 10.0132500937127968 O
  atom 3.9320277092086040 5.8980483485088211 10.0132501041707975 O
  atom 7.8640556743996042 5.8980483517908215 10.0132501026767979 O
  atom 11.7960836395906039 5.8980483550728211 10.0132501011827966 O
  atom 15.7281116047816028 5.8980483583548216 10.0132500996887970 O
  atom 19.6601395699726069 5.8980483616368211 10.0132500981947974 O
  atom 23.5921675351636040 5.8980483649188216 10.0132500967007978 O
  atom 27.5241955003546046 5.8980483682008211 10.0132500952067964 O
  atom 31.4562234688276057 9.8300807917618229 10.0132500928777972 O
  atom 3.9320277124906040 9.8300807687878216 10.0132501033357979 O
  atom 7.8640556776816037 9.8300807720698220 10.0132501018417965 O
  atom 11.7960836428726044 9.8300807753518225 10.0132501003477969 O
  atom 15.7281116080636032 9.8300807786338229 10.0132500988537974 O
  atom 19.6601395732546074 9.8300807819158216 10.0132500973597978 O
  atom 23.5921675384456044 9.8300807851978220 10.0132500958657964 O
  atom 27.5241955036366051 9.8300807884798225 10.0132500943717968 O
  atom 31.4562234721096061 13.7621132120408216 10.0132500920427976 O
  atom 3.9320277157726040 13.7621131890668220 10.0132501025007965 O
  atom 7.8640556809636042 13.7621131923488225 10.0132501010067969 O
  atom 11.7960836461546048 13.7621131956308229 10.0132500995127973 O
  atom 15.7281116113456036 13.7621131989128216 10.0132500980187977 O
  atom 19.6601395765366078 13.7621132021948220 10.0132500965247964 O
  atom 23.5921675417276049 13.7621132054768225 10.0132500950307968 O
  atom 27.5241955069186055 13.7621132087588229 10.0132500935367972 O
  atom 31.4562234753916066 17.6941456323198238 10.0132500912077962 O
  atom 3.9320277190546040 17.6941456093458207 10.0132501016657969 O
  atom 7.8640556842456038 17.6941456126278212 10.0132501001717973 O
  atom 11.7960836494366053 17.6941456159098216 10.0132500986777977 O
  atom 15.7281116146276041 17.6941456191918220 10.0132500971837963 O
  atom 19.6601395798186083 17.6941456224738225 10.0132500956897967 O
  atom 23.5921675450096053 17.6941456257558229 10.0132500941957971 O
  atom 27.5241955102006060 17.6941456290378234 10.0132500927017976 O
  atom 31.4562234786736070 21.6261780525988208 10.0132500903727966 O
  atom 3.9320277223366040 21.6261780296248212 10.0132501008307973 O
  atom 7.8640556875276042 21.6261780329068216 10.0132500993367977 O
  atom 11.7960836527186039 21.6261780361888221 10.0132500978427963 O
  atom 15.7281116179096028 21.6261780394708225 10.0132500963487967 O
  atom 19.6601395831006087 21.6261780427528230 10.0132500948547971 O
  atom 23.5921675482916058 21.6261780460348234 10.0132500933607975 O
  atom 27.5241955134826064 21.6261780493168239 10.0132500918667979 O
  atom 31.4562234819556075 25.5582104728778212 10.0132500895377969 O
  atom 3.9320277256186040 25.5582104499038216 10.0132500999957976 O
  atom 7.8640556908096038 25.5582104531858221 10.0132500985017963 O
  atom 11.7960836560006044 25.5582104564678225 10.0132500970077967 O
  atom 15.7281116211916032 25.5582104597498230 10.0132500955137971 O
  atom 19.6601395863826092 25.5582104630318234 10.0132500940197975 O
  atom 23.5921675515736062 25.5582104663138239 10.0132500925257979 O
  atom 27.5241955167646069 25.5582104695958208 10.0132500910317965 O
  atom 31.4562234852376044 29.4902428931568217 10.0132500887027973 O
  atom 3.9320277289006040 29.4902428701828221 10.0132500991607962 O
  atom 7.8640556940916042 29.4902428734648225 10.0132500976667966 O
  atom 11.7960836592826048 29.4902428767468230 10.0132500961727970 O
  atom 15.7281116244736037 29.4902428800288234 10.0132500946787975 O
  atom 19.6601395896646061 29.4902428833108239 10.0132500931847979 O
  atom 23.5921675548556031 29.4902428865928208 10.0132500916907965 O
  atom 27.5241955200466037 29.4902428898748212 10.0132500901967969 O
  atom 31.4562234608126055 1.9660159503948216 13.9954589433717977 O
  atom 3.9320277044756038 1.9660159274208215 13.9954589538297967 O
  atom 7.8640556696666044 1.9660159307028215 13.9954589523357971 O
  atom 11.7960836348576041 1.9660159339848216 13.9954589508417975 O
  atom 15.7281116000486030 1.9660159372668216 13.9954589493477979 O
  atom 19.6601395652396072 1.9660159405488216 13.9954589478537965 O
  atom 23.5921675304306042 1.9660159438308216 13.9954589463597969 O
  atom 27.5241954956216048 1.9660159471128216 13.9954589448657973 O
  atom 31.4562234640946059 5.8980483706738216 13.9954589425367963 O
  atom 3.9320277077576038 5.8980483476998211 13.9954589529947970 O
  atom 7.8640556729486049 5.8980483509818216 13.9954589515007974 O
  atom 11.7960836381396028 5.8980483542638211 13.9954589500067978 O
  atom 15.7281116033306017 5.8980483575458216 13.9954589485127965 O
  atom 19.6601395685216076 5.8980483608278211 13.9954589470187969 O
  atom 23.5921675337126047 5.8980483641098216 13.9954589455247973 O
  atom 27.5241954989036053 5.8980483673918211 13.9954589440307977 O
  atom 31.4562234673766064 9.8300807909528221 13.9954589417017967 O
  atom 3.9320277110396038 9.8300807679788207 13.9954589521597974 O
  atom 7.8640556762306044 9.8300807712608211 13.9954589506657978 O
  atom 11.7960836414216033 9.8300807745428216 13.9954589491717964 O
  atom 15.7281116066126021 9.8300807778248220 13.9954589476777969 O
  atom 19.6601395718036080 9.8300807811068207 13.9954589461837973 O
  atom 23.5921675369946051 9.8300807843888212 13.9954589446897977 O
  atom 27.5241955021856057 9.8300807876708216 13.9954589431957963 O
  atom 31.4562234706586068 13.7621132112318207 13.9954589408667971 O
  atom 3.9320277143216038 13.7621131882578212 13.9954589513247978 O
  atom 7.8640556795126049 13.7621131915398216 13.9954589498307964 O
  atom 11.7960836447036037 13.7621131948218220 13.9954589483367968 O
  atom 15.7281116098946026 13.7621131981038207 13.9954589468427972 O
  atom 19.6601395750856085 13.7621132013858212 13.9954589453487976 O
  atom 23.5921675402766056 13.7621132046678216 13.9954589438547963 O
  atom 27.5241955054676062 13.7621132079498221 13.9954589423607967 O
  atom 31.4562234739406072 17.6941456315108248 13.9954589400317975 O
  atom 3.9320277176036038 17.6941456085368216 13.9954589504897964 O
  atom 7.8640556827946044 17.6941456118188221 13.9954589489957968 O
  atom 11.7960836479856042 17.6941456151008225 13.9954589475017972 O
  atom 15.7281116131766030 17.6941456183828230 13.9954589460077976 O
  atom 19.6601395783676089 17.6941456216648234 13.9954589445137962 O
  atom 23.5921675435586060 17.6941456249468239 13.9954589430197966 O
  atom 27.5241955087496066 17.6941456282288243 13.9954589415257971 O
  atom 31.4562234772226077 21.6261780517898217 13.9954589391967978 O
  atom 3.9320277208856038 21.6261780288158221 13.9954589496547968 O
  atom 7.8640556860766049 21.6261780320978225 13.9954589481607972 O
  atom 11.7960836512676028 21.6261780353798230 13.9954589466667976 O
  atom 15.7281116164586017 21.6261780386618234 13.9954589451727962 O
  atom 19.6601395816496094 21.6261780419438239 13.9954589436787966 O
  atom 23.5921675468406065 21.6261780452258243 13.9954589421847970 O
  atom 27.5241955120316071 21.6261780485078248 13.9954589406907974 O
  atom 31.4562234805046081 25.5582104720688221 13.9954589383617964 O
  atom 3.9320277241676038 25.5582104490948225 13.9954589488197971 O
  atom 7.8640556893586044 25.5582104523768230 13.9954589473257975 O
  atom 11.7960836545496033 25.5582104556588234 13.9954589458317962 O
  atom 15.7281116197406021 25.5582104589408239 13.9954589443377966 O
  atom 19.6601395849316098 25.5582104622228243 13.9954589428437970 O
  atom 23.5921675501226069 25.5582104655048248 13.9954589413497974 O
  atom 27.5241955153136075 25.5582104687868217 13.9954589398557978 O
  atom 31.4562234837866050 29.4902428923478226 13.9954589375267968 O
  atom 3.9320277274496038 29.4902428693738230 13.9954589479847975 O
  atom 7.8640556926406049 29.4902428726558234 13.9954589464907961 O
  atom 11.7960836578316037 29.4902428759378239 13.9954589449967965 O
  atom 15.7281116230226026 29.4902428792198243 13.9954589435027970 O
  atom 19.6601395882136067 29.4902428825018248 13.9954589420087974 O
  atom 23.5921675534046038 29.4902428857838217 13.9954589405147978 O
  atom 27.5241955185956044 29.4902428890658221 13.9954589390207964 O
  atom 31.4562234593616026 1.9660159495858216 17.9776677921957955 O
  atom 3.9320277030246040 1.9660159266118216 17.9776678026537944 O
  atom 7.8640556682156042 1.9660159298938216 17.9776678011597966 O
  atom 11.7960836334066048 1.9660159331758216 17.9776677996657952 O
  atom 15.7281115985976037 1.9660159364578216 17.9776677981717938 O
  atom 19.6601395637886043 1.9660159397398216 17.9776677966777960 O
  atom 23.5921675289796013 1.9660159430218216 17.9776677951837947 O
  atom 27.5241954941706020 1.9660159463038216 17.9776677936897968 O
  atom 31.4562234626436030 5.8980483698648216 17.9776677913607941 O
  atom 3.9320277063066040 5.8980483468908211 17.9776678018187965 O
  atom 7.8640556714976046 5.8980483501728216 17.9776678003247952 O
  atom 11.7960836366886035 5.8980483534548211 17.9776677988307938 O
  atom 15.7281116018796023 5.8980483567368216 17.9776677973367960 O
  atom 19.6601395670706047 5.8980483600188212 17.9776677958427946 O
  atom 23.5921675322616018 5.8980483633008216 17.9776677943487968 O
  atom 27.5241954974526024 5.8980483665828212 17.9776677928547954 O
  atom 31.4562234659256035 9.8300807901438230 17.9776677905257962 O
  atom 3.9320277095886040 9.8300807671698216 17.9776678009837951 O
  atom 7.8640556747796042 9.8300807704518220 17.9776677994897938 O
  atom 11.7960836399706039 9.8300807737338225 17.9776677979957960 O
  atom 15.7281116051616028 9.8300807770158229 17.9776677965017946 O
  atom 19.6601395703526052 9.8300807802978216 17.9776677950077968 O
  atom 23.5921675355436022 9.8300807835798221 17.9776677935137954 O
  atom 27.5241955007346029 9.8300807868618225 17.9776677920197940 O
  atom 31.4562234692076039 13.7621132104228217 17.9776677896907948 O
  atom 3.9320277128706040 13.7621131874488221 17.9776678001487937 O
  atom 7.8640556780616047 13.7621131907308225 17.9776677986547959 O
  atom 11.7960836432526044 13.7621131940128230 17.9776677971607945 O
  atom 15.7281116084436032 13.7621131972948216 17.9776677956667967 O
  atom 19.6601395736346056 13.7621132005768221 17.9776677941727954 O
  atom 23.5921675388256027 13.7621132038588225 17.9776677926787940 O
  atom 27.5241955040166033 13.7621132071408230 17.9776677911847962 O
  atom 31.4562234724896044 17.6941456307018221 17.9776677888557970 O
  atom 3.9320277161526040 17.6941456077278190 17.9776677993137959 O
  atom 7.8640556813436042 17.6941456110098194 17.9776677978197945 O
  atom 11.7960836465346048 17.6941456142918199 17.9776677963257967 O
  atom 15.7281116117256037 17.6941456175738203 17.9776677948317953 O
  atom 19.6601395769166061 17.6941456208558208 17.9776677933377940 O
  atom 23.5921675421076031 17.6941456241378212 17.9776677918437962 O
  atom 27.5241955072986038 17.6941456274198217 17.9776677903497948 O
  atom 31.4562234757716048 21.6261780509808190 17.9776677880207956 O
  atom 3.9320277194346041 21.6261780280068194 17.9776677984787945 O
  atom 7.8640556846256047 21.6261780312888199 17.9776677969847967 O
  atom 11.7960836498166035 21.6261780345708203 17.9776677954907953 O
  atom 15.7281116150076024 21.6261780378528208 17.9776677939967939 O
  atom 19.6601395801986065 21.6261780411348212 17.9776677925027961 O
  atom 23.5921675453896036 21.6261780444168217 17.9776677910087948 O
  atom 27.5241955105806042 21.6261780476988221 17.9776677895147969 O
  atom 31.4562234790536053 25.5582104712598195 17.9776677871857942 O
  atom 3.9320277227166041 25.5582104482858199 17.9776677976437966 O
  atom 7.8640556879076042 25.5582104515678203 17.9776677961497953 O
  atom 11.7960836530986040 25.5582104548498208 17.9776677946557939 O
  atom 15.7281116182896028 25.5582104581318212 17.9776677931617961 O
  atom 19.6601395834806070 25.5582104614138217 17.9776677916677947 O
  atom 23.5921675486716040 25.5582104646958221 17.9776677901737969 O
  atom 27.5241955138626047 25.5582104679778190 17.9776677886797955 O
  atom 31.4562234823356022 29.4902428915388199 17.9776677863507963 O
  atom 3.9320277259986041 29.4902428685648204 17.9776677968087952 O
  atom 7.8640556911896047 29.4902428718468208 17.9776677953147939 O
  atom 11.7960836563806044 29.4902428751288213 17.9776677938207960 O
  atom 15.7281116215716033 29.4902428784108217 17.9776677923267947 O
  atom 19.6601395867626039 29.4902428816928222 17.9776677908327969 O
  atom 23.5921675519536009 29.4902428849748190 17.9776677893387955 O
  atom 27.5241955171446016 29.4902428882568195 17.9776677878447941 O
  atom 31.4562234579106033 1.9660159487768216 21.9598766410197968 O
  atom 3.9320277015736038 1.9660159258028216 21.9598766514777957 O
  atom 7.8640556667646040 1.9660159290848216 21.9598766499837943 O
  atom 11.7960836319556055 1.9660159323668216 21.9598766484897965 O
  atom 15.7281115971466043 1.9660159356488216 21.9598766469957951 O
  atom 19.6601395623376050 1.9660159389308216 21.9598766455017937 O
  atom 23.5921675275286020 1.9660159422128216 21.9598766440077959 O
  atom 27.5241954927196026 1.9660159454948216 21.9598766425137946 O
  atom 31.4562234611926037 5.8980483690558216 21.9598766401847953 O
  atom 3.9320277048556038 5.8980483460818212 21.9598766506427943 O
  atom 7.8640556700466044 5.8980483493638216 21.9598766491487964 O
  atom 11.7960836352376042 5.8980483526458212 21.9598766476547951 O
  atom 15.7281116004286030 5.8980483559278216 21.9598766461607937 O
  atom 19.6601395656196054 5.8980483592098212 21.9598766446667959 O
  atom 23.5921675308106025 5.8980483624918216 21.9598766431727945 O
  atom 27.5241954960016031 5.8980483657738212 21.9598766416787967 O
  atom 31.4562234644746042 9.8300807893348221 21.9598766393497939 O
  atom 3.9320277081376038 9.8300807663608207 21.9598766498077964 O
  atom 7.8640556733286040 9.8300807696428212 21.9598766483137950 O
  atom 11.7960836385196046 9.8300807729248216 21.9598766468197937 O
  atom 15.7281116037106035 9.8300807762068221 21.9598766453257959 O
  atom 19.6601395689016059 9.8300807794888208 21.9598766438317945 O
  atom 23.5921675340926029 9.8300807827708212 21.9598766423377967 O
  atom 27.5241954992836035 9.8300807860528217 21.9598766408437953 O
  atom 31.4562234677566046 13.7621132096138208 21.9598766385147961 O
  atom 3.9320277114196038 13.7621131866398212 21.9598766489727950 O
  atom 7.8640556766106045 13.7621131899218216 21.9598766474787936 O
  atom 11.7960836418016051 13.7621131932038221 21.9598766459847958 O
  atom 15.7281116069926039 13.7621131964858208 21.9598766444907945 O
  atom 19.6601395721836063 13.7621131997678212 21.9598766429967966 O
  atom 23.5921675373746034 13.7621132030498217 21.9598766415027953 O
  atom 27.5241955025656040 13.7621132063318221 21.9598766400087939 O
  atom 31.4562234710386051 17.6941456298928230 21.9598766376797947 O
  atom 3.9320277147016038 17.6941456069188199 21.9598766481377936 O
  atom 7.8640556798926040 17.6941456102008203 21.9598766466437958 O
  atom 11.7960836450836055 17.6941456134828208 21.9598766451497944 O
  atom 15.7281116102746044 17.6941456167648212 21.9598766436557966 O
  atom 19.6601395754656068 17.6941456200468217 21.9598766421617952 O
  atom 23.5921675406566038 17.6941456233288221 21.9598766406677939 O
  atom 27.5241955058476044 17.6941456266108226 21.9598766391737961 O
  atom 31.4562234743206055 21.6261780501718199 21.9598766368447968 O
  atom 3.9320277179836038 21.6261780271978203 21.9598766473027958 O
  atom 7.8640556831746045 21.6261780304798208 21.9598766458087944 O
  atom 11.7960836483656042 21.6261780337618212 21.9598766443147966 O
  atom 15.7281116135566030 21.6261780370438217 21.9598766428207952 O
  atom 19.6601395787476072 21.6261780403258221 21.9598766413267938 O
  atom 23.5921675439386043 21.6261780436078226 21.9598766398327960 O
  atom 27.5241955091296049 21.6261780468898230 21.9598766383387947 O
  atom 31.4562234776026060 25.5582104704508204 21.9598766360097954 O
  atom 3.9320277212656038 25.5582104474768208 21.9598766464677944 O
  atom 7.8640556864566040 25.5582104507588213 21.9598766449737965 O
  atom 11.7960836516476046 25.5582104540408217 21.9598766434797952 O
  atom 15.7281116168386035 25.5582104573228222 21.9598766419857938 O
  atom 19.6601395820296077 25.5582104606048226 21.9598766404917960 O
  atom 23.5921675472206047 25.5582104638868230 21.9598766389977946 O
  atom 27.5241955124116053 25.5582104671688199 21.9598766375037968 O
  atom 31.4562234808846028 29.4902428907298209 21.9598766351747940 O
  atom 3.9320277245476039 29.4902428677558213 21.9598766456327965 O
  atom 7.8640556897386045 29.4902428710378217 21.9598766441387951 O
  atom 11.7960836549296051 29.4902428743198222 21.9598766426447938 O
  atom 15.7281116201206039 29.4902428776018226 21.9598766411507960 O
  atom 19.6601395853116045 29.4902428808838231 21.9598766396567946 O
  atom 23.5921675505026016 29.4902428841658200 21.9598766381627968 O
  atom 27.5241955156936022 29.4902428874478204 21.9598766366687954 O
  atom 31.4562234564596039 1.9660159479678216 25.9420854898437945 O
  atom 3.9320277001226041 1.9660159249938216 25.9420855003017934 O
  atom 7.8640556653136038 1.9660159282758216 25.9420854988077956 O
  atom 11.7960836305046044 1.9660159315578216 25.9420854973137942 O
  atom 15.7281115956956032 1.9660159348398216 25.9420854958197964 O
  atom 19.6601395608866056 1.9660159381218216 25.9420854943257950 O
  atom 23.5921675260776027 1.9660159414038216 25.9420854928317937 O
  atom 27.5241954912686033 1.9660159446858216 25.9420854913377958 O
  atom 31.4562234597416044 5.8980483682468217 25.9420854890087966 O
  atom 3.9320277034046041 5.8980483452728212 25.9420854994667955 O
  atom 7.8640556685956042 5.8980483485548216 25.9420854979727942 O
  atom 11.7960836337866031 5.8980483518368212 25.9420854964787964 O
  atom 15.7281115989776019 5.8980483551188216 25.9420854949847950 O
  atom 19.6601395641686061 5.8980483584008212 25.9420854934907936 O
  atom 23.5921675293596032 5.8980483616828216 25.9420854919967958 O
  atom 27.5241954945506038 5.8980483649648212 25.9420854905027944 O
  atom 31.4562234630236048 9.8300807885258230 25.9420854881737952 O
  atom 3.9320277066866041 9.8300807655518216 25.9420854986317941 O
  atom 7.8640556718776038 9.8300807688338221 25.9420854971377963 O
  atom 11.7960836370686035 9.8300807721158225 25.9420854956437950 O
  atom 15.7281116022596024 9.8300807753978230 25.9420854941497936 O
  atom 19.6601395674506065 9.8300807786798217 25.9420854926557958 O
  atom 23.5921675326416036 9.8300807819618221 25.9420854911617944 O
  atom 27.5241954978326042 9.8300807852438226 25.9420854896677966 O
  atom 31.4562234663056053 13.7621132088048217 25.9420854873387938 O
  atom 3.9320277099686041 13.7621131858308221 25.9420854977967963 O
  atom 7.8640556751596042 13.7621131891128226 25.9420854963027949 O
  atom 11.7960836403506040 13.7621131923948230 25.9420854948087936 O
  atom 15.7281116055416028 13.7621131956768217 25.9420854933147957 O
  atom 19.6601395707326070 13.7621131989588221 25.9420854918207944 O
  atom 23.5921675359236040 13.7621132022408226 25.9420854903267966 O
  atom 27.5241955011146047 13.7621132055228230 25.9420854888327952 O
  atom 31.4562234695876057 17.6941456290838239 25.9420854865037960 O
  atom 3.9320277132506041 17.6941456061098208 25.9420854969617949 O
  atom 7.8640556784416038 17.6941456093918212 25.9420854954677935 O
  atom 11.7960836436326044 17.6941456126738217 25.9420854939737957 O
  atom 15.7281116088236033 17.6941456159558221 25.9420854924797943 O
  atom 19.6601395740146074 17.6941456192378226 25.9420854909857965 O
  atom 23.5921675392056045 17.6941456225198230 25.9420854894917952 O
  atom 27.5241955043966051 17.6941456258018235 25.9420854879977938 O
  atom 31.4562234728696062 21.6261780493628208 25.9420854856687946 O
  atom 3.9320277165326041 21.6261780263888213 25.9420854961267935 O
  atom 7.8640556817236043 21.6261780296708217 25.9420854946327957 O
  atom 11.7960836469146031 21.6261780329528222 25.9420854931387943 O
  atom 15.7281116121056019 21.6261780362348226 25.9420854916447965 O
  atom 19.6601395772966079 21.6261780395168230 25.9420854901507951 O
  atom 23.5921675424876049 21.6261780427988235 25.9420854886567938 O
  atom 27.5241955076786056 21.6261780460808239 25.9420854871627959 O
  atom 31.4562234761516066 25.5582104696418213 25.9420854848337967 O
  atom 3.9320277198146041 25.5582104466678217 25.9420854952917956 O
  atom 7.8640556850056038 25.5582104499498222 25.9420854937977943 O
  atom 11.7960836501966035 25.5582104532318226 25.9420854923037965 O
  atom 15.7281116153876024 25.5582104565138231 25.9420854908097951 O
  atom 19.6601395805786083 25.5582104597958235 25.9420854893157937 O
  atom 23.5921675457696054 25.5582104630778240 25.9420854878217959 O
  atom 27.5241955109606060 25.5582104663598209 25.9420854863277945 O
  atom 31.4562234794336035 29.4902428899208218 25.9420854839987953 O
  atom 3.9320277230966041 29.4902428669468222 25.9420854944567942 O
  atom 7.8640556882876043 29.4902428702288226 25.9420854929627964 O
  atom 11.7960836534786040 29.4902428735108231 25.9420854914687951 O
  atom 15.7281116186696028 29.4902428767928235 25.9420854899747937 O
  atom 19.6601395838606052 29.4902428800748240 25.9420854884807959 O
  atom 23.5921675490516023 29.4902428833568209 25.9420854869867945 O
  atom 27.5241955142426029 29.4902428866388213 25.9420854854927967 O
  atom 31.4562234550086046 1.9660159471588217 29.9242943386677958 O
  atom 3.9320276986716038 1.9660159241848216 29.9242943491257947 O
  atom 7.8640556638626045 1.9660159274668216 29.9242943476317933 O
  atom 11.7960836290536051 1.9660159307488216 29.9242943461377955 O
  atom 15.7281115942446039 1.9660159340308216 29.9242943446437941 O
  atom 19.6601395594356063 1.9660159373128216 29.9242943431497963 O
  atom 23.5921675246266034 1.9660159405948217 29.9242943416557949 O
  atom 27.5241954898176040 1.9660159438768217 29.9242943401617936 O
  atom 31.4562234582906051 5.8980483674378217 29.9242943378327944 O
  atom 3.9320277019536038 5.8980483444638212 29.9242943482907933 O
  atom 7.8640556671446049 5.8980483477458217 29.9242943467967955 O
  atom 11.7960836323356038 5.8980483510278212 29.9242943453027941 O
  atom 15.7281115975266026 5.8980483543098217 29.9242943438087963 O
  atom 19.6601395627176068 5.8980483575918212 29.9242943423147949 O
  atom 23.5921675279086038 5.8980483608738217 29.9242943408207935 O
  atom 27.5241954930996044 5.8980483641558212 29.9242943393267957 O
  atom 31.4562234615726055 9.8300807877168221 29.9242943369977965 O
  atom 3.9320277052356039 9.8300807647428208 29.9242943474557954 O
  atom 7.8640556704266045 9.8300807680248212 29.9242943459617941 O
  atom 11.7960836356176042 9.8300807713068217 29.9242943444677962 O
  atom 15.7281116008086030 9.8300807745888221 29.9242943429737949 O
  atom 19.6601395659996072 9.8300807778708208 29.9242943414797935 O
  atom 23.5921675311906043 9.8300807811528212 29.9242943399857957 O
  atom 27.5241954963816049 9.8300807844348217 29.9242943384917943 O
  atom 31.4562234648546060 13.7621132079958208 29.9242943361627951 O
  atom 3.9320277085176039 13.7621131850218212 29.9242943466207940 O
  atom 7.8640556737086049 13.7621131883038217 29.9242943451267962 O
  atom 11.7960836388996047 13.7621131915858221 29.9242943436327948 O
  atom 15.7281116040906035 13.7621131948678208 29.9242943421387935 O
  atom 19.6601395692816077 13.7621131981498213 29.9242943406447957 O
  atom 23.5921675344726047 13.7621132014318217 29.9242943391507943 O
  atom 27.5241954996636053 13.7621132047138222 29.9242943376567965 O
  atom 31.4562234681366064 17.6941456282748248 29.9242943353277937 O
  atom 3.9320277117996039 17.6941456053008217 29.9242943457857962 O
  atom 7.8640556769906045 17.6941456085828221 29.9242943442917948 O
  atom 11.7960836421816051 17.6941456118648226 29.9242943427977934 O
  atom 15.7281116073726039 17.6941456151468230 29.9242943413037956 O
  atom 19.6601395725636081 17.6941456184288235 29.9242943398097943 O
  atom 23.5921675377546052 17.6941456217108239 29.9242943383157964 O
  atom 27.5241955029456058 17.6941456249928244 29.9242943368217951 O
  atom 31.4562234714186069 21.6261780485538218 29.9242943344927959 O
  atom 3.9320277150816039 21.6261780255798222 29.9242943449507948 O
  atom 7.8640556802726049 21.6261780288618226 29.9242943434567934 O
  atom 11.7960836454636038 21.6261780321438231 29.9242943419627956 O
  atom 15.7281116106546026 21.6261780354258235 29.9242943404687942 O
  atom 19.6601395758456086 21.6261780387078240 29.9242943389747964 O
  atom 23.5921675410366056 21.6261780419898244 29.9242943374807950 O
  atom 27.5241955062276062 21.6261780452718249 29.9242943359867937 O
  atom 31.4562234747006073 25.5582104688328222 29.9242943336577945 O
  atom 3.9320277183636039 25.5582104458588226 29.9242943441157934 O
  atom 7.8640556835546045 25.5582104491408231 29.9242943426217956 O
  atom 11.7960836487456042 25.5582104524228235 29.9242943411277942 O
  atom 15.7281116139366031 25.5582104557048240 29.9242943396337964 O
  atom 19.6601395791276090 25.5582104589868244 29.9242943381397950 O
  atom 23.5921675443186061 25.5582104622688249 29.9242943366457936 O
  atom 27.5241955095096067 25.5582104655508218 29.9242943351517958 O
  atom 31.4562234779826042 29.4902428891118227 29.9242943328227966 O
  atom 3.9320277216456039 29.4902428661378231 29.9242943432807955 O
  atom 7.8640556868366049 29.4902428694198235 29.9242943417867941 O
  atom 11.7960836520276047 29.4902428727018240 29.9242943402927963 O
  atom 15.7281116172186035 29.4902428759838244 29.9242943387987950 O
  atom 19.6601395824096059 29.4902428792658249 29.9242943373047936 O
  atom 23.5921675476006030 29.4902428825478218 29.9242943358107958 O
  atom 27.5241955127916036 29.4902428858298222 29.9242943343167944 O
  atom 1.9660139651700415 1.9660161993023206 0.0864811018936857 O
  atom 5.8980419303610425 1.9660162025843206 0.0864811003996857 O
  atom 9.8300698955520431 1.9660162058663206 0.0864810989056857 O
  atom 13.7620978607430420 1.9660162091483206 0.0864810974116857 O
  atom 17.6941258259340408 1.9660162124303207 0.0864810959176857 O
  atom 21.6261537911250414 1.9660162157123207 0.0864810944236857 O
  atom 25.5581817563160421 1.9660162189943207 0.0864810929296857 O
  atom 29.4902097215070427 1.9660162222763207 0.0864810914356857 O
  atom 1.9660139684520415 5.8980486195813207 0.0864811010586857 O
  atom 5.8980419336430421 5.8980486228633202 0.0864810995646857 O
  atom 9.8300698988340436 5.8980486261453207 0.0864810980706857 O
  atom 13.7620978640250424 5.8980486294273202 0.0864810965766857 O
  atom 17.6941258292160413 5.8980486327093207 0.0864810950826857 O
  atom 21.6261537944070419 5.8980486359913202 0.0864810935886857 O
  atom 25.5581817595980425 5.8980486392733207 0.0864810920946857 O
  atom 29.4902097247890431 5.8980486425553202 0.0864810906006857 O
  atom 1.9660139717340415 9.8300810398603211 0.0864811002236857 O
  atom 5.8980419369250425 9.8300810431423198 0.0864810987296857 O
  atom 9.8300699021160423 9.8300810464243202 0.0864810972356857 O
  atom 13.7620978673070411 9.8300810497063207 0.0864810957416857 O
  atom 17.6941258324980417 9.8300810529883211 0.0864810942476857 O
  atom 21.6261537976890423 9.8300810562703198 0.0864810927536857 O
  atom 25.5581817628800430 9.8300810595523203 0.0864810912596857 O
  atom 29.4902097280710436 9.8300810628343207 0.0864810897656857 O
  atom 1.9660139750160415 13.7621134601393198 0.0864810993886857 O
  atom 5.8980419402070421 13.7621134634213202 0.0864810978946857 O
  atom 9.8300699053980427 13.7621134667033207 0.0864810964006857 O
  atom 13.7620978705890415 13.7621134699853211 0.0864810949066857 O
  atom 17.6941258357800422 13.7621134732673198 0.0864810934126857 O
  atom 21.6261538009710428 13.7621134765493203 0.0864810919186857 O
  atom 25.5581817661620434 13.7621134798313207 0.0864810904246857 O
  atom 29.4902097313530440 13.7621134831133212 0.0864810889306857 O
  atom 1.9660139782980415 17.6941458804183220 0.0864810985536857 O
  atom 5.8980419434890425 17.6941458837003189 0.0864810970596857 O
  atom 9.8300699086800432 17.6941458869823194 0.0864810955656857 O
  atom 13.7620978738710420 17.6941458902643198 0.0864810940716857 O
  atom 17.6941258390620426 17.6941458935463203 0.0864810925776857 O
  atom 21.6261538042530432 17.6941458968283207 0.0864810910836857 O
  atom 25.5581817694440439 17.6941459001103212 0.0864810895896857 O
  atom 29.4902097346350445 17.6941459033923216 0.0864810880956857 O
  atom 1.9660139815800415 21.6261783006973189 0.0864810977186857 O
  atom 5.8980419467710421 21.6261783039793194 0.0864810962246857 O
  atom 9.8300699119620436 21.6261783072613198 0.0864810947306857 O
  atom 13.7620978771530424 21.6261783105433203 0.0864810932366857 O
  atom 17.6941258423440431 21.6261783138253207 0.0864810917426857 O
  atom 21.6261538075350437 21.6261783171073212 0.0864810902486857 O
  atom 25.5581817727260443 21.6261783203893216 0.0864810887546857 O
  atom 29.4902097379170449 21.6261783236713221 0.0864810872606857 O
  atom 1.9660139848620415 25.5582107209763194 0.0864810968836857 O
  atom 5.8980419500530425 25.5582107242583199 0.0864810953896857 O
  atom 9.8300699152440423 25.5582107275403203 0.0864810938956857 O
  atom 13.7620978804350411 25.5582107308223208 0.0864810924016857 O
  atom 17.6941258456260435 25.5582107341043212 0.0864810909076857 O
  atom 21.6261538108170441 25.5582107373863217 0.0864810894136857 O
  atom 25.5581817760080447 25.5582107406683221 0.0864810879196857 O
  atom 29.4902097411990454 25.5582107439503190 0.0864810864256857 O
  atom 1.9660139881440415 29.4902431412553199 0.0864810960486857 O
  atom 5.8980419533350421 29.4902431445373203 0.0864810945546857 O
  atom 9.8300699185260427 29.4902431478193208 0.0864810930606857 O
  atom 13.7620978837170416 29.4902431511013212 0.0864810915666857 O
  atom 17.6941258489080440 29.4902431543833217 0.0864810900726857 O
  atom 21.6261538140990446 29.4902431576653221 0.0864810885786857 O
  atom 25.5581817792900452 29.4902431609473190 0.0864810870846857 O
  atom 29.4902097444810458 29.4902431642293195 0.0864810855906857 O
  atom 1.9660139637190415 1.9660161984933204 4.0686899507176859 O
  atom 5.8980419289100423 1.9660162017753204 4.0686899492236854 O
  atom 9.8300698941010420 1.9660162050573204 4.0686899477296858 O
  atom 13.7620978592920409 1.9660162083393204 4.0686899462356863 O
  atom 17.6941258244830415 1.9660162116213205 4.0686899447416858 O
  atom 21.6261537896740421 1.9660162149033205 4.0686899432476862 O
  atom 25.5581817548650427 1.9660162181853205 4.0686899417536857 O
  atom 29.4902097200560434 1.9660162214673205 4.0686899402596861 O
  atom 1.9660139670010415 5.8980486187723207 4.0686899498826863 O
  atom 5.8980419321920419 5.8980486220543202 4.0686899483886858 O
  atom 9.8300698973830425 5.8980486253363207 4.0686899468946862 O
  atom 13.7620978625740413 5.8980486286183202 4.0686899454006857 O
  atom 17.6941258277650419 5.8980486319003207 4.0686899439066861 O
  atom 21.6261537929560426 5.8980486351823203 4.0686899424126857 O
  atom 25.5581817581470432 5.8980486384643207 4.0686899409186861 O
  atom 29.4902097233380438 5.8980486417463203 4.0686899394246856 O
  atom 1.9660139702830415 9.8300810390513202 4.0686899490476858 O
  atom 5.8980419354740423 9.8300810423333189 4.0686899475536862 O
  atom 9.8300699006650412 9.8300810456153194 4.0686899460596857 O
  atom 13.7620978658560400 9.8300810488973198 4.0686899445656861 O
  atom 17.6941258310470424 9.8300810521793203 4.0686899430716856 O
  atom 21.6261537962380430 9.8300810554613189 4.0686899415776860 O
  atom 25.5581817614290436 9.8300810587433194 4.0686899400836856 O
  atom 29.4902097266200443 9.8300810620253198 4.0686899385896860 O
  atom 1.9660139735650415 13.7621134593303189 4.0686899482126861 O
  atom 5.8980419387560419 13.7621134626123194 4.0686899467186857 O
  atom 9.8300699039470416 13.7621134658943198 4.0686899452246861 O
  atom 13.7620978691380405 13.7621134691763203 4.0686899437306856 O
  atom 17.6941258343290428 13.7621134724583190 4.0686899422366860 O
  atom 21.6261537995200435 13.7621134757403194 4.0686899407426855 O
  atom 25.5581817647110441 13.7621134790223199 4.0686899392486859 O
  atom 29.4902097299020447 13.7621134823043203 4.0686899377546855 O
  atom 1.9660139768470415 17.6941458796093229 4.0686899473776856 O
  atom 5.8980419420380423 17.6941458828913198 4.0686899458836860 O
  atom 9.8300699072290421 17.6941458861733203 4.0686899443896856 O
  atom 13.7620978724200409 17.6941458894553207 4.0686899428956860 O
  atom 17.6941258376110433 17.6941458927373212 4.0686899414016855 O
  atom 21.6261538028020439 17.6941458960193216 4.0686899399076859 O
  atom 25.5581817679930445 17.6941458993013221 4.0686899384136854 O
  atom 29.4902097331840451 17.6941459025833225 4.0686899369196858 O
  atom 1.9660139801290415 21.6261782998883199 4.0686899465426860 O
  atom 5.8980419453200419 21.6261783031703203 4.0686899450486855 O
  atom 9.8300699105110425 21.6261783064523208 4.0686899435546859 O
  atom 13.7620978757020413 21.6261783097343212 4.0686899420606855 O
  atom 17.6941258408930437 21.6261783130163217 4.0686899405666859 O
  atom 21.6261538060840444 21.6261783162983221 4.0686899390726863 O
  atom 25.5581817712750450 21.6261783195803226 4.0686899375786858 O
  atom 29.4902097364660456 21.6261783228623230 4.0686899360846862 O
  atom 1.9660139834110415 25.5582107201673203 4.0686899457076855 O
  atom 5.8980419486020423 25.5582107234493208 4.0686899442136859 O
  atom 9.8300699137930412 25.5582107267313212 4.0686899427196854 O
  atom 13.7620978789840400 25.5582107300133217 4.0686899412256858 O
  atom 17.6941258441750442 25.5582107332953221 4.0686899397316862 O
  atom 21.6261538093660448 25.5582107365773226 4.0686899382376858 O
  atom 25.5581817745570454 25.5582107398593230 4.0686899367436862 O
  atom 29.4902097397480460 25.5582107431413199 4.0686899352496857 O
  atom 1.9660139866930415 29.4902431404463208 4.0686899448726859 O
  atom 5.8980419518840419 29.4902431437283212 4.0686899433786863 O
  atom 9.8300699170750416 29.4902431470103217 4.0686899418846858 O
  atom 13.7620978822660405 29.4902431502923221 4.0686899403906862 O
  atom 17.6941258474570446 29.4902431535743226 4.0686899388966857 O
  atom 21.6261538126480453 29.4902431568563230 4.0686899374026861 O
  atom 25.5581817778390459 29.4902431601383199 4.0686899359086857 O
  atom 29.4902097430300465 29.4902431634203204 4.0686899344146861 O
  atom 1.9660139622680415 1.9660161976843205 8.0508987995416845 O
  atom 5.8980419274590421 1.9660162009663205 8.0508987980476849 O
  atom 9.8300698926500427 1.9660162042483205 8.0508987965536853 O
  atom 13.7620978578410416 1.9660162075303205 8.0508987950596858 O
  atom 17.6941258230320422 1.9660162108123205 8.0508987935656844 O
  atom 21.6261537882230428 1.9660162140943205 8.0508987920716848 O
  atom 25.5581817534140434 1.9660162173763205 8.0508987905776852 O
  atom 29.4902097186050440 1.9660162206583205 8.0508987890836856 O
  atom 1.9660139655500415 5.8980486179633207 8.0508987987066849 O
  atom 5.8980419307410417 5.8980486212453203 8.0508987972126853 O
  atom 9.8300698959320432 5.8980486245273207 8.0508987957186857 O
  atom 13.7620978611230420 5.8980486278093203 8.0508987942246844 O
  atom 17.6941258263140426 5.8980486310913207 8.0508987927306848 O
  atom 21.6261537915050432 5.8980486343733203 8.0508987912366852 O
  atom 25.5581817566960439 5.8980486376553207 8.0508987897426856 O
  atom 29.4902097218870445 5.8980486409373203 8.0508987882486842 O
  atom 1.9660139688320415 9.8300810382423212 8.0508987978716853 O
  atom 5.8980419340230421 9.8300810415243198 8.0508987963776857 O
  atom 9.8300698992140418 9.8300810448063203 8.0508987948836843 O
  atom 13.7620978644050407 9.8300810480883207 8.0508987933896847 O
  atom 17.6941258295960431 9.8300810513703212 8.0508987918956851 O
  atom 21.6261537947870437 9.8300810546523198 8.0508987904016855 O
  atom 25.5581817599780443 9.8300810579343203 8.0508987889076842 O
  atom 29.4902097251690449 9.8300810612163207 8.0508987874136846 O
  atom 1.9660139721140415 13.7621134585213198 8.0508987970366857 O
  atom 5.8980419373050417 13.7621134618033203 8.0508987955426843 O
  atom 9.8300699024960423 13.7621134650853207 8.0508987940486847 O
  atom 13.7620978676870411 13.7621134683673212 8.0508987925546851 O
  atom 17.6941258328780435 13.7621134716493199 8.0508987910606855 O
  atom 21.6261537980690441 13.7621134749313203 8.0508987895666841 O
  atom 25.5581817632600448 13.7621134782133208 8.0508987880726846 O
  atom 29.4902097284510454 13.7621134814953212 8.0508987865786850 O
  atom 1.9660139753960415 17.6941458788003203 8.0508987962016842 O
  atom 5.8980419405870421 17.6941458820823172 8.0508987947076847 O
  atom 9.8300699057780427 17.6941458853643176 8.0508987932136851 O
  atom 13.7620978709690416 17.6941458886463181 8.0508987917196855 O
  atom 17.6941258361600440 17.6941458919283185 8.0508987902256841 O
  atom 21.6261538013510446 17.6941458952103190 8.0508987887316845 O
  atom 25.5581817665420452 17.6941458984923194 8.0508987872376849 O
  atom 29.4902097317330458 17.6941459017743199 8.0508987857436853 O
  atom 1.9660139786780415 21.6261782990793172 8.0508987953666846 O
  atom 5.8980419438690417 21.6261783023613177 8.0508987938726850 O
  atom 9.8300699090600432 21.6261783056433181 8.0508987923786854 O
  atom 13.7620978742510420 21.6261783089253186 8.0508987908846841 O
  atom 17.6941258394420444 21.6261783122073190 8.0508987893906845 O
  atom 21.6261538046330450 21.6261783154893195 8.0508987878966849 O
  atom 25.5581817698240457 21.6261783187713199 8.0508987864026853 O
  atom 29.4902097350150463 21.6261783220533204 8.0508987849086857 O
  atom 1.9660139819600415 25.5582107193583177 8.0508987945316850 O
  atom 5.8980419471510421 25.5582107226403181 8.0508987930376854 O
  atom 9.8300699123420419 25.5582107259223186 8.0508987915436840 O
  atom 13.7620978775330407 25.5582107292043190 8.0508987900496845 O
  atom 17.6941258427240449 25.5582107324863195 8.0508987885556849 O
  atom 21.6261538079150455 25.5582107357683199 8.0508987870616853 O
  atom 25.5581817731060461 25.5582107390503204 8.0508987855676857 O
  atom 29.4902097382970467 25.5582107423323173 8.0508987840736843 O
  atom 1.9660139852420415 29.4902431396373181 8.0508987936966854 O
  atom 5.8980419504330417 29.4902431429193186 8.0508987922026858 O
  atom 9.8300699156240423 29.4902431462013190 8.0508987907086844 O
  atom 13.7620978808150412 29.4902431494833195 8.0508987892146848 O
  atom 17.6941258460060453 29.4902431527653199 8.0508987877206852 O
  atom 21.6261538111970459 29.4902431560473204 8.0508987862266856 O
  atom 25.5581817763880466 29.4902431593293173 8.0508987847326843 O
  atom 29.4902097415790472 29.4902431626113177 8.0508987832386847 O
  atom 1.9660139608170415 1.9660161968753205 12.0331076483656840 O
  atom 5.8980419260080419 1.9660162001573205 12.0331076468716844 O
  atom 9.8300698911990434 1.9660162034393205 12.0331076453776848 O
  atom 13.7620978563900422 1.9660162067213205 12.0331076438836853 O
  atom 17.6941258215810429 1.9660162100033205 12.0331076423896857 O
  atom 21.6261537867720435 1.9660162132853205 12.0331076408956843 O
  atom 25.5581817519630441 1.9660162165673205 12.0331076394016847 O
  atom 29.4902097171540447 1.9660162198493205 12.0331076379076851 O
  atom 1.9660139640990415 5.8980486171543207 12.0331076475306844 O
  atom 5.8980419292900415 5.8980486204363203 12.0331076460366848 O
  atom 9.8300698944810438 5.8980486237183207 12.0331076445426852 O
  atom 13.7620978596720427 5.8980486270003203 12.0331076430486856 O
  atom 17.6941258248630433 5.8980486302823207 12.0331076415546843 O
  atom 21.6261537900540439 5.8980486335643203 12.0331076400606847 O
  atom 25.5581817552450445 5.8980486368463207 12.0331076385666851 O
  atom 29.4902097204360452 5.8980486401283203 12.0331076370726855 O
  atom 1.9660139673810415 9.8300810374333203 12.0331076466956848 O
  atom 5.8980419325720419 9.8300810407153190 12.0331076452016852 O
  atom 9.8300698977630425 9.8300810439973194 12.0331076437076856 O
  atom 13.7620978629540414 9.8300810472793199 12.0331076422136842 O
  atom 17.6941258281450438 9.8300810505613203 12.0331076407196846 O
  atom 21.6261537933360444 9.8300810538433190 12.0331076392256850 O
  atom 25.5581817585270450 9.8300810571253194 12.0331076377316855 O
  atom 29.4902097237180456 9.8300810604073199 12.0331076362376841 O
  atom 1.9660139706630415 13.7621134577123190 12.0331076458606852 O
  atom 5.8980419358540415 13.7621134609943194 12.0331076443666856 O
  atom 9.8300699010450430 13.7621134642763199 12.0331076428726842 O
  atom 13.7620978662360418 13.7621134675583203 12.0331076413786846 O
  atom 17.6941258314270442 13.7621134708403190 12.0331076398846850 O
  atom 21.6261537966180448 13.7621134741223194 12.0331076383906854 O
  atom 25.5581817618090454 13.7621134774043199 12.0331076368966841 O
  atom 29.4902097270000461 13.7621134806863203 12.0331076354026845 O
  atom 1.9660139739450415 17.6941458779913212 12.0331076450256855 O
  atom 5.8980419391360419 17.6941458812733181 12.0331076435316842 O
  atom 9.8300699043270434 17.6941458845553186 12.0331076420376846 O
  atom 13.7620978695180423 17.6941458878373190 12.0331076405436850 O
  atom 17.6941258347090447 17.6941458911193195 12.0331076390496854 O
  atom 21.6261537999000453 17.6941458944013199 12.0331076375556840 O
  atom 25.5581817650910459 17.6941458976833204 12.0331076360616844 O
  atom 29.4902097302820465 17.6941459009653208 12.0331076345676848 O
  atom 1.9660139772270415 21.6261782982703181 12.0331076441906841 O
  atom 5.8980419424180415 21.6261783015523186 12.0331076426966845 O
  atom 9.8300699076090439 21.6261783048343190 12.0331076412026849 O
  atom 13.7620978728000427 21.6261783081163195 12.0331076397086854 O
  atom 17.6941258379910451 21.6261783113983199 12.0331076382146840 O
  atom 21.6261538031820457 21.6261783146803204 12.0331076367206844 O
  atom 25.5581817683730463 21.6261783179623208 12.0331076352266848 O
  atom 29.4902097335640470 21.6261783212443213 12.0331076337326852 O
  atom 1.9660139805090415 25.5582107185493186 12.0331076433556845 O
  atom 5.8980419457000419 25.5582107218313190 12.0331076418616849 O
  atom 9.8300699108910425 25.5582107251133195 12.0331076403676853 O
  atom 13.7620978760820414 25.5582107283953199 12.0331076388736857 O
  atom 17.6941258412730456 25.5582107316773204 12.0331076373796844 O
  atom 21.6261538064640462 25.5582107349593208 12.0331076358856848 O
  atom 25.5581817716550468 25.5582107382413213 12.0331076343916852 O
  atom 29.4902097368460474 25.5582107415233182 12.0331076328976856 O
  atom 1.9660139837910415 29.4902431388283190 12.0331076425206849 O
  atom 5.8980419489820415 29.4902431421103195 12.0331076410266853 O
  atom 9.8300699141730430 29.4902431453923199 12.0331076395326857 O
  atom 13.7620978793640418 29.4902431486743204 12.0331076380386843 O
  atom 17.6941258445550460 29.4902431519563208 12.0331076365446847 O
  atom 21.6261538097460466 29.4902431552383213 12.0331076350506851 O
  atom 25.5581817749370472 29.4902431585203182 12.0331076335566856 O
  atom 29.4902097401280479 29.4902431618023186 12.0331076320626842 O
  atom 1.9660139593660415 1.9660161960663205 16.0153164971896835 O
  atom 5.8980419245570426 1.9660161993483205 16.0153164956956857 O
  atom 9.8300698897480423 1.9660162026303205 16.0153164942016843 O
  atom 13.7620978549390411 1.9660162059123205 16.0153164927076865 O
  atom 17.6941258201300435 1.9660162091943205 16.0153164912136852 O
  atom 21.6261537853210442 1.9660162124763205 16.0153164897196838 O
  atom 25.5581817505120448 1.9660162157583205 16.0153164882256860 O
  atom 29.4902097157030454 1.9660162190403205 16.0153164867316846 O
  atom 1.9660139626480415 5.8980486163453207 16.0153164963546857 O
  atom 5.8980419278390421 5.8980486196273203 16.0153164948606843 O
  atom 9.8300698930300427 5.8980486229093207 16.0153164933666865 O
  atom 13.7620978582210416 5.8980486261913203 16.0153164918726851 O
  atom 17.6941258234120440 5.8980486294733208 16.0153164903786838 O
  atom 21.6261537886030446 5.8980486327553203 16.0153164888846860 O
  atom 25.5581817537940452 5.8980486360373208 16.0153164873906846 O
  atom 29.4902097189850458 5.8980486393193203 16.0153164858966832 O
  atom 1.9660139659300415 9.8300810366243212 16.0153164955196843 O
  atom 5.8980419311210426 9.8300810399063199 16.0153164940256865 O
  atom 9.8300698963120414 9.8300810431883203 16.0153164925316851 O
  atom 13.7620978615030403 9.8300810464703208 16.0153164910376837 O
  atom 17.6941258266940444 9.8300810497523212 16.0153164895436859 O
  atom 21.6261537918850451 9.8300810530343199 16.0153164880496846 O
  atom 25.5581817570760457 9.8300810563163203 16.0153164865556832 O
  atom 29.4902097222670463 9.8300810595983208 16.0153164850616854 O
  atom 1.9660139692120415 13.7621134569033199 16.0153164946846864 O
  atom 5.8980419344030421 13.7621134601853203 16.0153164931906851 O
  atom 9.8300698995940419 13.7621134634673208 16.0153164916966837 O
  atom 13.7620978647850407 13.7621134667493212 16.0153164902026859 O
  atom 17.6941258299760449 13.7621134700313199 16.0153164887086845 O
  atom 21.6261537951670455 13.7621134733133204 16.0153164872146831 O
  atom 25.5581817603580461 13.7621134765953208 16.0153164857206853 O
  atom 29.4902097255490467 13.7621134798773213 16.0153164842266840 O
  atom 1.9660139724940415 17.6941458771823221 16.0153164938496850 O
  atom 5.8980419376850426 17.6941458804643190 16.0153164923556837 O
  atom 9.8300699028760423 17.6941458837463195 16.0153164908616858 O
  atom 13.7620978680670412 17.6941458870283199 16.0153164893676845 O
  atom 17.6941258332580453 17.6941458903103204 16.0153164878736831 O
  atom 21.6261537984490460 17.6941458935923208 16.0153164863796853 O
  atom 25.5581817636400466 17.6941458968743213 16.0153164848856839 O
  atom 29.4902097288310472 17.6941459001563217 16.0153164833916861 O
  atom 1.9660139757760415 21.6261782974613190 16.0153164930146836 O
  atom 5.8980419409670422 21.6261783007433195 16.0153164915206858 O
  atom 9.8300699061580428 21.6261783040253199 16.0153164900266844 O
  atom 13.7620978713490416 21.6261783073073204 16.0153164885326831 O
  atom 17.6941258365400458 21.6261783105893208 16.0153164870386853 O
  atom 21.6261538017310464 21.6261783138713213 16.0153164855446839 O
  atom 25.5581817669220470 21.6261783171533217 16.0153164840506861 O
  atom 29.4902097321130476 21.6261783204353222 16.0153164825566847 O
  atom 1.9660139790580415 25.5582107177403195 16.0153164921796858 O
  atom 5.8980419442490426 25.5582107210223199 16.0153164906856844 O
  atom 9.8300699094400414 25.5582107243043204 16.0153164891916830 O
  atom 13.7620978746310403 25.5582107275863208 16.0153164876976852 O
  atom 17.6941258398220462 25.5582107308683213 16.0153164862036839 O
  atom 21.6261538050130468 25.5582107341503217 16.0153164847096861 O
  atom 25.5581817702040475 25.5582107374323222 16.0153164832156847 O
  atom 29.4902097353950481 25.5582107407143191 16.0153164817216833 O
  atom 1.9660139823400415 29.4902431380193200 16.0153164913446844 O
  atom 5.8980419475310422 29.4902431413013204 16.0153164898506866 O
  atom 9.8300699127220419 29.4902431445833209 16.0153164883566852 O
  atom 13.7620978779130407 29.4902431478653213 16.0153164868626838 O
  atom 17.6941258431040467 29.4902431511473218 16.0153164853686860 O
  atom 21.6261538082950473 29.4902431544293222 16.0153164838746846 O
  atom 25.5581817734860479 29.4902431577113191 16.0153164823806833 O
  atom 29.4902097386770485 29.4902431609933195 16.0153164808866855 O
  atom 1.9660139579150415 1.9660161952573205 19.9975253460136848 O
  atom 5.8980419231060424 1.9660161985393205 19.9975253445196834 O
  atom 9.8300698882970430 1.9660162018213205 19.9975253430256856 O
  atom 13.7620978534880418 1.9660162051033205 19.9975253415316843 O
  atom 17.6941258186790407 1.9660162083853205 19.9975253400376864 O
  atom 21.6261537838700413 1.9660162116673205 19.9975253385436851 O
  atom 25.5581817490610419 1.9660162149493206 19.9975253370496837 O
  atom 29.4902097142520425 1.9660162182313206 19.9975253355556859 O
  atom 1.9660139611970415 5.8980486155363208 19.9975253451786834 O
  atom 5.8980419263880419 5.8980486188183203 19.9975253436846856 O
  atom 9.8300698915790434 5.8980486221003208 19.9975253421906842 O
  atom 13.7620978567700423 5.8980486253823203 19.9975253406966864 O
  atom 17.6941258219610411 5.8980486286643208 19.9975253392026850 O
  atom 21.6261537871520417 5.8980486319463203 19.9975253377086837 O
  atom 25.5581817523430423 5.8980486352283208 19.9975253362146859 O
  atom 29.4902097175340430 5.8980486385103204 19.9975253347206845 O
  atom 1.9660139644790415 9.8300810358153203 19.9975253443436856 O
  atom 5.8980419296700424 9.8300810390973190 19.9975253428496842 O
  atom 9.8300698948610421 9.8300810423793195 19.9975253413556864 O
  atom 13.7620978600520409 9.8300810456613199 19.9975253398616850 O
  atom 17.6941258252430416 9.8300810489433204 19.9975253383676836 O
  atom 21.6261537904340422 9.8300810522253190 19.9975253368736858 O
  atom 25.5581817556250428 9.8300810555073195 19.9975253353796845 O
  atom 29.4902097208160434 9.8300810587893199 19.9975253338856831 O
  atom 1.9660139677610415 13.7621134560943190 19.9975253435086842 O
  atom 5.8980419329520419 13.7621134593763195 19.9975253420146863 O
  atom 9.8300698981430426 13.7621134626583199 19.9975253405206850 O
  atom 13.7620978633340414 13.7621134659403204 19.9975253390266836 O
  atom 17.6941258285250420 13.7621134692223190 19.9975253375326858 O
  atom 21.6261537937160426 13.7621134725043195 19.9975253360386844 O
  atom 25.5581817589070432 13.7621134757863199 19.9975253345446831 O
  atom 29.4902097240980439 13.7621134790683204 19.9975253330506852 O
  atom 1.9660139710430415 17.6941458763733230 19.9975253426736863 O
  atom 5.8980419362340424 17.6941458796553199 19.9975253411796849 O
  atom 9.8300699014250430 17.6941458829373204 19.9975253396856836 O
  atom 13.7620978666160418 17.6941458862193208 19.9975253381916858 O
  atom 17.6941258318070425 17.6941458895013213 19.9975253366976844 O
  atom 21.6261537969980431 17.6941458927833217 19.9975253352036830 O
  atom 25.5581817621890437 17.6941458960653222 19.9975253337096852 O
  atom 29.4902097273800443 17.6941458993473226 19.9975253322156838 O
  atom 1.9660139743250415 21.6261782966523199 19.9975253418386849 O
  atom 5.8980419395160419 21.6261782999343204 19.9975253403446835 O
  atom 9.8300699047070434 21.6261783032163208 19.9975253388506857 O
  atom 13.7620978698980423 21.6261783064983213 19.9975253373566844 O
  atom 17.6941258350890429 21.6261783097803217 19.9975253358626830 O
  atom 21.6261538002800435 21.6261783130623222 19.9975253343686852 O
  atom 25.5581817654710441 21.6261783163443226 19.9975253328746838 O
  atom 29.4902097306620448 21.6261783196263231 19.9975253313806860 O
  atom 1.9660139776070416 25.5582107169313204 19.9975253410036835 O
  atom 5.8980419427980424 25.5582107202133209 19.9975253395096857 O
  atom 9.8300699079890421 25.5582107234953213 19.9975253380156843 O
  atom 13.7620978731800410 25.5582107267773218 19.9975253365216865 O
  atom 17.6941258383710434 25.5582107300593222 19.9975253350276851 O
  atom 21.6261538035620440 25.5582107333413227 19.9975253335336838 O
  atom 25.5581817687530446 25.5582107366233231 19.9975253320396860 O
  atom 29.4902097339440452 25.5582107399053200 19.9975253305456846 O
  atom 1.9660139808890416 29.4902431372103209 19.9975253401686857 O
  atom 5.8980419460800420 29.4902431404923213 19.9975253386746843 O
  atom 9.8300699112710426 29.4902431437743218 19.9975253371806865 O
  atom 13.7620978764620414 29.4902431470563222 19.9975253356866851 O
  atom 17.6941258416530438 29.4902431503383227 19.9975253341926837 O
  atom 21.6261538068440444 29.4902431536203231 19.9975253326986859 O
  atom 25.5581817720350450 29.4902431569023200 19.9975253312046846 O
  atom 29.4902097372260457 29.4902431601843205 19.9975253297106832 O
  atom 1.9660139564640415 1.9660161944483205 23.9797341948376861 O
  atom 5.8980419216550422 1.9660161977303205 23.9797341933436847 O
  atom 9.8300698868460419 1.9660162010123206 23.9797341918496834 O
  atom 13.7620978520370407 1.9660162042943206 23.9797341903556855 O
  atom 17.6941258172280413 1.9660162075763206 23.9797341888616842 O
  atom 21.6261537824190420 1.9660162108583206 23.9797341873676864 O
  atom 25.5581817476100426 1.9660162141403206 23.9797341858736850 O
  atom 29.4902097128010432 1.9660162174223206 23.9797341843796836 O
  atom 1.9660139597460415 5.8980486147273208 23.9797341940026847 O
  atom 5.8980419249370417 5.8980486180093203 23.9797341925086833 O
  atom 9.8300698901280423 5.8980486212913208 23.9797341910146855 O
  atom 13.7620978553190412 5.8980486245733204 23.9797341895206841 O
  atom 17.6941258205100418 5.8980486278553208 23.9797341880266863 O
  atom 21.6261537857010424 5.8980486311373204 23.9797341865326850 O
  atom 25.5581817508920430 5.8980486344193208 23.9797341850386836 O
  atom 29.4902097160830436 5.8980486377013204 23.9797341835446858 O
  atom 1.9660139630280415 9.8300810350063195 23.9797341931676833 O
  atom 5.8980419282190422 9.8300810382883181 23.9797341916736855 O
  atom 9.8300698934100410 9.8300810415703186 23.9797341901796841 O
  atom 13.7620978586010398 9.8300810448523190 23.9797341886856863 O
  atom 17.6941258237920422 9.8300810481343195 23.9797341871916849 O
  atom 21.6261537889830429 9.8300810514163182 23.9797341856976836 O
  atom 25.5581817541740435 9.8300810546983186 23.9797341842036857 O
  atom 29.4902097193650441 9.8300810579803191 23.9797341827096844 O
  atom 1.9660139663100415 13.7621134552853182 23.9797341923326854 O
  atom 5.8980419315010417 13.7621134585673186 23.9797341908386841 O
  atom 9.8300698966920415 13.7621134618493191 23.9797341893446863 O
  atom 13.7620978618830403 13.7621134651313195 23.9797341878506849 O
  atom 17.6941258270740427 13.7621134684133182 23.9797341863566835 O
  atom 21.6261537922650433 13.7621134716953186 23.9797341848626857 O
  atom 25.5581817574560439 13.7621134749773191 23.9797341833686843 O
  atom 29.4902097226470445 13.7621134782593195 23.9797341818746830 O
  atom 1.9660139695920416 17.6941458755643204 23.9797341914976840 O
  atom 5.8980419347830422 17.6941458788463173 23.9797341900036862 O
  atom 9.8300698999740419 17.6941458821283177 23.9797341885096849 O
  atom 13.7620978651650407 17.6941458854103182 23.9797341870156835 O
  atom 17.6941258303560431 17.6941458886923186 23.9797341855216857 O
  atom 21.6261537955470438 17.6941458919743191 23.9797341840276843 O
  atom 25.5581817607380444 17.6941458952563195 23.9797341825336829 O
  atom 29.4902097259290450 17.6941458985383200 23.9797341810396851 O
  atom 1.9660139728740416 21.6261782958433173 23.9797341906626862 O
  atom 5.8980419380650417 21.6261782991253177 23.9797341891686848 O
  atom 9.8300699032560424 21.6261783024073182 23.9797341876746835 O
  atom 13.7620978684470412 21.6261783056893186 23.9797341861806856 O
  atom 17.6941258336380436 21.6261783089713191 23.9797341846866843 O
  atom 21.6261537988290442 21.6261783122533195 23.9797341831926865 O
  atom 25.5581817640200448 21.6261783155353200 23.9797341816986851 O
  atom 29.4902097292110454 21.6261783188173204 23.9797341802046837 O
  atom 1.9660139761560416 25.5582107161223178 23.9797341898276848 O
  atom 5.8980419413470422 25.5582107194043182 23.9797341883336834 O
  atom 9.8300699065380410 25.5582107226863187 23.9797341868396856 O
  atom 13.7620978717290399 25.5582107259683191 23.9797341853456842 O
  atom 17.6941258369200440 25.5582107292503196 23.9797341838516864 O
  atom 21.6261538021110447 25.5582107325323200 23.9797341823576851 O
  atom 25.5581817673020453 25.5582107358143205 23.9797341808636837 O
  atom 29.4902097324930459 25.5582107390963174 23.9797341793696859 O
  atom 1.9660139794380416 29.4902431364013182 23.9797341889926834 O
  atom 5.8980419446290417 29.4902431396833187 23.9797341874986856 O
  atom 9.8300699098200415 29.4902431429653191 23.9797341860046842 O
  atom 13.7620978750110403 29.4902431462473196 23.9797341845106864 O
  atom 17.6941258402020445 29.4902431495293200 23.9797341830166850 O
  atom 21.6261538053930451 29.4902431528113205 23.9797341815226837 O
  atom 25.5581817705840457 29.4902431560933174 23.9797341800286858 O
  atom 29.4902097357750463 29.4902431593753178 23.9797341785346845 O
  atom 1.9660139550130415 1.9660161936393206 27.9619430436616838 O
  atom 5.8980419202040419 1.9660161969213206 27.9619430421676860 O
  atom 9.8300698853950426 1.9660162002033206 27.9619430406736846 O
  atom 13.7620978505860414 1.9660162034853206 27.9619430391796833 O
  atom 17.6941258157770420 1.9660162067673206 27.9619430376856855 O
  atom 21.6261537809680426 1.9660162100493206 27.9619430361916841 O
  atom 25.5581817461590433 1.9660162133313206 27.9619430346976863 O
  atom 29.4902097113500439 1.9660162166133206 27.9619430332036849 O
  atom 1.9660139582950416 5.8980486139183208 27.9619430428266860 O
  atom 5.8980419234860415 5.8980486172003204 27.9619430413326846 O
  atom 9.8300698886770430 5.8980486204823208 27.9619430398386832 O
  atom 13.7620978538680419 5.8980486237643204 27.9619430383446854 O
  atom 17.6941258190590425 5.8980486270463208 27.9619430368506841 O
  atom 21.6261537842500431 5.8980486303283204 27.9619430353566862 O
  atom 25.5581817494410437 5.8980486336103208 27.9619430338626849 O
  atom 29.4902097146320443 5.8980486368923204 27.9619430323686835 O
  atom 1.9660139615770416 9.8300810341973204 27.9619430419916846 O
  atom 5.8980419267680420 9.8300810374793191 27.9619430404976832 O
  atom 9.8300698919590417 9.8300810407613195 27.9619430390036854 O
  atom 13.7620978571500405 9.8300810440433199 27.9619430375096840 O
  atom 17.6941258223410429 9.8300810473253204 27.9619430360156862 O
  atom 21.6261537875320435 9.8300810506073191 27.9619430345216848 O
  atom 25.5581817527230442 9.8300810538893195 27.9619430330276835 O
  atom 29.4902097179140448 9.8300810571713200 27.9619430315336857 O
  atom 1.9660139648590416 13.7621134544763191 27.9619430411566832 O
  atom 5.8980419300500415 13.7621134577583195 27.9619430396626854 O
  atom 9.8300698952410421 13.7621134610403200 27.9619430381686840 O
  atom 13.7620978604320410 13.7621134643223204 27.9619430366746862 O
  atom 17.6941258256230434 13.7621134676043191 27.9619430351806848 O
  atom 21.6261537908140440 13.7621134708863195 27.9619430336866834 O
  atom 25.5581817560050446 13.7621134741683200 27.9619430321926856 O
  atom 29.4902097211960452 13.7621134774503204 27.9619430306986843 O
  atom 1.9660139681410416 17.6941458747553213 27.9619430403216853 O
  atom 5.8980419333320420 17.6941458780373182 27.9619430388276839 O
  atom 9.8300698985230426 17.6941458813193186 27.9619430373336861 O
  atom 13.7620978637140414 17.6941458846013191 27.9619430358396848 O
  atom 17.6941258289050438 17.6941458878833195 27.9619430343456834 O
  atom 21.6261537940960444 17.6941458911653200 27.9619430328516856 O
  atom 25.5581817592870451 17.6941458944473204 27.9619430313576842 O
  atom 29.4902097244780457 17.6941458977293209 27.9619430298636864 O
  atom 1.9660139714230416 21.6261782950343182 27.9619430394866839 O
  atom 5.8980419366140415 21.6261782983163187 27.9619430379926861 O
  atom 9.8300699018050430 21.6261783015983191 27.9619430364986847 O
  atom 13.7620978669960419 21.6261783048803196 27.9619430350046834 O
  atom 17.6941258321870443 21.6261783081623200 27.9619430335106856 O
  atom 21.6261537973780449 21.6261783114443205 27.9619430320166842 O
  atom 25.5581817625690455 21.6261783147263209 27.9619430305226864 O
  atom 29.4902097277600461 21.6261783180083214 27.9619430290286850 O
  atom 1.9660139747050416 25.5582107153133187 27.9619430386516861 O
  atom 5.8980419398960420 25.5582107185953191 27.9619430371576847 O
  atom 9.8300699050870417 25.5582107218773196 27.9619430356636833 O
  atom 13.7620978702780405 25.5582107251593200 27.9619430341696855 O
  atom 17.6941258354690447 25.5582107284413205 27.9619430326756842 O
  atom 21.6261538006600453 25.5582107317233209 27.9619430311816863 O
  atom 25.5581817658510460 25.5582107350053214 27.9619430296876850 O
  atom 29.4902097310420466 25.5582107382873183 27.9619430281936836 O
  atom 1.9660139779870416 29.4902431355923191 27.9619430378166847 O
  atom 5.8980419431780415 29.4902431388743196 27.9619430363226833 O
  atom 9.8300699083690422 29.4902431421563200 27.9619430348286855 O
  atom 13.7620978735600410 29.4902431454383205 27.9619430333346841 O
  atom 17.6941258387510452 29.4902431487203209 27.9619430318406863 O
  atom 21.6261538039420458 29.4902431520023214 27.9619430303466849 O
  atom 25.5581817691330464 29.4902431552843183 27.9619430288526836 O
  atom 29.4902097343240470 29.4902431585663187 27.9619430273586858 O
  atom 1.9660137661711119 1.9660158565244243 1.9398219700009369 Ti
  atom 5.8980417313621114 1.9660158598064243 1.9398219685069371 Ti
  atom 9.8300696965531120 1.9660158630884244 1.9398219670129371 Ti
  atom 13.7620976617441126 1.9660158663704244 1.9398219655189370 Ti
  atom 17.6941256269351079 1.9660158696524244 1.9398219640249370 Ti
  atom 21.6261535921261085 1.9660158729344244 1.9398219625309370 Ti
  atom 25.5581815573171092 1.9660158762164244 1.9398219610369369 Ti
  atom 29.4902095225081098 1.9660158794984244 1.9398219595429371 Ti
  atom 1.9660137694531119 5.8980482768034248 1.9398219691659371 Ti
  atom 5.8980417346441119 5.8980482800854244 1.9398219676719370 Ti
  atom 9.8300696998351107 5.8980482833674248 1.9398219661779370 Ti
  atom 13.7620976650261113 5.8980482866494244 1.9398219646839370 Ti
  atom 17.6941256302171084 5.8980482899314248 1.9398219631899369 Ti
  atom 21.6261535954081090 5.8980482932134244 1.9398219616959371 Ti
  atom 25.5581815605991096 5.8980482964954248 1.9398219602019371 Ti
  atom 29.4902095257901102 5.8980482997774244 1.9398219587079371 Ti
  atom 1.9660137727351119 9.8300806970824262 1.9398219683309370 Ti
  atom 5.8980417379261114 9.8300807003644248 1.9398219668369370 Ti
  atom 9.8300697031171111 9.8300807036464253 1.9398219653429369 Ti
  atom 13.7620976683081118 9.8300807069284257 1.9398219638489371 Ti
  atom 17.6941256334991088 9.8300807102104262 1.9398219623549371 Ti
  atom 21.6261535986901094 9.8300807134924248 1.9398219608609371 Ti
  atom 25.5581815638811101 9.8300807167744253 1.9398219593669370 Ti
  atom 29.4902095290721107 9.8300807200564257 1.9398219578729370 Ti
  atom 1.9660137760171119 13.7621131173614248 1.9398219674959369 Ti
  atom 5.8980417412081119 13.7621131206434253 1.9398219660019371 Ti
  atom 9.8300697063991116 13.7621131239254257 1.9398219645079371 Ti
  atom 13.7620976715901122 13.7621131272074262 1.9398219630139371 Ti
  atom 17.6941256367811093 13.7621131304894249 1.9398219615199370 Ti
  atom 21.6261536019721099 13.7621131337714253 1.9398219600259370 Ti
  atom 25.5581815671631105 13.7621131370534258 1.9398219585319370 Ti
  atom 29.4902095323541111 13.7621131403354262 1.9398219570379369 Ti
  atom 1.9660137792991119 17.6941455376404235 1.9398219666609371 Ti
  atom 5.8980417444901114 17.6941455409224240 1.9398219651669371 Ti
  atom 9.8300697096811120 17.6941455442044244 1.9398219636729370 Ti
  atom 13.7620976748721127 17.6941455474864249 1.9398219621789370 Ti
  atom 17.6941256400631097 17.6941455507684253 1.9398219606849370 Ti
  atom 21.6261536052541103 17.6941455540504222 1.9398219591909369 Ti
  atom 25.5581815704451110 17.6941455573324227 1.9398219576969371 Ti
  atom 29.4902095356361116 17.6941455606144231 1.9398219562029371 Ti
  atom 1.9660137825811119 21.6261779579194240 1.9398219658259370 Ti
  atom 5.8980417477721119 21.6261779612014244 1.9398219643319370 Ti
  atom 9.8300697129631107 21.6261779644834249 1.9398219628379370 Ti
  atom 13.7620976781541113 21.6261779677654253 1.9398219613439369 Ti
  atom 17.6941256433451102 21.6261779710474222 1.9398219598499371 Ti
  atom 21.6261536085361108 21.6261779743294227 1.9398219583559371 Ti
  atom 25.5581815737271114 21.6261779776114231 1.9398219568619370 Ti
  atom 29.4902095389181120 21.6261779808934236 1.9398219553679370 Ti
  atom 1.9660137858631119 25.5582103781984245 1.9398219649909370 Ti
  atom 5.8980417510541114 25.5582103814804249 1.9398219634969369 Ti
  atom 9.8300697162451112 25.5582103847624253 1.9398219620029371 Ti
  atom 13.7620976814361118 25.5582103880444222 1.9398219605089371 Ti
  atom 17.6941256466271106 25.5582103913264227 1.9398219590149370 Ti
  atom 21.6261536118181112 25.5582103946084231 1.9398219575209370 Ti
  atom 25.5581815770091119 25.5582103978904236 1.9398219560269370 Ti
  atom 29.4902095422001125 25.5582104011724240 1.9398219545329369 Ti
  atom 1.9660137891451117 29.4902427984774249 1.9398219641559371 Ti
  atom 5.8980417543361119 29.4902428017594254 1.9398219626619371 Ti
  atom 9.8300697195271116 29.4902428050414223 1.9398219611679370 Ti
  atom 13.7620976847181122 29.4902428083234227 1.9398219596739370 Ti
  atom 17.6941256499091075 29.4902428116054232 1.9398219581799370 Ti
  atom 21.6261536151001081 29.4902428148874236 1.9398219566859369 Ti
  atom 25.5581815802911088 29.4902428181694241 1.9398219551919371 Ti
  atom 29.4902095454821094 29.4902428214514245 1.9398219536979371 Ti
  atom 1.9660137647201119 1.9660158557154244 5.9220308188249371 Ti
  atom 5.8980417299111112 1.9660158589974244 5.9220308173309366 Ti
  atom 9.8300696951021127 1.9660158622794244 5.9220308158369370 Ti
  atom 13.7620976602931133 1.9660158655614244 5.9220308143429365 Ti
  atom 17.6941256254841086 1.9660158688434244 5.9220308128489370 Ti
  atom 21.6261535906751092 1.9660158721254244 5.9220308113549374 Ti
  atom 25.5581815558661098 1.9660158754074244 5.9220308098609369 Ti
  atom 29.4902095210571105 1.9660158786894244 5.9220308083669373 Ti
  atom 1.9660137680021119 5.8980482759944248 5.9220308179899366 Ti
  atom 5.8980417331931116 5.8980482792764244 5.9220308164959370 Ti
  atom 9.8300696983841114 5.8980482825584248 5.9220308150019374 Ti
  atom 13.7620976635751120 5.8980482858404244 5.9220308135079369 Ti
  atom 17.6941256287661091 5.8980482891224248 5.9220308120139373 Ti
  atom 21.6261535939571097 5.8980482924044244 5.9220308105199368 Ti
  atom 25.5581815591481103 5.8980482956864249 5.9220308090259373 Ti
  atom 29.4902095243391109 5.8980482989684244 5.9220308075319368 Ti
  atom 1.9660137712841119 9.8300806962734253 5.9220308171549370 Ti
  atom 5.8980417364751112 9.8300806995554240 5.9220308156609374 Ti
  atom 9.8300697016661118 9.8300807028374244 5.9220308141669369 Ti
  atom 13.7620976668571124 9.8300807061194249 5.9220308126729373 Ti
  atom 17.6941256320481095 9.8300807094014253 5.9220308111789368 Ti
  atom 21.6261535972391101 9.8300807126834240 5.9220308096849372 Ti
  atom 25.5581815624301107 9.8300807159654244 5.9220308081909367 Ti
  atom 29.4902095276211114 9.8300807192474249 5.9220308066969372 Ti
  atom 1.9660137745661119 13.7621131165524240 5.9220308163199373 Ti
  atom 5.8980417397571117 13.7621131198344244 5.9220308148259369 Ti
  atom 9.8300697049481123 13.7621131231164249 5.9220308133319373 Ti
  atom 13.7620976701391129 13.7621131263984253 5.9220308118379368 Ti
  atom 17.6941256353301100 13.7621131296804240 5.9220308103439372 Ti
  atom 21.6261536005211106 13.7621131329624244 5.9220308088499367 Ti
  atom 25.5581815657121112 13.7621131362444249 5.9220308073559371 Ti
  atom 29.4902095309031118 13.7621131395264253 5.9220308058619366 Ti
  atom 1.9660137778481119 17.6941455368314244 5.9220308154849368 Ti
  atom 5.8980417430391112 17.6941455401134249 5.9220308139909372 Ti
  atom 9.8300697082301127 17.6941455433954253 5.9220308124969367 Ti
  atom 13.7620976734211133 17.6941455466774258 5.9220308110029372 Ti
  atom 17.6941256386121104 17.6941455499594262 5.9220308095089367 Ti
  atom 21.6261536038031110 17.6941455532414231 5.9220308080149371 Ti
  atom 25.5581815689941116 17.6941455565234236 5.9220308065209366 Ti
  atom 29.4902095341851123 17.6941455598054240 5.9220308050269370 Ti
  atom 1.9660137811301119 21.6261779571104249 5.9220308146499372 Ti
  atom 5.8980417463211117 21.6261779603924253 5.9220308131559367 Ti
  atom 9.8300697115121114 21.6261779636744258 5.9220308116619371 Ti
  atom 13.7620976767031120 21.6261779669564262 5.9220308101679366 Ti
  atom 17.6941256418941109 21.6261779702384231 5.9220308086739371 Ti
  atom 21.6261536070851115 21.6261779735204236 5.9220308071799366 Ti
  atom 25.5581815722761121 21.6261779768024240 5.9220308056859370 Ti
  atom 29.4902095374671127 21.6261779800844245 5.9220308041919374 Ti
  atom 1.9660137844121119 25.5582103773894254 5.9220308138149367 Ti
  atom 5.8980417496031112 25.5582103806714258 5.9220308123209371 Ti
  atom 9.8300697147941118 25.5582103839534263 5.9220308108269366 Ti
  atom 13.7620976799851125 25.5582103872354232 5.9220308093329370 Ti
  atom 17.6941256451761113 25.5582103905174236 5.9220308078389365 Ti
  atom 21.6261536103671119 25.5582103937994241 5.9220308063449369 Ti
  atom 25.5581815755581125 25.5582103970814245 5.9220308048509374 Ti
  atom 29.4902095407491132 25.5582104003634250 5.9220308033569369 Ti
  atom 1.9660137876941117 29.4902427976684258 5.9220308129799371 Ti
  atom 5.8980417528851117 29.4902428009504263 5.9220308114859366 Ti
  atom 9.8300697180761123 29.4902428042324232 5.9220308099919370 Ti
  atom 13.7620976832671129 29.4902428075144236 5.9220308084979374 Ti
  atom 17.6941256484581082 29.4902428107964241 5.9220308070039369 Ti
  atom 21.6261536136491088 29.4902428140784245 5.9220308055099373 Ti
  atom 25.5581815788401094 29.4902428173604250 5.9220308040159368 Ti
  atom 29.4902095440311101 29.4902428206424254 5.9220308025219373 Ti
  atom 1.9660137632691119 1.9660158549064244 9.9042396676489375 Ti
  atom 5.8980417284601110 1.9660158581884244 9.9042396661549361 Ti
  atom 9.8300696936511116 1.9660158614704244 9.9042396646609365 Ti
  atom 13.7620976588421122 1.9660158647524244 9.9042396631669369 Ti
  atom 17.6941256240331093 1.9660158680344244 9.9042396616729373 Ti
  atom 21.6261535892241099 1.9660158713164244 9.9042396601789378 Ti
  atom 25.5581815544151105 1.9660158745984244 9.9042396586849364 Ti
  atom 29.4902095196061111 1.9660158778804244 9.9042396571909368 Ti
  atom 1.9660137665511119 5.8980482751854248 9.9042396668139361 Ti
  atom 5.8980417317421114 5.8980482784674244 9.9042396653199365 Ti
  atom 9.8300696969331103 5.8980482817494249 9.9042396638259369 Ti
  atom 13.7620976621241109 5.8980482850314244 9.9042396623319373 Ti
  atom 17.6941256273151097 5.8980482883134249 9.9042396608379377 Ti
  atom 21.6261535925061104 5.8980482915954244 9.9042396593439364 Ti
  atom 25.5581815576971110 5.8980482948774249 9.9042396578499368 Ti
  atom 29.4902095228881116 5.8980482981594244 9.9042396563559372 Ti
  atom 1.9660137698331119 9.8300806954644262 9.9042396659789365 Ti
  atom 5.8980417350241110 9.8300806987464249 9.9042396644849369 Ti
  atom 9.8300697002151107 9.8300807020284253 9.9042396629909373 Ti
  atom 13.7620976654061113 9.8300807053104258 9.9042396614969377 Ti
  atom 17.6941256305971102 9.8300807085924262 9.9042396600029363 Ti
  atom 21.6261535957881108 9.8300807118744249 9.9042396585089367 Ti
  atom 25.5581815609791114 9.8300807151564253 9.9042396570149371 Ti
  atom 29.4902095261701120 9.8300807184384258 9.9042396555209375 Ti
  atom 1.9660137731151119 13.7621131157434249 9.9042396651439368 Ti
  atom 5.8980417383061114 13.7621131190254253 9.9042396636499372 Ti
  atom 9.8300697034971112 13.7621131223074258 9.9042396621559377 Ti
  atom 13.7620976686881118 13.7621131255894262 9.9042396606619363 Ti
  atom 17.6941256338791106 13.7621131288714249 9.9042396591679367 Ti
  atom 21.6261535990701113 13.7621131321534254 9.9042396576739371 Ti
  atom 25.5581815642611119 13.7621131354354258 9.9042396561799375 Ti
  atom 29.4902095294521125 13.7621131387174263 9.9042396546859361 Ti
  atom 1.9660137763971119 17.6941455360224218 9.9042396643089372 Ti
  atom 5.8980417415881110 17.6941455393044222 9.9042396628149376 Ti
  atom 9.8300697067791116 17.6941455425864227 9.9042396613209362 Ti
  atom 13.7620976719701122 17.6941455458684231 9.9042396598269367 Ti
  atom 17.6941256371611111 17.6941455491504236 9.9042396583329371 Ti
  atom 21.6261536023521117 17.6941455524324205 9.9042396568389375 Ti
  atom 25.5581815675431123 17.6941455557144209 9.9042396553449361 Ti
  atom 29.4902095327341129 17.6941455589964214 9.9042396538509365 Ti
  atom 1.9660137796791120 21.6261779563014223 9.9042396634739376 Ti
  atom 5.8980417448701115 21.6261779595834227 9.9042396619799362 Ti
  atom 9.8300697100611103 21.6261779628654232 9.9042396604859366 Ti
  atom 13.7620976752521109 21.6261779661474236 9.9042396589919370 Ti
  atom 17.6941256404431115 21.6261779694294205 9.9042396574979374 Ti
  atom 21.6261536056341122 21.6261779727114209 9.9042396560039361 Ti
  atom 25.5581815708251128 21.6261779759934214 9.9042396545099365 Ti
  atom 29.4902095360161134 21.6261779792754218 9.9042396530159369 Ti
  atom 1.9660137829611120 25.5582103765804227 9.9042396626389362 Ti
  atom 5.8980417481521110 25.5582103798624232 9.9042396611449366 Ti
  atom 9.8300697133431107 25.5582103831444236 9.9042396596509370 Ti
  atom 13.7620976785341114 25.5582103864264205 9.9042396581569374 Ti
  atom 17.6941256437251120 25.5582103897084210 9.9042396566629360 Ti
  atom 21.6261536089161126 25.5582103929904214 9.9042396551689365 Ti
  atom 25.5581815741071132 25.5582103962724219 9.9042396536749369 Ti
  atom 29.4902095392981138 25.5582103995544223 9.9042396521809373 Ti
  atom 1.9660137862431117 29.4902427968594232 9.9042396618039366 Ti
  atom 5.8980417514341115 29.4902428001414236 9.9042396603099370 Ti
  atom 9.8300697166251112 29.4902428034234205 9.9042396588159374 Ti
  atom 13.7620976818161118 29.4902428067054210 9.9042396573219378 Ti
  atom 17.6941256470071089 29.4902428099874214 9.9042396558279364 Ti
  atom 21.6261536121981095 29.4902428132694219 9.9042396543339368 Ti
  atom 25.5581815773891101 29.4902428165514223 9.9042396528399372 Ti
  atom 29.4902095425801107 29.4902428198334228 9.9042396513459376 Ti
  atom 1.9660137618181119 1.9660158540974244 13.8864485164729370 Ti
  atom 5.8980417270091117 1.9660158573794244 13.8864485149789374 Ti
  atom 9.8300696922001123 1.9660158606614244 13.8864485134849360 Ti
  atom 13.7620976573911129 1.9660158639434244 13.8864485119909364 Ti
  atom 17.6941256225821100 1.9660158672254244 13.8864485104969368 Ti
  atom 21.6261535877731106 1.9660158705074244 13.8864485090029373 Ti
  atom 25.5581815529641112 1.9660158737894244 13.8864485075089377 Ti
  atom 29.4902095181551118 1.9660158770714244 13.8864485060149363 Ti
  atom 1.9660137651001119 5.8980482743764249 13.8864485156379374 Ti
  atom 5.8980417302911121 5.8980482776584244 13.8864485141439360 Ti
  atom 9.8300696954821110 5.8980482809404249 13.8864485126499364 Ti
  atom 13.7620976606731116 5.8980482842224244 13.8864485111559368 Ti
  atom 17.6941256258641104 5.8980482875044249 13.8864485096619372 Ti
  atom 21.6261535910551110 5.8980482907864245 13.8864485081679376 Ti
  atom 25.5581815562461117 5.8980482940684249 13.8864485066739363 Ti
  atom 29.4902095214371123 5.8980482973504245 13.8864485051799367 Ti
  atom 1.9660137683821119 9.8300806946554253 13.8864485148029377 Ti
  atom 5.8980417335731117 9.8300806979374240 13.8864485133089364 Ti
  atom 9.8300696987641114 9.8300807012194245 13.8864485118149368 Ti
  atom 13.7620976639551120 9.8300807045014249 13.8864485103209372 Ti
  atom 17.6941256291461109 9.8300807077834254 13.8864485088269376 Ti
  atom 21.6261535943371115 9.8300807110654240 13.8864485073329362 Ti
  atom 25.5581815595281121 9.8300807143474245 13.8864485058389366 Ti
  atom 29.4902095247191127 9.8300807176294249 13.8864485043449370 Ti
  atom 1.9660137716641120 13.7621131149344240 13.8864485139679363 Ti
  atom 5.8980417368551121 13.7621131182164245 13.8864485124739367 Ti
  atom 9.8300697020461119 13.7621131214984249 13.8864485109799372 Ti
  atom 13.7620976672371125 13.7621131247804254 13.8864485094859376 Ti
  atom 17.6941256324281113 13.7621131280624240 13.8864485079919362 Ti
  atom 21.6261535976191119 13.7621131313444245 13.8864485064979366 Ti
  atom 25.5581815628101126 13.7621131346264249 13.8864485050039370 Ti
  atom 29.4902095280011132 13.7621131379084254 13.8864485035099374 Ti
  atom 1.9660137749461120 17.6941455352134227 13.8864485131329367 Ti
  atom 5.8980417401371117 17.6941455384954232 13.8864485116389371 Ti
  atom 9.8300697053281123 17.6941455417774236 13.8864485101449375 Ti
  atom 13.7620976705191129 17.6941455450594241 13.8864485086509362 Ti
  atom 17.6941256357101118 17.6941455483414245 13.8864485071569366 Ti
  atom 21.6261536009011124 17.6941455516234214 13.8864485056629370 Ti
  atom 25.5581815660921130 17.6941455549054218 13.8864485041689374 Ti
  atom 29.4902095312831136 17.6941455581874223 13.8864485026749360 Ti
  atom 1.9660137782281120 21.6261779554924232 13.8864485122979371 Ti
  atom 5.8980417434191121 21.6261779587744236 13.8864485108039375 Ti
  atom 9.8300697086101110 21.6261779620564241 13.8864485093099361 Ti
  atom 13.7620976738011116 21.6261779653384245 13.8864485078159365 Ti
  atom 17.6941256389921122 21.6261779686204214 13.8864485063219369 Ti
  atom 21.6261536041831128 21.6261779719024219 13.8864485048279374 Ti
  atom 25.5581815693741135 21.6261779751844223 13.8864485033339360 Ti
  atom 29.4902095345651141 21.6261779784664228 13.8864485018399364 Ti
  atom 1.9660137815101120 25.5582103757714236 13.8864485114629375 Ti
  atom 5.8980417467011117 25.5582103790534241 13.8864485099689361 Ti
  atom 9.8300697118921114 25.5582103823354245 13.8864485084749365 Ti
  atom 13.7620976770831120 25.5582103856174214 13.8864485069809369 Ti
  atom 17.6941256422741127 25.5582103888994219 13.8864485054869373 Ti
  atom 21.6261536074651133 25.5582103921814223 13.8864485039929377 Ti
  atom 25.5581815726561139 25.5582103954634228 13.8864485024989364 Ti
  atom 29.4902095378471145 25.5582103987454232 13.8864485010049368 Ti
  atom 1.9660137847921118 29.4902427960504241 13.8864485106279361 Ti
  atom 5.8980417499831121 29.4902427993324245 13.8864485091339365 Ti
  atom 9.8300697151741119 29.4902428026144214 13.8864485076399369 Ti
  atom 13.7620976803651125 29.4902428058964219 13.8864485061459373 Ti
  atom 17.6941256455561096 29.4902428091784223 13.8864485046519377 Ti
  atom 21.6261536107471102 29.4902428124604228 13.8864485031579363 Ti
  atom 25.5581815759381108 29.4902428157424232 13.8864485016639367 Ti
  atom 29.4902095411291114 29.4902428190244237 13.8864485001699371 Ti
  atom 1.9660137603671120 1.9660158532884244 17.8686573652969365 Ti
  atom 5.8980417255581115 1.9660158565704244 17.8686573638029351 Ti
  atom 9.8300696907491112 1.9660158598524244 17.8686573623089338 Ti
  atom 13.7620976559401118 1.9660158631344244 17.8686573608149359 Ti
  atom 17.6941256211311106 1.9660158664164245 17.8686573593209346 Ti
  atom 21.6261535863221113 1.9660158696984245 17.8686573578269368 Ti
  atom 25.5581815515131119 1.9660158729804245 17.8686573563329354 Ti
  atom 29.4902095167041125 1.9660158762624245 17.8686573548389340 Ti
  atom 1.9660137636491120 5.8980482735674249 17.8686573644619351 Ti
  atom 5.8980417288401119 5.8980482768494245 17.8686573629679337 Ti
  atom 9.8300696940311099 5.8980482801314249 17.8686573614739359 Ti
  atom 13.7620976592221105 5.8980482834134245 17.8686573599799345 Ti
  atom 17.6941256244131111 5.8980482866954249 17.8686573584859367 Ti
  atom 21.6261535896041117 5.8980482899774245 17.8686573569919354 Ti
  atom 25.5581815547951123 5.8980482932594249 17.8686573554979340 Ti
  atom 29.4902095199861130 5.8980482965414245 17.8686573540039362 Ti
  atom 1.9660137669311120 9.8300806938464262 17.8686573636269337 Ti
  atom 5.8980417321221115 9.8300806971284249 17.8686573621329359 Ti
  atom 9.8300696973131103 9.8300807004104254 17.8686573606389345 Ti
  atom 13.7620976625041109 9.8300807036924258 17.8686573591449367 Ti
  atom 17.6941256276951115 9.8300807069744263 17.8686573576509353 Ti
  atom 21.6261535928861122 9.8300807102564249 17.8686573561569340 Ti
  atom 25.5581815580771128 9.8300807135384254 17.8686573546629361 Ti
  atom 29.4902095232681134 9.8300807168204258 17.8686573531689348 Ti
  atom 1.9660137702131120 13.7621131141254249 17.8686573627919358 Ti
  atom 5.8980417354041119 13.7621131174074254 17.8686573612979345 Ti
  atom 9.8300697005951108 13.7621131206894258 17.8686573598039367 Ti
  atom 13.7620976657861114 13.7621131239714263 17.8686573583099353 Ti
  atom 17.6941256309771120 13.7621131272534249 17.8686573568159339 Ti
  atom 21.6261535961681126 13.7621131305354254 17.8686573553219361 Ti
  atom 25.5581815613591132 13.7621131338174258 17.8686573538279347 Ti
  atom 29.4902095265501138 13.7621131370994263 17.8686573523339334 Ti
  atom 1.9660137734951120 17.6941455344044236 17.8686573619569344 Ti
  atom 5.8980417386861115 17.6941455376864241 17.8686573604629366 Ti
  atom 9.8300697038771112 17.6941455409684245 17.8686573589689353 Ti
  atom 13.7620976690681118 17.6941455442504250 17.8686573574749339 Ti
  atom 17.6941256342591124 17.6941455475324254 17.8686573559809361 Ti
  atom 21.6261535994501131 17.6941455508144223 17.8686573544869347 Ti
  atom 25.5581815646411137 17.6941455540964228 17.8686573529929333 Ti
  atom 29.4902095298321143 17.6941455573784232 17.8686573514989355 Ti
  atom 1.9660137767771120 21.6261779546834241 17.8686573611219366 Ti
  atom 5.8980417419681119 21.6261779579654245 17.8686573596279352 Ti
  atom 9.8300697071591099 21.6261779612474250 17.8686573581339339 Ti
  atom 13.7620976723501105 21.6261779645294254 17.8686573566399360 Ti
  atom 17.6941256375411129 21.6261779678114223 17.8686573551459347 Ti
  atom 21.6261536027321135 21.6261779710934228 17.8686573536519333 Ti
  atom 25.5581815679231141 21.6261779743754232 17.8686573521579355 Ti
  atom 29.4902095331141147 21.6261779776574237 17.8686573506639341 Ti
  atom 1.9660137800591120 25.5582103749624245 17.8686573602869352 Ti
  atom 5.8980417452501115 25.5582103782444250 17.8686573587929338 Ti
  atom 9.8300697104411103 25.5582103815264254 17.8686573572989360 Ti
  atom 13.7620976756321109 25.5582103848084223 17.8686573558049346 Ti
  atom 17.6941256408231133 25.5582103880904228 17.8686573543109333 Ti
  atom 21.6261536060141140 25.5582103913724232 17.8686573528169355 Ti
  atom 25.5581815712051146 25.5582103946544237 17.8686573513229341 Ti
  atom 29.4902095363961152 25.5582103979364241 17.8686573498289363 Ti
  atom 1.9660137833411118 29.4902427952414250 17.8686573594519338 Ti
  atom 5.8980417485321119 29.4902427985234254 17.8686573579579360 Ti
  atom 9.8300697137231108 29.4902428018054223 17.8686573564639346 Ti
  atom 13.7620976789141114 29.4902428050874228 17.8686573549699368 Ti
  atom 17.6941256441051102 29.4902428083694232 17.8686573534759354 Ti
  atom 21.6261536092961109 29.4902428116514237 17.8686573519819341 Ti
  atom 25.5581815744871115 29.4902428149334241 17.8686573504879362 Ti
  atom 29.4902095396781121 29.4902428182154246 17.8686573489939349 Ti
  atom 1.9660137589161120 1.9660158524794245 21.8508662141209342 Ti
  atom 5.8980417241071112 1.9660158557614245 21.8508662126269364 Ti
  atom 9.8300696892981119 1.9660158590434245 21.8508662111329350 Ti
  atom 13.7620976544891125 1.9660158623254245 21.8508662096389337 Ti
  atom 17.6941256196801113 1.9660158656074245 21.8508662081449359 Ti
  atom 21.6261535848711119 1.9660158688894245 21.8508662066509345 Ti
  atom 25.5581815500621126 1.9660158721714245 21.8508662051569367 Ti
  atom 29.4902095152531132 1.9660158754534245 21.8508662036629353 Ti
  atom 1.9660137621981120 5.8980482727584249 21.8508662132859364 Ti
  atom 5.8980417273891117 5.8980482760404245 21.8508662117919350 Ti
  atom 9.8300696925801105 5.8980482793224249 21.8508662102979336 Ti
  atom 13.7620976577711112 5.8980482826044245 21.8508662088039358 Ti
  atom 17.6941256229621118 5.8980482858864249 21.8508662073099345 Ti
  atom 21.6261535881531124 5.8980482891684245 21.8508662058159366 Ti
  atom 25.5581815533441130 5.8980482924504249 21.8508662043219353 Ti
  atom 29.4902095185351136 5.8980482957324245 21.8508662028279339 Ti
  atom 1.9660137654801120 9.8300806930374254 21.8508662124509350 Ti
  atom 5.8980417306711113 9.8300806963194240 21.8508662109569336 Ti
  atom 9.8300696958621110 9.8300806996014245 21.8508662094629358 Ti
  atom 13.7620976610531116 9.8300807028834249 21.8508662079689344 Ti
  atom 17.6941256262441122 9.8300807061654254 21.8508662064749366 Ti
  atom 21.6261535914351128 9.8300807094474241 21.8508662049809352 Ti
  atom 25.5581815566261135 9.8300807127294245 21.8508662034869339 Ti
  atom 29.4902095218171141 9.8300807160114250 21.8508662019929361 Ti
  atom 1.9660137687621120 13.7621131133164241 21.8508662116159336 Ti
  atom 5.8980417339531117 13.7621131165984245 21.8508662101219358 Ti
  atom 9.8300696991441114 13.7621131198804250 21.8508662086279344 Ti
  atom 13.7620976643351121 13.7621131231624254 21.8508662071339366 Ti
  atom 17.6941256295261127 13.7621131264444241 21.8508662056399352 Ti
  atom 21.6261535947171133 13.7621131297264245 21.8508662041459338 Ti
  atom 25.5581815599081139 13.7621131330084250 21.8508662026519360 Ti
  atom 29.4902095250991145 13.7621131362904254 21.8508662011579347 Ti
  atom 1.9660137720441120 17.6941455335954245 21.8508662107809357 Ti
  atom 5.8980417372351113 17.6941455368774250 21.8508662092869343 Ti
  atom 9.8300697024261119 17.6941455401594254 21.8508662077929365 Ti
  atom 13.7620976676171125 17.6941455434414259 21.8508662062989352 Ti
  atom 17.6941256328081131 17.6941455467234263 21.8508662048049338 Ti
  atom 21.6261535979991137 17.6941455500054232 21.8508662033109360 Ti
  atom 25.5581815631901144 17.6941455532874237 21.8508662018169346 Ti
  atom 29.4902095283811150 17.6941455565694241 21.8508662003229333 Ti
  atom 1.9660137753261120 21.6261779538744250 21.8508662099459343 Ti
  atom 5.8980417405171117 21.6261779571564254 21.8508662084519365 Ti
  atom 9.8300697057081106 21.6261779604384259 21.8508662069579351 Ti
  atom 13.7620976708991112 21.6261779637204263 21.8508662054639338 Ti
  atom 17.6941256360901136 21.6261779670024232 21.8508662039699360 Ti
  atom 21.6261536012811142 21.6261779702844237 21.8508662024759346 Ti
  atom 25.5581815664721148 21.6261779735664241 21.8508662009819332 Ti
  atom 29.4902095316631154 21.6261779768484246 21.8508661994879354 Ti
  atom 1.9660137786081120 25.5582103741534254 21.8508662091109365 Ti
  atom 5.8980417437991113 25.5582103774354259 21.8508662076169351 Ti
  atom 9.8300697089901110 25.5582103807174263 21.8508662061229337 Ti
  atom 13.7620976741811116 25.5582103839994232 21.8508662046289359 Ti
  atom 17.6941256393721140 25.5582103872814237 21.8508662031349346 Ti
  atom 21.6261536045631146 25.5582103905634241 21.8508662016409367 Ti
  atom 25.5581815697541153 25.5582103938454246 21.8508662001469354 Ti
  atom 29.4902095349451159 25.5582103971274250 21.8508661986529340 Ti
  atom 1.9660137818901118 29.4902427944324259 21.8508662082759351 Ti
  atom 5.8980417470811117 29.4902427977144264 21.8508662067819337 Ti
  atom 9.8300697122721115 29.4902428009964233 21.8508662052879359 Ti
  atom 13.7620976774631121 29.4902428042784237 21.8508662037939345 Ti
  atom 17.6941256426541109 29.4902428075604242 21.8508662022999367 Ti
  atom 21.6261536078451115 29.4902428108424246 21.8508662008059353 Ti
  atom 25.5581815730361122 29.4902428141244251 21.8508661993119340 Ti
  atom 29.4902095382271128 29.4902428174064255 21.8508661978179362 Ti
  atom 1.9660137574651120 1.9660158516704245 25.8330750629449355 Ti
  atom 5.8980417226561110 1.9660158549524245 25.8330750614509341 Ti
  atom 9.8300696878471125 1.9660158582344245 25.8330750599569363 Ti
  atom 13.7620976530381132 1.9660158615164245 25.8330750584629349 Ti
  atom 17.6941256182291085 1.9660158647984245 25.8330750569689336 Ti
  atom 21.6261535834201091 1.9660158680804245 25.8330750554749358 Ti
  atom 25.5581815486111097 1.9660158713624245 25.8330750539809344 Ti
  atom 29.4902095138021103 1.9660158746444245 25.8330750524869366 Ti
  atom 1.9660137607471120 5.8980482719494249 25.8330750621099341 Ti
  atom 5.8980417259381115 5.8980482752314245 25.8330750606159363 Ti
  atom 9.8300696911291112 5.8980482785134249 25.8330750591219349 Ti
  atom 13.7620976563201118 5.8980482817954245 25.8330750576279335 Ti
  atom 17.6941256215111089 5.8980482850774250 25.8330750561339357 Ti
  atom 21.6261535867021095 5.8980482883594245 25.8330750546399344 Ti
  atom 25.5581815518931101 5.8980482916414250 25.8330750531459366 Ti
  atom 29.4902095170841108 5.8980482949234245 25.8330750516519352 Ti
  atom 1.9660137640291120 9.8300806922284263 25.8330750612749362 Ti
  atom 5.8980417292201111 9.8300806955104250 25.8330750597809349 Ti
  atom 9.8300696944111117 9.8300806987924254 25.8330750582869335 Ti
  atom 13.7620976596021123 9.8300807020744259 25.8330750567929357 Ti
  atom 17.6941256247931094 9.8300807053564263 25.8330750552989343 Ti
  atom 21.6261535899841100 9.8300807086384250 25.8330750538049365 Ti
  atom 25.5581815551751106 9.8300807119204254 25.8330750523109351 Ti
  atom 29.4902095203661112 9.8300807152024259 25.8330750508169338 Ti
  atom 1.9660137673111120 13.7621131125074250 25.8330750604399348 Ti
  atom 5.8980417325021115 13.7621131157894254 25.8330750589459335 Ti
  atom 9.8300696976931121 13.7621131190714259 25.8330750574519357 Ti
  atom 13.7620976628841127 13.7621131223534263 25.8330750559579343 Ti
  atom 17.6941256280751098 13.7621131256354250 25.8330750544639365 Ti
  atom 21.6261535932661104 13.7621131289174254 25.8330750529699351 Ti
  atom 25.5581815584571110 13.7621131321994259 25.8330750514759337 Ti
  atom 29.4902095236481117 13.7621131354814263 25.8330750499819359 Ti
  atom 1.9660137705931120 17.6941455327864219 25.8330750596049334 Ti
  atom 5.8980417357841111 17.6941455360684223 25.8330750581109356 Ti
  atom 9.8300697009751126 17.6941455393504228 25.8330750566169343 Ti
  atom 13.7620976661661132 17.6941455426324232 25.8330750551229364 Ti
  atom 17.6941256313571103 17.6941455459144237 25.8330750536289351 Ti
  atom 21.6261535965481109 17.6941455491964206 25.8330750521349337 Ti
  atom 25.5581815617391115 17.6941455524784210 25.8330750506409359 Ti
  atom 29.4902095269301121 17.6941455557604215 25.8330750491469345 Ti
  atom 1.9660137738751120 21.6261779530654223 25.8330750587699356 Ti
  atom 5.8980417390661115 21.6261779563474228 25.8330750572759342 Ti
  atom 9.8300697042571112 21.6261779596294232 25.8330750557819364 Ti
  atom 13.7620976694481119 21.6261779629114237 25.8330750542879350 Ti
  atom 17.6941256346391107 21.6261779661934206 25.8330750527939337 Ti
  atom 21.6261535998301113 21.6261779694754210 25.8330750512999359 Ti
  atom 25.5581815650211119 21.6261779727574215 25.8330750498059345 Ti
  atom 29.4902095302121126 21.6261779760394219 25.8330750483119367 Ti
  atom 1.9660137771571120 25.5582103733444228 25.8330750579349342 Ti
  atom 5.8980417423481111 25.5582103766264233 25.8330750564409364 Ti
  atom 9.8300697075391117 25.5582103799084237 25.8330750549469350 Ti
  atom 13.7620976727301123 25.5582103831904206 25.8330750534529336 Ti
  atom 17.6941256379211111 25.5582103864724210 25.8330750519589358 Ti
  atom 21.6261536031121118 25.5582103897544215 25.8330750504649345 Ti
  atom 25.5581815683031124 25.5582103930364219 25.8330750489709366 Ti
  atom 29.4902095334941130 25.5582103963184224 25.8330750474769353 Ti
  atom 1.9660137804391118 29.4902427936234233 25.8330750570999363 Ti
  atom 5.8980417456301115 29.4902427969054237 25.8330750556059350 Ti
  atom 9.8300697108211121 29.4902428001874206 25.8330750541119336 Ti
  atom 13.7620976760121128 29.4902428034694211 25.8330750526179358 Ti
  atom 17.6941256412031080 29.4902428067514215 25.8330750511239344 Ti
  atom 21.6261536063941087 29.4902428100334220 25.8330750496299366 Ti
  atom 25.5581815715851093 29.4902428133154224 25.8330750481359352 Ti
  atom 29.4902095367761099 29.4902428165974229 25.8330750466419339 Ti
  atom 1.9660137560141120 1.9660158508614245 29.8152839117689332 Ti
  atom 5.8980417212051117 1.9660158541434245 29.8152839102749354 Ti
  atom 9.8300696863961115 1.9660158574254245 29.8152839087809340 Ti
  atom 13.7620976515871121 1.9660158607074245 29.8152839072869362 Ti
  atom 17.6941256167781091 1.9660158639894245 29.8152839057929349 Ti
  atom 21.6261535819691098 1.9660158672714245 29.8152839042989335 Ti
  atom 25.5581815471601104 1.9660158705534245 29.8152839028049357 Ti
  atom 29.4902095123511110 1.9660158738354245 29.8152839013109343 Ti
  atom 1.9660137592961120 5.8980482711404250 29.8152839109339354 Ti
  atom 5.8980417244871122 5.8980482744224245 29.8152839094399340 Ti
  atom 9.8300696896781101 5.8980482777044250 29.8152839079459362 Ti
  atom 13.7620976548691107 5.8980482809864245 29.8152839064519348 Ti
  atom 17.6941256200601096 5.8980482842684250 29.8152839049579335 Ti
  atom 21.6261535852511102 5.8980482875504245 29.8152839034639356 Ti
  atom 25.5581815504421108 5.8980482908324250 29.8152839019699343 Ti
  atom 29.4902095156331114 5.8980482941144246 29.8152839004759365 Ti
  atom 1.9660137625781120 9.8300806914194254 29.8152839100989340 Ti
  atom 5.8980417277691117 9.8300806947014241 29.8152839086049362 Ti
  atom 9.8300696929601106 9.8300806979834245 29.8152839071109348 Ti
  atom 13.7620976581511112 9.8300807012654250 29.8152839056169334 Ti
  atom 17.6941256233421100 9.8300807045474254 29.8152839041229356 Ti
  atom 21.6261535885331106 9.8300807078294241 29.8152839026289342 Ti
  atom 25.5581815537241113 9.8300807111114246 29.8152839011349364 Ti
  atom 29.4902095189151119 9.8300807143934250 29.8152838996409351 Ti
  atom 1.9660137658601120 13.7621131116984241 29.8152839092639361 Ti
  atom 5.8980417310511122 13.7621131149804246 29.8152839077699348 Ti
  atom 9.8300696962421110 13.7621131182624250 29.8152839062759334 Ti
  atom 13.7620976614331116 13.7621131215444255 29.8152839047819356 Ti
  atom 17.6941256266241105 13.7621131248264241 29.8152839032879342 Ti
  atom 21.6261535918151111 13.7621131281084246 29.8152839017939364 Ti
  atom 25.5581815570061117 13.7621131313904250 29.8152839002999350 Ti
  atom 29.4902095221971123 13.7621131346724255 29.8152838988059337 Ti
  atom 1.9660137691421120 17.6941455319774228 29.8152839084289347 Ti
  atom 5.8980417343331117 17.6941455352594232 29.8152839069349334 Ti
  atom 9.8300696995241115 17.6941455385414237 29.8152839054409355 Ti
  atom 13.7620976647151121 17.6941455418234241 29.8152839039469342 Ti
  atom 17.6941256299061109 17.6941455451054246 29.8152839024529364 Ti
  atom 21.6261535950971115 17.6941455483874215 29.8152839009589350 Ti
  atom 25.5581815602881122 17.6941455516694219 29.8152838994649336 Ti
  atom 29.4902095254791128 17.6941455549514224 29.8152838979709358 Ti
  atom 1.9660137724241120 21.6261779522564233 29.8152839075939333 Ti
  atom 5.8980417376151122 21.6261779555384237 29.8152839060999355 Ti
  atom 9.8300697028061101 21.6261779588204242 29.8152839046059341 Ti
  atom 13.7620976679971108 21.6261779621024246 29.8152839031119363 Ti
  atom 17.6941256331881114 21.6261779653844215 29.8152839016179350 Ti
  atom 21.6261535983791120 21.6261779686664219 29.8152839001239336 Ti
  atom 25.5581815635701126 21.6261779719484224 29.8152838986299358 Ti
  atom 29.4902095287611132 21.6261779752304228 29.8152838971359344 Ti
  atom 1.9660137757061120 25.5582103725354237 29.8152839067589355 Ti
  atom 5.8980417408971118 25.5582103758174242 29.8152839052649341 Ti
  atom 9.8300697060881106 25.5582103790994246 29.8152839037709363 Ti
  atom 13.7620976712791112 25.5582103823814215 29.8152839022769349 Ti
  atom 17.6941256364701118 25.5582103856634220 29.8152839007829336 Ti
  atom 21.6261536016611124 25.5582103889454224 29.8152838992889357 Ti
  atom 25.5581815668521131 25.5582103922274229 29.8152838977949344 Ti
  atom 29.4902095320431137 25.5582103955094233 29.8152838963009366 Ti
  atom 1.9660137789881118 29.4902427928144242 29.8152839059239341 Ti
  atom 5.8980417441791122 29.4902427960964246 29.8152839044299363 Ti
  atom 9.8300697093701110 29.4902427993784215 29.8152839029359349 Ti
  atom 13.7620976745611117 29.4902428026604220 29.8152839014419335 Ti
  atom 17.6941256397521087 29.4902428059424224 29.8152838999479357 Ti
  atom 21.6261536049431093 29.4902428092244229 29.8152838984539343 Ti
  atom 25.5581815701341100 29.4902428125064233 29.8152838969599365 Ti
  atom 29.4902095353251106 29.4902428157884238 29.8152838954659352 Ti
  
  -----------------------------------------------------------------------
  Completed first pass over input file geometry.in .
  -----------------------------------------------------------------------
  

  Basic array size parameters:
  | Number of species                 :        3
  | Number of atoms                   :     2560
  | Number of lattice vectors         :        3
  | Max. basis fn. angular momentum   :        3
  | Max. atomic/ionic basis occupied n:        6
  | Max. number of basis fn. types    :        3
  | Max. radial fns per species/type  :       12
  | Max. logarithmic grid size        :     1460
  | Max. radial integration grid size :       65
  | Max. angular integration grid size:      194
  | Max. angular grid division number :        8
  | Radial grid for Hartree potential :     1460
  | Number of spin channels           :        1

  Definition of standardized fundamental physical constants in this FHI-aims run:
  | Using the set of values used in FHI-aims up to 2024, which combines values from
  | different CODATA sets - see constants.f90.
  | Use the 'codata' keyword in control.in to change this selection.

  Memory overcommitment is allowed on your operating system.

------------------------------------------------------------
          Reading file control.in.
------------------------------------------------------------
  XC: Using Perdew-Wang parametrisation of Ceperley-Alder LDA.
  Scalar relativistic treatment of kinetic energy: on-site free-atom approximation to ZORA.
  Found k-point grid:         2         2         2
  Convergence accuracy of self-consistent charge density:  0.1000E+00
  Maximum number of s.-c. iterations  :     1
  Postprocessing will be performed even if SCF does not converge.
  Using elsi_restart infrastructure.
  Restarting calculation from saved density matrices.
  Forcing the eigenvectors in the calculation to be COMPLEX.
  Usage of alltoall communication explicitly disabled.

  Polarization directive number:    1
  | Calculating polarization along reciprocal lattice vector 3 using    3 k-points parallel to this direction.
  | Full Brillouin zone sampling is thus performed on a     2 x     2 x     3 grid
 
  Reading configuration options for species Ba                  .
  | Found nuclear charge :  56.0000
  | Found atomic mass :    137.327000000000      amu
  | Found l_max for Hartree potential  :   4
  | Found cutoff potl. onset [A], width [A], scale factor :    5.00000    1.50000    1.00000
  | Threshold for basis-dependent cutoff potential is   0.100000E-03
  | Found data for basic radial integration grid :    65 points, outermost radius =    6.500 A
  | Found multiplier for basic radial grid :   1
  | Found angular grid specification: user-specified.
  | Specified grid contains     3 separate shells.
  | Check grid settings after all constraints further below.
  | Found free-atom valence shell :  6 s   2.000
  | Found free-atom valence shell :  5 p   6.000
  | Found free-atom valence shell :  4 d  10.000
  | Found free-ion valence shell :  6 s   1.000
  | Found free-ion valence shell :  5 p   6.000
  | Found free-ion valence shell :  4 d  10.000
  | Found ionic basis function :  5 d , default cutoff radius.
  | Found ionic basis function :  4 f , default cutoff radius.
  | Found hydrogenic basis function :  3 p   2.700
 | Encountered keyword species, ending the description of species Ba                  .
  Species Ba                  : Missing cutoff potential type.
  Defaulting to exp(1/x)/(1-x)^2 type cutoff potential.
  Species Ba: No 'logarithmic' tag. Using default grid for free atom:
  | Default logarithmic grid data [bohr] : 0.1000E-03 0.1000E+03 0.1012E+01
  | Will include ionic basis functions of  1.0-fold positive Ba                   ion.
  Species Ba: On-site basis accuracy parameter (for Gram-Schmidt orthonormalisation) not specified.
  Using default value basis_acc =  0.1000000E-03.
  Species Ba                  : Using default innermost maximum threshold i_radial=  2 for radial functions.
  Species Ba                  : Default cutoff onset for free atom density etc. : 0.50000000E+01 AA.
  Species Ba                  : Basic radial grid will be enhanced according to radial_multiplier =   1, to contain    65 grid points.
 
  Reading configuration options for species Ti                  .
  | Found nuclear charge :  22.0000
  | Found atomic mass :    47.8670000000000      amu
  | Found l_max for Hartree potential  :   4
  | Found cutoff potl. onset [A], width [A], scale factor :    3.50000    1.50000    1.00000
  | Threshold for basis-dependent cutoff potential is   0.100000E-03
  | Found data for basic radial integration grid :    48 points, outermost radius =    5.000 A
  | Found multiplier for basic radial grid :   1
  | Found angular grid specification: user-specified.
  | Specified grid contains     4 separate shells.
  | Check grid settings after all constraints further below.
  | Found free-atom valence shell :  4 s   2.000
  | Found free-atom valence shell :  3 p   6.000
  | Found free-atom valence shell :  3 d   2.000
  | Found free-ion valence shell :  4 s   1.000
  | Found free-ion valence shell :  3 p   6.000
  | Found free-ion valence shell :  3 d   1.000
  | Found hydrogenic basis function :  4 f   8.000
  | Found hydrogenic basis function :  3 d   2.700
  | Found ionic basis function :  4 p , default cutoff radius.
 | Encountered keyword species, ending the description of species Ti                  .
  Species Ti                  : Missing cutoff potential type.
  Defaulting to exp(1/x)/(1-x)^2 type cutoff potential.
  Species Ti: No 'logarithmic' tag. Using default grid for free atom:
  | Default logarithmic grid data [bohr] : 0.1000E-03 0.1000E+03 0.1012E+01
  | Will include ionic basis functions of  2.0-fold positive Ti                   ion.
  Species Ti: On-site basis accuracy parameter (for Gram-Schmidt orthonormalisation) not specified.
  Using default value basis_acc =  0.1000000E-03.
  Species Ti                  : Using default innermost maximum threshold i_radial=  2 for radial functions.
  Species Ti                  : Default cutoff onset for free atom density etc. : 0.35000000E+01 AA.
  Species Ti                  : Basic radial grid will be enhanced according to radial_multiplier =   1, to contain    48 grid points.
 
  Reading configuration options for species O                   .
  | Found nuclear charge :   8.0000
  | Found atomic mass :    15.9994000000000      amu
  | Found l_max for Hartree potential  :   4
  | Found cutoff potl. onset [A], width [A], scale factor :    3.50000    1.50000    1.00000
  | Threshold for basis-dependent cutoff potential is   0.100000E-03
  | Found data for basic radial integration grid :    36 points, outermost radius =    5.000 A
  | Found multiplier for basic radial grid :   1
  | Found angular grid specification: user-specified.
  | Specified grid contains     4 separate shells.
  | Check grid settings after all constraints further below.
  | Found free-atom valence shell :  2 s   2.000
  | Found free-atom valence shell :  2 p   4.000
  | Found free-ion valence shell :  2 s   1.000
  | Found free-ion valence shell :  2 p   3.000
  | Found hydrogenic basis function :  2 p   1.800
  | Found hydrogenic basis function :  3 d   7.600
  | Found hydrogenic basis function :  3 s   6.400
  Species O                   : Missing cutoff potential type.
  Defaulting to exp(1/x)/(1-x)^2 type cutoff potential.
  Species O : No 'logarithmic' tag. Using default grid for free atom:
  | Default logarithmic grid data [bohr] : 0.1000E-03 0.1000E+03 0.1012E+01
  Species O : On-site basis accuracy parameter (for Gram-Schmidt orthonormalisation) not specified.
  Using default value basis_acc =  0.1000000E-03.
  Species O                   : Using default innermost maximum threshold i_radial=  2 for radial functions.
  Species O                   : Default cutoff onset for free atom density etc. : 0.35000000E+01 AA.
  Species O                   : Basic radial grid will be enhanced according to radial_multiplier =   1, to contain    36 grid points.
 
  Finished reading input file 'control.in'.
 
------------------------------------------------------------


------------------------------------------------------------
          Reading geometry description geometry.in.
------------------------------------------------------------
  | The smallest distance between any two atoms is         1.85334087 AA.
  | The first atom of this pair is atom number                   2041 .
  | The second atom of this pair is atom number                  2553 .
  | Wigner-Seitz cell of the first atom image           0     0     0 .
  | (The Wigner-Seitz cell of the second atom is 0 0 0  by definition.)

  Symmetry information by spglib:
  | Precision set to  0.1E-04
  | Number of Operations  : 2048
  | Space group           : 25
  | International         : Pmm2
  | Schoenflies           : C2v^1
  Input structure read successfully.
  The structure contains     2560 atoms,  and a total of      52224.000 electrons.

  Input geometry:
  | Unit cell:
  |       31.45622372        0.00000003       -0.00000001
  |        0.00000003       31.45625936       -0.00000001
  |       -0.00000001       -0.00000001       31.85767079
  | Atomic structure:
  |       Atom                x [A]            y [A]            z [A]
  |    1: Species Ba            0.00000069        0.00000103        0.00466760
  |    2: Species Ba            3.93202865        0.00000103        0.00466759
  |    3: Species Ba            7.86405662        0.00000103        0.00466759
  |    4: Species Ba           11.79608458        0.00000104        0.00466759
  |    5: Species Ba           15.72811255        0.00000104        0.00466759
  |    6: Species Ba           19.66014051        0.00000104        0.00466759
  |    7: Species Ba           23.59216848        0.00000105        0.00466759
  |    8: Species Ba           27.52419644        0.00000105        0.00466759
  |    9: Species Ba            0.00000069        3.93203345        0.00466759
  |   10: Species Ba            3.93202865        3.93203345        0.00466759
  |   11: Species Ba            7.86405662        3.93203345        0.00466759
  |   12: Species Ba           11.79608458        3.93203346        0.00466759
  |   13: Species Ba           15.72811255        3.93203346        0.00466759
  |   14: Species Ba           19.66014051        3.93203346        0.00466759
  |   15: Species Ba           23.59216848        3.93203347        0.00466759
  |   16: Species Ba           27.52419644        3.93203347        0.00466758
  |   17: Species Ba            0.00000069        7.86406587        0.00466759
  |   18: Species Ba            3.93202866        7.86406587        0.00466759
  |   19: Species Ba            7.86405662        7.86406587        0.00466759
  |   20: Species Ba           11.79608459        7.86406588        0.00466759
  |   21: Species Ba           15.72811255        7.86406588        0.00466759
  |   22: Species Ba           19.66014052        7.86406588        0.00466759
  |   23: Species Ba           23.59216848        7.86406589        0.00466758
  |   24: Species Ba           27.52419645        7.86406589        0.00466758
  |   25: Species Ba            0.00000070       11.79609829        0.00466759
  |   26: Species Ba            3.93202866       11.79609829        0.00466759
  |   27: Species Ba            7.86405663       11.79609829        0.00466759
  |   28: Species Ba           11.79608459       11.79609830        0.00466759
  |   29: Species Ba           15.72811256       11.79609830        0.00466759
  |   30: Species Ba           19.66014052       11.79609830        0.00466759
  |   31: Species Ba           23.59216849       11.79609831        0.00466758
  |   32: Species Ba           27.52419645       11.79609831        0.00466758
  |   33: Species Ba            0.00000070       15.72813071        0.00466759
  |   34: Species Ba            3.93202866       15.72813071        0.00466759
  |   35: Species Ba            7.86405663       15.72813071        0.00466759
  |   36: Species Ba           11.79608459       15.72813072        0.00466759
  |   37: Species Ba           15.72811256       15.72813072        0.00466759
  |   38: Species Ba           19.66014052       15.72813072        0.00466758
  |   39: Species Ba           23.59216849       15.72813073        0.00466758
  |   40: Species Ba           27.52419645       15.72813073        0.00466758
  |   41: Species Ba            0.00000070       19.66016313        0.00466759
  |   42: Species Ba            3.93202867       19.66016313        0.00466759
  |   43: Species Ba            7.86405663       19.66016313        0.00466759
  |   44: Species Ba           11.79608460       19.66016314        0.00466759
  |   45: Species Ba           15.72811256       19.66016314        0.00466759
  |   46: Species Ba           19.66014053       19.66016314        0.00466758
  |   47: Species Ba           23.59216849       19.66016315        0.00466758
  |   48: Species Ba           27.52419646       19.66016315        0.00466758
  |   49: Species Ba            0.00000070       23.59219555        0.00466759
  |   50: Species Ba            3.93202867       23.59219555        0.00466759
  |   51: Species Ba            7.86405664       23.59219555        0.00466759
  |   52: Species Ba           11.79608460       23.59219556        0.00466759
  |   53: Species Ba           15.72811257       23.59219556        0.00466758
  |   54: Species Ba           19.66014053       23.59219556        0.00466758
  |   55: Species Ba           23.59216850       23.59219557        0.00466758
  |   56: Species Ba           27.52419646       23.59219557        0.00466758
  |   57: Species Ba            0.00000071       27.52422797        0.00466759
  |   58: Species Ba            3.93202867       27.52422797        0.00466759
  |   59: Species Ba            7.86405664       27.52422797        0.00466759
  |   60: Species Ba           11.79608460       27.52422798        0.00466759
  |   61: Species Ba           15.72811257       27.52422798        0.00466758
  |   62: Species Ba           19.66014053       27.52422798        0.00466758
  |   63: Species Ba           23.59216850       27.52422799        0.00466758
  |   64: Species Ba           27.52419646       27.52422799        0.00466758
  |   65: Species Ba            0.00000068        0.00000103        3.98687644
  |   66: Species Ba            3.93202865        0.00000103        3.98687644
  |   67: Species Ba            7.86405661        0.00000103        3.98687644
  |   68: Species Ba           11.79608458        0.00000104        3.98687644
  |   69: Species Ba           15.72811254        0.00000104        3.98687644
  |   70: Species Ba           19.66014051        0.00000104        3.98687644
  |   71: Species Ba           23.59216847        0.00000104        3.98687644
  |   72: Species Ba           27.52419644        0.00000105        3.98687643
  |   73: Species Ba            0.00000069        3.93203345        3.98687644
  |   74: Species Ba            3.93202865        3.93203345        3.98687644
  |   75: Species Ba            7.86405662        3.93203345        3.98687644
  |   76: Species Ba           11.79608458        3.93203346        3.98687644
  |   77: Species Ba           15.72811255        3.93203346        3.98687644
  |   78: Species Ba           19.66014051        3.93203346        3.98687644
  |   79: Species Ba           23.59216848        3.93203347        3.98687643
  |   80: Species Ba           27.52419644        3.93203347        3.98687643
  |   81: Species Ba            0.00000069        7.86406587        3.98687644
  |   82: Species Ba            3.93202866        7.86406587        3.98687644
  |   83: Species Ba            7.86405662        7.86406587        3.98687644
  |   84: Species Ba           11.79608459        7.86406588        3.98687644
  |   85: Species Ba           15.72811255        7.86406588        3.98687644
  |   86: Species Ba           19.66014052        7.86406588        3.98687644
  |   87: Species Ba           23.59216848        7.86406589        3.98687643
  |   88: Species Ba           27.52419645        7.86406589        3.98687643
  |   89: Species Ba            0.00000069       11.79609829        3.98687644
  |   90: Species Ba            3.93202866       11.79609829        3.98687644
  |   91: Species Ba            7.86405662       11.79609829        3.98687644
  |   92: Species Ba           11.79608459       11.79609830        3.98687644
  |   93: Species Ba           15.72811255       11.79609830        3.98687644
  |   94: Species Ba           19.66014052       11.79609830        3.98687643
  |   95: Species Ba           23.59216848       11.79609831        3.98687643
  |   96: Species Ba           27.52419645       11.79609831        3.98687643
  |   97: Species Ba            0.00000070       15.72813071        3.98687644
  |   98: Species Ba            3.93202866       15.72813071        3.98687644
  |   99: Species Ba            7.86405663       15.72813071        3.98687644
  |  100: Species Ba           11.79608459       15.72813072        3.98687644
  |  101: Species Ba           15.72811256       15.72813072        3.98687644
  |  102: Species Ba           19.66014052       15.72813072        3.98687643
  |  103: Species Ba           23.59216849       15.72813073        3.98687643
  |  104: Species Ba           27.52419645       15.72813073        3.98687643
  |  105: Species Ba            0.00000070       19.66016313        3.98687644
  |  106: Species Ba            3.93202867       19.66016313        3.98687644
  |  107: Species Ba            7.86405663       19.66016313        3.98687644
  |  108: Species Ba           11.79608460       19.66016314        3.98687644
  |  109: Species Ba           15.72811256       19.66016314        3.98687643
  |  110: Species Ba           19.66014053       19.66016314        3.98687643
  |  111: Species Ba           23.59216849       19.66016315        3.98687643
  |  112: Species Ba           27.52419646       19.66016315        3.98687643
  |  113: Species Ba            0.00000070       23.59219555        3.98687644
  |  114: Species Ba            3.93202867       23.59219555        3.98687644
  |  115: Species Ba            7.86405663       23.59219555        3.98687644
  |  116: Species Ba           11.79608460       23.59219556        3.98687643
  |  117: Species Ba           15.72811256       23.59219556        3.98687643
  |  118: Species Ba           19.66014053       23.59219556        3.98687643
  |  119: Species Ba           23.59216849       23.59219557        3.98687643
  |  120: Species Ba           27.52419646       23.59219557        3.98687643
  |  121: Species Ba            0.00000071       27.52422797        3.98687644
  |  122: Species Ba            3.93202867       27.52422797        3.98687644
  |  123: Species Ba            7.86405664       27.52422797        3.98687644
  |  124: Species Ba           11.79608460       27.52422798        3.98687643
  |  125: Species Ba           15.72811257       27.52422798        3.98687643
  |  126: Species Ba           19.66014053       27.52422798        3.98687643
  |  127: Species Ba           23.59216850       27.52422799        3.98687643
  |  128: Species Ba           27.52419646       27.52422799        3.98687643
  |  129: Species Ba            0.00000068        0.00000102        7.96908529
  |  130: Species Ba            3.93202865        0.00000103        7.96908529
  |  131: Species Ba            7.86405661        0.00000103        7.96908529
  |  132: Species Ba           11.79608458        0.00000103        7.96908529
  |  133: Species Ba           15.72811254        0.00000104        7.96908529
  |  134: Species Ba           19.66014051        0.00000104        7.96908529
  |  135: Species Ba           23.59216847        0.00000104        7.96908528
  |  136: Species Ba           27.52419644        0.00000105        7.96908528
  |  137: Species Ba            0.00000069        3.93203344        7.96908529
  |  138: Species Ba            3.93202865        3.93203345        7.96908529
  |  139: Species Ba            7.86405662        3.93203345        7.96908529
  |  140: Species Ba           11.79608458        3.93203345        7.96908529
  |  141: Species Ba           15.72811255        3.93203346        7.96908529
  |  142: Species Ba           19.66014051        3.93203346        7.96908528
  |  143: Species Ba           23.59216848        3.93203346        7.96908528
  |  144: Species Ba           27.52419644        3.93203347        7.96908528
  |  145: Species Ba            0.00000069        7.86406587        7.96908529
  |  146: Species Ba            3.93202865        7.86406587        7.96908529
  |  147: Species Ba            7.86405662        7.86406587        7.96908529
  |  148: Species Ba           11.79608458        7.86406587        7.96908529
  |  149: Species Ba           15.72811255        7.86406588        7.96908529
  |  150: Species Ba           19.66014051        7.86406588        7.96908528
  |  151: Species Ba           23.59216848        7.86406588        7.96908528
  |  152: Species Ba           27.52419645        7.86406589        7.96908528
  |  153: Species Ba            0.00000069       11.79609829        7.96908529
  |  154: Species Ba            3.93202866       11.79609829        7.96908529
  |  155: Species Ba            7.86405662       11.79609829        7.96908529
  |  156: Species Ba           11.79608459       11.79609830        7.96908529
  |  157: Species Ba           15.72811255       11.79609830        7.96908528
  |  158: Species Ba           19.66014052       11.79609830        7.96908528
  |  159: Species Ba           23.59216848       11.79609831        7.96908528
  |  160: Species Ba           27.52419645       11.79609831        7.96908528
  |  161: Species Ba            0.00000070       15.72813071        7.96908529
  |  162: Species Ba            3.93202866       15.72813071        7.96908529
  |  163: Species Ba            7.86405663       15.72813071        7.96908529
  |  164: Species Ba           11.79608459       15.72813072        7.96908529
  |  165: Species Ba           15.72811256       15.72813072        7.96908528
  |  166: Species Ba           19.66014052       15.72813072        7.96908528
  |  167: Species Ba           23.59216849       15.72813073        7.96908528
  |  168: Species Ba           27.52419645       15.72813073        7.96908528
  |  169: Species Ba            0.00000070       19.66016313        7.96908529
  |  170: Species Ba            3.93202866       19.66016313        7.96908529
  |  171: Species Ba            7.86405663       19.66016313        7.96908529
  |  172: Species Ba           11.79608459       19.66016314        7.96908528
  |  173: Species Ba           15.72811256       19.66016314        7.96908528
  |  174: Species Ba           19.66014052       19.66016314        7.96908528
  |  175: Species Ba           23.59216849       19.66016315        7.96908528
  |  176: Species Ba           27.52419646       19.66016315        7.96908528
  |  177: Species Ba            0.00000070       23.59219555        7.96908529
  |  178: Species Ba            3.93202867       23.59219555        7.96908529
  |  179: Species Ba            7.86405663       23.59219555        7.96908529
  |  180: Species Ba           11.79608460       23.59219556        7.96908528
  |  181: Species Ba           15.72811256       23.59219556        7.96908528
  |  182: Species Ba           19.66014053       23.59219556        7.96908528
  |  183: Species Ba           23.59216849       23.59219557        7.96908528
  |  184: Species Ba           27.52419646       23.59219557        7.96908528
  |  185: Species Ba            0.00000071       27.52422797        7.96908529
  |  186: Species Ba            3.93202867       27.52422797        7.96908529
  |  187: Species Ba            7.86405664       27.52422797        7.96908528
  |  188: Species Ba           11.79608460       27.52422798        7.96908528
  |  189: Species Ba           15.72811257       27.52422798        7.96908528
  |  190: Species Ba           19.66014053       27.52422798        7.96908528
  |  191: Species Ba           23.59216850       27.52422799        7.96908528
  |  192: Species Ba           27.52419646       27.52422799        7.96908528
  |  193: Species Ba            0.00000068        0.00000102       11.95129414
  |  194: Species Ba            3.93202865        0.00000103       11.95129414
  |  195: Species Ba            7.86405661        0.00000103       11.95129414
  |  196: Species Ba           11.79608458        0.00000103       11.95129414
  |  197: Species Ba           15.72811254        0.00000104       11.95129414
  |  198: Species Ba           19.66014051        0.00000104       11.95129413
  |  199: Species Ba           23.59216847        0.00000104       11.95129413
  |  200: Species Ba           27.52419644        0.00000105       11.95129413
  |  201: Species Ba            0.00000068        3.93203344       11.95129414
  |  202: Species Ba            3.93202865        3.93203345       11.95129414
  |  203: Species Ba            7.86405661        3.93203345       11.95129414
  |  204: Species Ba           11.79608458        3.93203345       11.95129414
  |  205: Species Ba           15.72811254        3.93203346       11.95129414
  |  206: Species Ba           19.66014051        3.93203346       11.95129413
  |  207: Species Ba           23.59216848        3.93203346       11.95129413
  |  208: Species Ba           27.52419644        3.93203347       11.95129413
  |  209: Species Ba            0.00000069        7.86406586       11.95129414
  |  210: Species Ba            3.93202865        7.86406587       11.95129414
  |  211: Species Ba            7.86405662        7.86406587       11.95129414
  |  212: Species Ba           11.79608458        7.86406587       11.95129414
  |  213: Species Ba           15.72811255        7.86406588       11.95129413
  |  214: Species Ba           19.66014051        7.86406588       11.95129413
  |  215: Species Ba           23.59216848        7.86406588       11.95129413
  |  216: Species Ba           27.52419644        7.86406589       11.95129413
  |  217: Species Ba            0.00000069       11.79609828       11.95129414
  |  218: Species Ba            3.93202866       11.79609829       11.95129414
  |  219: Species Ba            7.86405662       11.79609829       11.95129414
  |  220: Species Ba           11.79608459       11.79609829       11.95129414
  |  221: Species Ba           15.72811255       11.79609830       11.95129413
  |  222: Species Ba           19.66014052       11.79609830       11.95129413
  |  223: Species Ba           23.59216848       11.79609830       11.95129413
  |  224: Species Ba           27.52419645       11.79609831       11.95129413
  |  225: Species Ba            0.00000069       15.72813070       11.95129414
  |  226: Species Ba            3.93202866       15.72813071       11.95129414
  |  227: Species Ba            7.86405662       15.72813071       11.95129414
  |  228: Species Ba           11.79608459       15.72813071       11.95129413
  |  229: Species Ba           15.72811255       15.72813072       11.95129413
  |  230: Species Ba           19.66014052       15.72813072       11.95129413
  |  231: Species Ba           23.59216849       15.72813072       11.95129413
  |  232: Species Ba           27.52419645       15.72813073       11.95129413
  |  233: Species Ba            0.00000070       19.66016313       11.95129414
  |  234: Species Ba            3.93202866       19.66016313       11.95129414
  |  235: Species Ba            7.86405663       19.66016313       11.95129413
  |  236: Species Ba           11.79608459       19.66016313       11.95129413
  |  237: Species Ba           15.72811256       19.66016314       11.95129413
  |  238: Species Ba           19.66014052       19.66016314       11.95129413
  |  239: Species Ba           23.59216849       19.66016314       11.95129413
  |  240: Species Ba           27.52419645       19.66016315       11.95129413
  |  241: Species Ba            0.00000070       23.59219555       11.95129414
  |  242: Species Ba            3.93202867       23.59219555       11.95129414
  |  243: Species Ba            7.86405663       23.59219555       11.95129413
  |  244: Species Ba           11.79608460       23.59219556       11.95129413
  |  245: Species Ba           15.72811256       23.59219556       11.95129413
  |  246: Species Ba           19.66014053       23.59219556       11.95129413
  |  247: Species Ba           23.59216849       23.59219557       11.95129413
  |  248: Species Ba           27.52419646       23.59219557       11.95129413
  |  249: Species Ba            0.00000070       27.52422797       11.95129414
  |  250: Species Ba            3.93202867       27.52422797       11.95129413
  |  251: Species Ba            7.86405663       27.52422797       11.95129413
  |  252: Species Ba           11.79608460       27.52422798       11.95129413
  |  253: Species Ba           15.72811256       27.52422798       11.95129413
  |  254: Species Ba           19.66014053       27.52422798       11.95129413
  |  255: Species Ba           23.59216849       27.52422799       11.95129413
  |  256: Species Ba           27.52419646       27.52422799       11.95129413
  |  257: Species Ba            0.00000068        0.00000102       15.93350299
  |  258: Species Ba            3.93202864        0.00000103       15.93350299
  |  259: Species Ba            7.86405661        0.00000103       15.93350299
  |  260: Species Ba           11.79608457        0.00000103       15.93350299
  |  261: Species Ba           15.72811254        0.00000104       15.93350298
  |  262: Species Ba           19.66014051        0.00000104       15.93350298
  |  263: Species Ba           23.59216847        0.00000104       15.93350298
  |  264: Species Ba           27.52419644        0.00000105       15.93350298
  |  265: Species Ba            0.00000068        3.93203344       15.93350299
  |  266: Species Ba            3.93202865        3.93203345       15.93350299
  |  267: Species Ba            7.86405661        3.93203345       15.93350299
  |  268: Species Ba           11.79608458        3.93203345       15.93350299
  |  269: Species Ba           15.72811254        3.93203346       15.93350298
  |  270: Species Ba           19.66014051        3.93203346       15.93350298
  |  271: Species Ba           23.59216847        3.93203346       15.93350298
  |  272: Species Ba           27.52419644        3.93203347       15.93350298
  |  273: Species Ba            0.00000069        7.86406586       15.93350299
  |  274: Species Ba            3.93202865        7.86406587       15.93350299
  |  275: Species Ba            7.86405662        7.86406587       15.93350299
  |  276: Species Ba           11.79608458        7.86406587       15.93350298
  |  277: Species Ba           15.72811255        7.86406588       15.93350298
  |  278: Species Ba           19.66014051        7.86406588       15.93350298
  |  279: Species Ba           23.59216848        7.86406588       15.93350298
  |  280: Species Ba           27.52419644        7.86406589       15.93350298
  |  281: Species Ba            0.00000069       11.79609828       15.93350299
  |  282: Species Ba            3.93202865       11.79609829       15.93350299
  |  283: Species Ba            7.86405662       11.79609829       15.93350299
  |  284: Species Ba           11.79608458       11.79609829       15.93350298
  |  285: Species Ba           15.72811255       11.79609830       15.93350298
  |  286: Species Ba           19.66014052       11.79609830       15.93350298
  |  287: Species Ba           23.59216848       11.79609830       15.93350298
  |  288: Species Ba           27.52419645       11.79609831       15.93350298
  |  289: Species Ba            0.00000069       15.72813070       15.93350299
  |  290: Species Ba            3.93202866       15.72813071       15.93350299
  |  291: Species Ba            7.86405662       15.72813071       15.93350298
  |  292: Species Ba           11.79608459       15.72813071       15.93350298
  |  293: Species Ba           15.72811255       15.72813072       15.93350298
  |  294: Species Ba           19.66014052       15.72813072       15.93350298
  |  295: Species Ba           23.59216848       15.72813072       15.93350298
  |  296: Species Ba           27.52419645       15.72813073       15.93350298
  |  297: Species Ba            0.00000070       19.66016312       15.93350299
  |  298: Species Ba            3.93202866       19.66016313       15.93350299
  |  299: Species Ba            7.86405663       19.66016313       15.93350298
  |  300: Species Ba           11.79608459       19.66016313       15.93350298
  |  301: Species Ba           15.72811256       19.66016314       15.93350298
  |  302: Species Ba           19.66014052       19.66016314       15.93350298
  |  303: Species Ba           23.59216849       19.66016314       15.93350298
  |  304: Species Ba           27.52419645       19.66016315       15.93350298
  |  305: Species Ba            0.00000070       23.59219554       15.93350299
  |  306: Species Ba            3.93202866       23.59219555       15.93350298
  |  307: Species Ba            7.86405663       23.59219555       15.93350298
  |  308: Species Ba           11.79608459       23.59219555       15.93350298
  |  309: Species Ba           15.72811256       23.59219556       15.93350298
  |  310: Species Ba           19.66014053       23.59219556       15.93350298
  |  311: Species Ba           23.59216849       23.59219556       15.93350298
  |  312: Species Ba           27.52419646       23.59219557       15.93350298
  |  313: Species Ba            0.00000070       27.52422796       15.93350298
  |  314: Species Ba            3.93202867       27.52422797       15.93350298
  |  315: Species Ba            7.86405663       27.52422797       15.93350298
  |  316: Species Ba           11.79608460       27.52422797       15.93350298
  |  317: Species Ba           15.72811256       27.52422798       15.93350298
  |  318: Species Ba           19.66014053       27.52422798       15.93350298
  |  319: Species Ba           23.59216849       27.52422798       15.93350298
  |  320: Species Ba           27.52419646       27.52422799       15.93350297
  |  321: Species Ba            0.00000068        0.00000102       19.91571184
  |  322: Species Ba            3.93202864        0.00000103       19.91571184
  |  323: Species Ba            7.86405661        0.00000103       19.91571184
  |  324: Species Ba           11.79608457        0.00000103       19.91571184
  |  325: Species Ba           15.72811254        0.00000104       19.91571183
  |  326: Species Ba           19.66014050        0.00000104       19.91571183
  |  327: Species Ba           23.59216847        0.00000104       19.91571183
  |  328: Species Ba           27.52419643        0.00000105       19.91571183
  |  329: Species Ba            0.00000068        3.93203344       19.91571184
  |  330: Species Ba            3.93202865        3.93203345       19.91571184
  |  331: Species Ba            7.86405661        3.93203345       19.91571184
  |  332: Species Ba           11.79608458        3.93203345       19.91571183
  |  333: Species Ba           15.72811254        3.93203346       19.91571183
  |  334: Species Ba           19.66014051        3.93203346       19.91571183
  |  335: Species Ba           23.59216847        3.93203346       19.91571183
  |  336: Species Ba           27.52419644        3.93203347       19.91571183
  |  337: Species Ba            0.00000068        7.86406586       19.91571184
  |  338: Species Ba            3.93202865        7.86406587       19.91571184
  |  339: Species Ba            7.86405661        7.86406587       19.91571183
  |  340: Species Ba           11.79608458        7.86406587       19.91571183
  |  341: Species Ba           15.72811255        7.86406588       19.91571183
  |  342: Species Ba           19.66014051        7.86406588       19.91571183
  |  343: Species Ba           23.59216848        7.86406588       19.91571183
  |  344: Species Ba           27.52419644        7.86406589       19.91571183
  |  345: Species Ba            0.00000069       11.79609828       19.91571184
  |  346: Species Ba            3.93202865       11.79609829       19.91571184
  |  347: Species Ba            7.86405662       11.79609829       19.91571183
  |  348: Species Ba           11.79608458       11.79609829       19.91571183
  |  349: Species Ba           15.72811255       11.79609830       19.91571183
  |  350: Species Ba           19.66014051       11.79609830       19.91571183
  |  351: Species Ba           23.59216848       11.79609830       19.91571183
  |  352: Species Ba           27.52419644       11.79609831       19.91571183
  |  353: Species Ba            0.00000069       15.72813070       19.91571184
  |  354: Species Ba            3.93202866       15.72813071       19.91571183
  |  355: Species Ba            7.86405662       15.72813071       19.91571183
  |  356: Species Ba           11.79608459       15.72813071       19.91571183
  |  357: Species Ba           15.72811255       15.72813072       19.91571183
  |  358: Species Ba           19.66014052       15.72813072       19.91571183
  |  359: Species Ba           23.59216848       15.72813072       19.91571183
  |  360: Species Ba           27.52419645       15.72813073       19.91571183
  |  361: Species Ba            0.00000069       19.66016312       19.91571184
  |  362: Species Ba            3.93202866       19.66016313       19.91571183
  |  363: Species Ba            7.86405662       19.66016313       19.91571183
  |  364: Species Ba           11.79608459       19.66016313       19.91571183
  |  365: Species Ba           15.72811256       19.66016314       19.91571183
  |  366: Species Ba           19.66014052       19.66016314       19.91571183
  |  367: Species Ba           23.59216849       19.66016314       19.91571183
  |  368: Species Ba           27.52419645       19.66016315       19.91571183
  |  369: Species Ba            0.00000070       23.59219554       19.91571183
  |  370: Species Ba            3.93202866       23.59219555       19.91571183
  |  371: Species Ba            7.86405663       23.59219555       19.91571183
  |  372: Species Ba           11.79608459       23.59219555       19.91571183
  |  373: Species Ba           15.72811256       23.59219556       19.91571183
  |  374: Species Ba           19.66014052       23.59219556       19.91571183
  |  375: Species Ba           23.59216849       23.59219556       19.91571183
  |  376: Species Ba           27.52419645       23.59219557       19.91571182
  |  377: Species Ba            0.00000070       27.52422796       19.91571183
  |  378: Species Ba            3.93202867       27.52422797       19.91571183
  |  379: Species Ba            7.86405663       27.52422797       19.91571183
  |  380: Species Ba           11.79608460       27.52422797       19.91571183
  |  381: Species Ba           15.72811256       27.52422798       19.91571183
  |  382: Species Ba           19.66014053       27.52422798       19.91571183
  |  383: Species Ba           23.59216849       27.52422798       19.91571182
  |  384: Species Ba           27.52419646       27.52422799       19.91571182
  |  385: Species Ba            0.00000068        0.00000102       23.89792069
  |  386: Species Ba            3.93202864        0.00000102       23.89792069
  |  387: Species Ba            7.86405661        0.00000103       23.89792069
  |  388: Species Ba           11.79608457        0.00000103       23.89792068
  |  389: Species Ba           15.72811254        0.00000103       23.89792068
  |  390: Species Ba           19.66014050        0.00000104       23.89792068
  |  391: Species Ba           23.59216847        0.00000104       23.89792068
  |  392: Species Ba           27.52419643        0.00000104       23.89792068
  |  393: Species Ba            0.00000068        3.93203344       23.89792069
  |  394: Species Ba            3.93202864        3.93203344       23.89792069
  |  395: Species Ba            7.86405661        3.93203345       23.89792068
  |  396: Species Ba           11.79608458        3.93203345       23.89792068
  |  397: Species Ba           15.72811254        3.93203345       23.89792068
  |  398: Species Ba           19.66014051        3.93203346       23.89792068
  |  399: Species Ba           23.59216847        3.93203346       23.89792068
  |  400: Species Ba           27.52419644        3.93203346       23.89792068
  |  401: Species Ba            0.00000068        7.86406586       23.89792069
  |  402: Species Ba            3.93202865        7.86406587       23.89792069
  |  403: Species Ba            7.86405661        7.86406587       23.89792068
  |  404: Species Ba           11.79608458        7.86406587       23.89792068
  |  405: Species Ba           15.72811254        7.86406587       23.89792068
  |  406: Species Ba           19.66014051        7.86406588       23.89792068
  |  407: Species Ba           23.59216847        7.86406588       23.89792068
  |  408: Species Ba           27.52419644        7.86406588       23.89792068
  |  409: Species Ba            0.00000069       11.79609828       23.89792069
  |  410: Species Ba            3.93202865       11.79609829       23.89792068
  |  411: Species Ba            7.86405662       11.79609829       23.89792068
  |  412: Species Ba           11.79608458       11.79609829       23.89792068
  |  413: Species Ba           15.72811255       11.79609830       23.89792068
  |  414: Species Ba           19.66014051       11.79609830       23.89792068
  |  415: Species Ba           23.59216848       11.79609830       23.89792068
  |  416: Species Ba           27.52419644       11.79609831       23.89792068
  |  417: Species Ba            0.00000069       15.72813070       23.89792069
  |  418: Species Ba            3.93202865       15.72813071       23.89792068
  |  419: Species Ba            7.86405662       15.72813071       23.89792068
  |  420: Species Ba           11.79608459       15.72813071       23.89792068
  |  421: Species Ba           15.72811255       15.72813072       23.89792068
  |  422: Species Ba           19.66014052       15.72813072       23.89792068
  |  423: Species Ba           23.59216848       15.72813072       23.89792068
  |  424: Species Ba           27.52419645       15.72813073       23.89792067
  |  425: Species Ba            0.00000069       19.66016312       23.89792068
  |  426: Species Ba            3.93202866       19.66016313       23.89792068
  |  427: Species Ba            7.86405662       19.66016313       23.89792068
  |  428: Species Ba           11.79608459       19.66016313       23.89792068
  |  429: Species Ba           15.72811255       19.66016314       23.89792068
  |  430: Species Ba           19.66014052       19.66016314       23.89792068
  |  431: Species Ba           23.59216848       19.66016314       23.89792068
  |  432: Species Ba           27.52419645       19.66016315       23.89792067
  |  433: Species Ba            0.00000070       23.59219554       23.89792068
  |  434: Species Ba            3.93202866       23.59219555       23.89792068
  |  435: Species Ba            7.86405663       23.59219555       23.89792068
  |  436: Species Ba           11.79608459       23.59219555       23.89792068
  |  437: Species Ba           15.72811256       23.59219556       23.89792068
  |  438: Species Ba           19.66014052       23.59219556       23.89792068
  |  439: Species Ba           23.59216849       23.59219556       23.89792067
  |  440: Species Ba           27.52419645       23.59219557       23.89792067
  |  441: Species Ba            0.00000070       27.52422796       23.89792068
  |  442: Species Ba            3.93202866       27.52422797       23.89792068
  |  443: Species Ba            7.86405663       27.52422797       23.89792068
  |  444: Species Ba           11.79608459       27.52422797       23.89792068
  |  445: Species Ba           15.72811256       27.52422798       23.89792068
  |  446: Species Ba           19.66014053       27.52422798       23.89792068
  |  447: Species Ba           23.59216849       27.52422798       23.89792067
  |  448: Species Ba           27.52419646       27.52422799       23.89792067
  |  449: Species Ba            0.00000068        0.00000102       27.88012954
  |  450: Species Ba            3.93202864        0.00000102       27.88012954
  |  451: Species Ba            7.86405661        0.00000103       27.88012953
  |  452: Species Ba           11.79608457        0.00000103       27.88012953
  |  453: Species Ba           15.72811254        0.00000103       27.88012953
  |  454: Species Ba           19.66014050        0.00000104       27.88012953
  |  455: Species Ba           23.59216847        0.00000104       27.88012953
  |  456: Species Ba           27.52419643        0.00000104       27.88012953
  |  457: Species Ba            0.00000068        3.93203344       27.88012954
  |  458: Species Ba            3.93202864        3.93203344       27.88012953
  |  459: Species Ba            7.86405661        3.93203345       27.88012953
  |  460: Species Ba           11.79608457        3.93203345       27.88012953
  |  461: Species Ba           15.72811254        3.93203345       27.88012953
  |  462: Species Ba           19.66014050        3.93203346       27.88012953
  |  463: Species Ba           23.59216847        3.93203346       27.88012953
  |  464: Species Ba           27.52419643        3.93203346       27.88012953
  |  465: Species Ba            0.00000068        7.86406586       27.88012954
  |  466: Species Ba            3.93202865        7.86406586       27.88012953
  |  467: Species Ba            7.86405661        7.86406587       27.88012953
  |  468: Species Ba           11.79608458        7.86406587       27.88012953
  |  469: Species Ba           15.72811254        7.86406587       27.88012953
  |  470: Species Ba           19.66014051        7.86406588       27.88012953
  |  471: Species Ba           23.59216847        7.86406588       27.88012953
  |  472: Species Ba           27.52419644        7.86406588       27.88012953
  |  473: Species Ba            0.00000068       11.79609828       27.88012953
  |  474: Species Ba            3.93202865       11.79609828       27.88012953
  |  475: Species Ba            7.86405662       11.79609829       27.88012953
  |  476: Species Ba           11.79608458       11.79609829       27.88012953
  |  477: Species Ba           15.72811255       11.79609829       27.88012953
  |  478: Species Ba           19.66014051       11.79609830       27.88012953
  |  479: Species Ba           23.59216848       11.79609830       27.88012953
  |  480: Species Ba           27.52419644       11.79609830       27.88012952
  |  481: Species Ba            0.00000069       15.72813070       27.88012953
  |  482: Species Ba            3.93202865       15.72813070       27.88012953
  |  483: Species Ba            7.86405662       15.72813071       27.88012953
  |  484: Species Ba           11.79608458       15.72813071       27.88012953
  |  485: Species Ba           15.72811255       15.72813071       27.88012953
  |  486: Species Ba           19.66014051       15.72813072       27.88012953
  |  487: Species Ba           23.59216848       15.72813072       27.88012952
  |  488: Species Ba           27.52419644       15.72813072       27.88012952
  |  489: Species Ba            0.00000069       19.66016312       27.88012953
  |  490: Species Ba            3.93202866       19.66016313       27.88012953
  |  491: Species Ba            7.86405662       19.66016313       27.88012953
  |  492: Species Ba           11.79608459       19.66016313       27.88012953
  |  493: Species Ba           15.72811255       19.66016313       27.88012953
  |  494: Species Ba           19.66014052       19.66016314       27.88012953
  |  495: Species Ba           23.59216848       19.66016314       27.88012952
  |  496: Species Ba           27.52419645       19.66016314       27.88012952
  |  497: Species Ba            0.00000069       23.59219554       27.88012953
  |  498: Species Ba            3.93202866       23.59219555       27.88012953
  |  499: Species Ba            7.86405663       23.59219555       27.88012953
  |  500: Species Ba           11.79608459       23.59219555       27.88012953
  |  501: Species Ba           15.72811256       23.59219556       27.88012953
  |  502: Species Ba           19.66014052       23.59219556       27.88012952
  |  503: Species Ba           23.59216849       23.59219556       27.88012952
  |  504: Species Ba           27.52419645       23.59219557       27.88012952
  |  505: Species Ba            0.00000070       27.52422796       27.88012953
  |  506: Species Ba            3.93202866       27.52422797       27.88012953
  |  507: Species Ba            7.86405663       27.52422797       27.88012953
  |  508: Species Ba           11.79608459       27.52422797       27.88012953
  |  509: Species Ba           15.72811256       27.52422798       27.88012953
  |  510: Species Ba           19.66014052       27.52422798       27.88012952
  |  511: Species Ba           23.59216849       27.52422798       27.88012952
  |  512: Species Ba           27.52419645       27.52422799       27.88012952
  |  513: Species O             1.96601382       31.45625899        2.04881605
  |  514: Species O             5.89804178       31.45625899        2.04881605
  |  515: Species O             9.83006975       31.45625899        2.04881605
  |  516: Species O            13.76209771       31.45625900        2.04881605
  |  517: Species O            17.69412568       31.45625900        2.04881605
  |  518: Species O            21.62615364       31.45625900        2.04881605
  |  519: Species O            25.55818161       31.45625901        2.04881604
  |  520: Species O            29.49020957       31.45625901        2.04881604
  |  521: Species O             1.96601379        3.93203205        2.04881606
  |  522: Species O             5.89804176        3.93203205        2.04881606
  |  523: Species O             9.83006972        3.93203205        2.04881606
  |  524: Species O            13.76209769        3.93203206        2.04881605
  |  525: Species O            17.69412565        3.93203206        2.04881605
  |  526: Species O            21.62615362        3.93203206        2.04881605
  |  527: Species O            25.55818158        3.93203207        2.04881605
  |  528: Species O            29.49020955        3.93203207        2.04881605
  |  529: Species O             1.96601380        7.86406447        2.04881606
  |  530: Species O             5.89804176        7.86406447        2.04881606
  |  531: Species O             9.83006973        7.86406447        2.04881606
  |  532: Species O            13.76209769        7.86406448        2.04881605
  |  533: Species O            17.69412566        7.86406448        2.04881605
  |  534: Species O            21.62615362        7.86406448        2.04881605
  |  535: Species O            25.55818159        7.86406449        2.04881605
  |  536: Species O            29.49020955        7.86406449        2.04881605
  |  537: Species O             1.96601380       11.79609689        2.04881606
  |  538: Species O             5.89804177       11.79609689        2.04881606
  |  539: Species O             9.83006973       11.79609689        2.04881605
  |  540: Species O            13.76209770       11.79609690        2.04881605
  |  541: Species O            17.69412566       11.79609690        2.04881605
  |  542: Species O            21.62615363       11.79609690        2.04881605
  |  543: Species O            25.55818159       11.79609691        2.04881605
  |  544: Species O            29.49020956       11.79609691        2.04881605
  |  545: Species O             1.96601380       15.72812931        2.04881606
  |  546: Species O             5.89804177       15.72812931        2.04881605
  |  547: Species O             9.83006973       15.72812931        2.04881605
  |  548: Species O            13.76209770       15.72812932        2.04881605
  |  549: Species O            17.69412566       15.72812932        2.04881605
  |  550: Species O            21.62615363       15.72812932        2.04881605
  |  551: Species O            25.55818159       15.72812933        2.04881605
  |  552: Species O            29.49020956       15.72812933        2.04881605
  |  553: Species O             1.96601381       19.66016173        2.04881606
  |  554: Species O             5.89804177       19.66016173        2.04881605
  |  555: Species O             9.83006974       19.66016173        2.04881605
  |  556: Species O            13.76209770       19.66016174        2.04881605
  |  557: Species O            17.69412567       19.66016174        2.04881605
  |  558: Species O            21.62615363       19.66016174        2.04881605
  |  559: Species O            25.55818160       19.66016175        2.04881605
  |  560: Species O            29.49020956       19.66016175        2.04881605
  |  561: Species O             1.96601381       23.59219415        2.04881605
  |  562: Species O             5.89804178       23.59219415        2.04881605
  |  563: Species O             9.83006974       23.59219415        2.04881605
  |  564: Species O            13.76209771       23.59219416        2.04881605
  |  565: Species O            17.69412567       23.59219416        2.04881605
  |  566: Species O            21.62615364       23.59219416        2.04881605
  |  567: Species O            25.55818160       23.59219417        2.04881605
  |  568: Species O            29.49020957       23.59219417        2.04881604
  |  569: Species O             1.96601381       27.52422657        2.04881605
  |  570: Species O             5.89804178       27.52422657        2.04881605
  |  571: Species O             9.83006974       27.52422657        2.04881605
  |  572: Species O            13.76209771       27.52422658        2.04881605
  |  573: Species O            17.69412567       27.52422658        2.04881605
  |  574: Species O            21.62615364       27.52422658        2.04881605
  |  575: Species O            25.55818160       27.52422659        2.04881604
  |  576: Species O            29.49020957       27.52422659        2.04881604
  |  577: Species O             1.96601382       31.45625899        6.03102490
  |  578: Species O             5.89804178       31.45625899        6.03102490
  |  579: Species O             9.83006975       31.45625899        6.03102490
  |  580: Species O            13.76209771       31.45625900        6.03102490
  |  581: Species O            17.69412568       31.45625900        6.03102490
  |  582: Species O            21.62615364       31.45625900        6.03102489
  |  583: Species O            25.55818161       31.45625901        6.03102489
  |  584: Species O            29.49020957       31.45625901        6.03102489
  |  585: Species O             1.96601379        3.93203205        6.03102491
  |  586: Species O             5.89804176        3.93203205        6.03102491
  |  587: Species O             9.83006972        3.93203205        6.03102490
  |  588: Species O            13.76209769        3.93203205        6.03102490
  |  589: Species O            17.69412565        3.93203206        6.03102490
  |  590: Species O            21.62615362        3.93203206        6.03102490
  |  591: Species O            25.55818158        3.93203206        6.03102490
  |  592: Species O            29.49020955        3.93203207        6.03102490
  |  593: Species O             1.96601380        7.86406447        6.03102491
  |  594: Species O             5.89804176        7.86406447        6.03102491
  |  595: Species O             9.83006973        7.86406447        6.03102490
  |  596: Species O            13.76209769        7.86406448        6.03102490
  |  597: Species O            17.69412566        7.86406448        6.03102490
  |  598: Species O            21.62615362        7.86406448        6.03102490
  |  599: Species O            25.55818159        7.86406449        6.03102490
  |  600: Species O            29.49020955        7.86406449        6.03102490
  |  601: Species O             1.96601380       11.79609689        6.03102491
  |  602: Species O             5.89804176       11.79609689        6.03102490
  |  603: Species O             9.83006973       11.79609689        6.03102490
  |  604: Species O            13.76209769       11.79609690        6.03102490
  |  605: Species O            17.69412566       11.79609690        6.03102490
  |  606: Species O            21.62615362       11.79609690        6.03102490
  |  607: Species O            25.55818159       11.79609691        6.03102490
  |  608: Species O            29.49020956       11.79609691        6.03102490
  |  609: Species O             1.96601380       15.72812931        6.03102491
  |  610: Species O             5.89804177       15.72812931        6.03102490
  |  611: Species O             9.83006973       15.72812931        6.03102490
  |  612: Species O            13.76209770       15.72812932        6.03102490
  |  613: Species O            17.69412566       15.72812932        6.03102490
  |  614: Species O            21.62615363       15.72812932        6.03102490
  |  615: Species O            25.55818159       15.72812933        6.03102490
  |  616: Species O            29.49020956       15.72812933        6.03102489
  |  617: Species O             1.96601381       19.66016173        6.03102490
  |  618: Species O             5.89804177       19.66016173        6.03102490
  |  619: Species O             9.83006974       19.66016173        6.03102490
  |  620: Species O            13.76209770       19.66016174        6.03102490
  |  621: Species O            17.69412567       19.66016174        6.03102490
  |  622: Species O            21.62615363       19.66016174        6.03102490
  |  623: Species O            25.55818160       19.66016175        6.03102490
  |  624: Species O            29.49020956       19.66016175        6.03102489
  |  625: Species O             1.96601381       23.59219415        6.03102490
  |  626: Species O             5.89804177       23.59219415        6.03102490
  |  627: Species O             9.83006974       23.59219415        6.03102490
  |  628: Species O            13.76209770       23.59219416        6.03102490
  |  629: Species O            17.69412567       23.59219416        6.03102490
  |  630: Species O            21.62615363       23.59219416        6.03102490
  |  631: Species O            25.55818160       23.59219417        6.03102489
  |  632: Species O            29.49020956       23.59219417        6.03102489
  |  633: Species O             1.96601381       27.52422657        6.03102490
  |  634: Species O             5.89804178       27.52422657        6.03102490
  |  635: Species O             9.83006974       27.52422657        6.03102490
  |  636: Species O            13.76209771       27.52422658        6.03102490
  |  637: Species O            17.69412567       27.52422658        6.03102490
  |  638: Species O            21.62615364       27.52422658        6.03102490
  |  639: Species O            25.55818160       27.52422659        6.03102489
  |  640: Species O            29.49020957       27.52422659        6.03102489
  |  641: Species O             1.96601381       31.45625899       10.01323375
  |  642: Species O             5.89804178       31.45625899       10.01323375
  |  643: Species O             9.83006974       31.45625899       10.01323375
  |  644: Species O            13.76209771       31.45625900       10.01323375
  |  645: Species O            17.69412567       31.45625900       10.01323374
  |  646: Species O            21.62615364       31.45625900       10.01323374
  |  647: Species O            25.55818160       31.45625901       10.01323374
  |  648: Species O            29.49020957       31.45625901       10.01323374
  |  649: Species O             1.96601379        3.93203204       10.01323376
  |  650: Species O             5.89804176        3.93203205       10.01323376
  |  651: Species O             9.83006972        3.93203205       10.01323375
  |  652: Species O            13.76209769        3.93203205       10.01323375
  |  653: Species O            17.69412565        3.93203206       10.01323375
  |  654: Species O            21.62615362        3.93203206       10.01323375
  |  655: Species O            25.55818158        3.93203206       10.01323375
  |  656: Species O            29.49020955        3.93203207       10.01323375
  |  657: Species O             1.96601379        7.86406446       10.01323376
  |  658: Species O             5.89804176        7.86406447       10.01323375
  |  659: Species O             9.83006972        7.86406447       10.01323375
  |  660: Species O            13.76209769        7.86406447       10.01323375
  |  661: Species O            17.69412565        7.86406448       10.01323375
  |  662: Species O            21.62615362        7.86406448       10.01323375
  |  663: Species O            25.55818159        7.86406448       10.01323375
  |  664: Species O            29.49020955        7.86406449       10.01323375
  |  665: Species O             1.96601380       11.79609688       10.01323375
  |  666: Species O             5.89804176       11.79609689       10.01323375
  |  667: Species O             9.83006973       11.79609689       10.01323375
  |  668: Species O            13.76209769       11.79609689       10.01323375
  |  669: Species O            17.69412566       11.79609690       10.01323375
  |  670: Species O            21.62615362       11.79609690       10.01323375
  |  671: Species O            25.55818159       11.79609690       10.01323375
  |  672: Species O            29.49020955       11.79609691       10.01323374
  |  673: Species O             1.96601380       15.72812931       10.01323375
  |  674: Species O             5.89804177       15.72812931       10.01323375
  |  675: Species O             9.83006973       15.72812931       10.01323375
  |  676: Species O            13.76209770       15.72812931       10.01323375
  |  677: Species O            17.69412566       15.72812932       10.01323375
  |  678: Species O            21.62615363       15.72812932       10.01323375
  |  679: Species O            25.55818159       15.72812932       10.01323375
  |  680: Species O            29.49020956       15.72812933       10.01323374
  |  681: Species O             1.96601380       19.66016173       10.01323375
  |  682: Species O             5.89804177       19.66016173       10.01323375
  |  683: Species O             9.83006973       19.66016173       10.01323375
  |  684: Species O            13.76209770       19.66016174       10.01323375
  |  685: Species O            17.69412566       19.66016174       10.01323375
  |  686: Species O            21.62615363       19.66016174       10.01323375
  |  687: Species O            25.55818159       19.66016175       10.01323374
  |  688: Species O            29.49020956       19.66016175       10.01323374
  |  689: Species O             1.96601381       23.59219415       10.01323375
  |  690: Species O             5.89804177       23.59219415       10.01323375
  |  691: Species O             9.83006974       23.59219415       10.01323375
  |  692: Species O            13.76209770       23.59219416       10.01323375
  |  693: Species O            17.69412567       23.59219416       10.01323375
  |  694: Species O            21.62615363       23.59219416       10.01323374
  |  695: Species O            25.55818160       23.59219417       10.01323374
  |  696: Species O            29.49020956       23.59219417       10.01323374
  |  697: Species O             1.96601381       27.52422657       10.01323375
  |  698: Species O             5.89804178       27.52422657       10.01323375
  |  699: Species O             9.83006974       27.52422657       10.01323375
  |  700: Species O            13.76209771       27.52422658       10.01323375
  |  701: Species O            17.69412567       27.52422658       10.01323375
  |  702: Species O            21.62615364       27.52422658       10.01323374
  |  703: Species O            25.55818160       27.52422659       10.01323374
  |  704: Species O            29.49020957       27.52422659       10.01323374
  |  705: Species O             1.96601381       31.45625899       13.99544260
  |  706: Species O             5.89804178       31.45625899       13.99544260
  |  707: Species O             9.83006974       31.45625899       13.99544260
  |  708: Species O            13.76209771       31.45625900       13.99544260
  |  709: Species O            17.69412567       31.45625900       13.99544259
  |  710: Species O            21.62615364       31.45625900       13.99544259
  |  711: Species O            25.55818160       31.45625901       13.99544259
  |  712: Species O            29.49020957       31.45625901       13.99544259
  |  713: Species O             1.96601379        3.93203204       13.99544261
  |  714: Species O             5.89804175        3.93203205       13.99544260
  |  715: Species O             9.83006972        3.93203205       13.99544260
  |  716: Species O            13.76209768        3.93203205       13.99544260
  |  717: Species O            17.69412565        3.93203206       13.99544260
  |  718: Species O            21.62615362        3.93203206       13.99544260
  |  719: Species O            25.55818158        3.93203206       13.99544260
  |  720: Species O            29.49020955        3.93203207       13.99544259
  |  721: Species O             1.96601379        7.86406446       13.99544260
  |  722: Species O             5.89804176        7.86406447       13.99544260
  |  723: Species O             9.83006972        7.86406447       13.99544260
  |  724: Species O            13.76209769        7.86406447       13.99544260
  |  725: Species O            17.69412565        7.86406448       13.99544260
  |  726: Species O            21.62615362        7.86406448       13.99544260
  |  727: Species O            25.55818158        7.86406448       13.99544260
  |  728: Species O            29.49020955        7.86406449       13.99544259
  |  729: Species O             1.96601380       11.79609688       13.99544260
  |  730: Species O             5.89804176       11.79609689       13.99544260
  |  731: Species O             9.83006973       11.79609689       13.99544260
  |  732: Species O            13.76209769       11.79609689       13.99544260
  |  733: Species O            17.69412566       11.79609690       13.99544260
  |  734: Species O            21.62615362       11.79609690       13.99544260
  |  735: Species O            25.55818159       11.79609690       13.99544259
  |  736: Species O            29.49020955       11.79609691       13.99544259
  |  737: Species O             1.96601380       15.72812930       13.99544260
  |  738: Species O             5.89804176       15.72812931       13.99544260
  |  739: Species O             9.83006973       15.72812931       13.99544260
  |  740: Species O            13.76209769       15.72812931       13.99544260
  |  741: Species O            17.69412566       15.72812932       13.99544260
  |  742: Species O            21.62615363       15.72812932       13.99544260
  |  743: Species O            25.55818159       15.72812932       13.99544259
  |  744: Species O            29.49020956       15.72812933       13.99544259
  |  745: Species O             1.96601380       19.66016172       13.99544260
  |  746: Species O             5.89804177       19.66016173       13.99544260
  |  747: Species O             9.83006973       19.66016173       13.99544260
  |  748: Species O            13.76209770       19.66016173       13.99544260
  |  749: Species O            17.69412566       19.66016174       13.99544260
  |  750: Species O            21.62615363       19.66016174       13.99544259
  |  751: Species O            25.55818159       19.66016174       13.99544259
  |  752: Species O            29.49020956       19.66016175       13.99544259
  |  753: Species O             1.96601381       23.59219414       13.99544260
  |  754: Species O             5.89804177       23.59219415       13.99544260
  |  755: Species O             9.83006974       23.59219415       13.99544260
  |  756: Species O            13.76209770       23.59219415       13.99544260
  |  757: Species O            17.69412567       23.59219416       13.99544260
  |  758: Species O            21.62615363       23.59219416       13.99544259
  |  759: Species O            25.55818160       23.59219416       13.99544259
  |  760: Species O            29.49020956       23.59219417       13.99544259
  |  761: Species O             1.96601381       27.52422657       13.99544260
  |  762: Species O             5.89804177       27.52422657       13.99544260
  |  763: Species O             9.83006974       27.52422657       13.99544260
  |  764: Species O            13.76209770       27.52422657       13.99544260
  |  765: Species O            17.69412567       27.52422658       13.99544259
  |  766: Species O            21.62615363       27.52422658       13.99544259
  |  767: Species O            25.55818160       27.52422658       13.99544259
  |  768: Species O            29.49020957       27.52422659       13.99544259
  |  769: Species O             1.96601381       31.45625898       17.97765145
  |  770: Species O             5.89804178       31.45625899       17.97765145
  |  771: Species O             9.83006974       31.45625899       17.97765145
  |  772: Species O            13.76209771       31.45625899       17.97765144
  |  773: Species O            17.69412567       31.45625900       17.97765144
  |  774: Species O            21.62615364       31.45625900       17.97765144
  |  775: Species O            25.55818160       31.45625900       17.97765144
  |  776: Species O            29.49020957       31.45625901       17.97765144
  |  777: Species O             1.96601379        3.93203204       17.97765145
  |  778: Species O             5.89804175        3.93203205       17.97765145
  |  779: Species O             9.83006972        3.93203205       17.97765145
  |  780: Species O            13.76209768        3.93203205       17.97765145
  |  781: Species O            17.69412565        3.93203206       17.97765145
  |  782: Species O            21.62615361        3.93203206       17.97765145
  |  783: Species O            25.55818158        3.93203206       17.97765145
  |  784: Species O            29.49020954        3.93203207       17.97765144
  |  785: Species O             1.96601379        7.86406446       17.97765145
  |  786: Species O             5.89804176        7.86406447       17.97765145
  |  787: Species O             9.83006972        7.86406447       17.97765145
  |  788: Species O            13.76209769        7.86406447       17.97765145
  |  789: Species O            17.69412565        7.86406448       17.97765145
  |  790: Species O            21.62615362        7.86406448       17.97765145
  |  791: Species O            25.55818158        7.86406448       17.97765144
  |  792: Species O            29.49020955        7.86406449       17.97765144
  |  793: Species O             1.96601379       11.79609688       17.97765145
  |  794: Species O             5.89804176       11.79609689       17.97765145
  |  795: Species O             9.83006972       11.79609689       17.97765145
  |  796: Species O            13.76209769       11.79609689       17.97765145
  |  797: Species O            17.69412566       11.79609690       17.97765145
  |  798: Species O            21.62615362       11.79609690       17.97765145
  |  799: Species O            25.55818159       11.79609690       17.97765144
  |  800: Species O            29.49020955       11.79609691       17.97765144
  |  801: Species O             1.96601380       15.72812930       17.97765145
  |  802: Species O             5.89804176       15.72812931       17.97765145
  |  803: Species O             9.83006973       15.72812931       17.97765145
  |  804: Species O            13.76209769       15.72812931       17.97765145
  |  805: Species O            17.69412566       15.72812932       17.97765145
  |  806: Species O            21.62615362       15.72812932       17.97765144
  |  807: Species O            25.55818159       15.72812932       17.97765144
  |  808: Species O            29.49020955       15.72812933       17.97765144
  |  809: Species O             1.96601380       19.66016172       17.97765145
  |  810: Species O             5.89804177       19.66016173       17.97765145
  |  811: Species O             9.83006973       19.66016173       17.97765145
  |  812: Species O            13.76209770       19.66016173       17.97765145
  |  813: Species O            17.69412566       19.66016174       17.97765144
  |  814: Species O            21.62615363       19.66016174       17.97765144
  |  815: Species O            25.55818159       19.66016174       17.97765144
  |  816: Species O            29.49020956       19.66016175       17.97765144
  |  817: Species O             1.96601380       23.59219414       17.97765145
  |  818: Species O             5.89804177       23.59219415       17.97765145
  |  819: Species O             9.83006973       23.59219415       17.97765145
  |  820: Species O            13.76209770       23.59219415       17.97765145
  |  821: Species O            17.69412566       23.59219416       17.97765144
  |  822: Species O            21.62615363       23.59219416       17.97765144
  |  823: Species O            25.55818160       23.59219416       17.97765144
  |  824: Species O            29.49020956       23.59219417       17.97765144
  |  825: Species O             1.96601381       27.52422656       17.97765145
  |  826: Species O             5.89804177       27.52422657       17.97765145
  |  827: Species O             9.83006974       27.52422657       17.97765145
  |  828: Species O            13.76209770       27.52422657       17.97765144
  |  829: Species O            17.69412567       27.52422658       17.97765144
  |  830: Species O            21.62615363       27.52422658       17.97765144
  |  831: Species O            25.55818160       27.52422658       17.97765144
  |  832: Species O            29.49020956       27.52422659       17.97765144
  |  833: Species O             1.96601381       31.45625898       21.95986030
  |  834: Species O             5.89804177       31.45625899       21.95986030
  |  835: Species O             9.83006974       31.45625899       21.95986029
  |  836: Species O            13.76209770       31.45625899       21.95986029
  |  837: Species O            17.69412567       31.45625900       21.95986029
  |  838: Species O            21.62615364       31.45625900       21.95986029
  |  839: Species O            25.55818160       31.45625900       21.95986029
  |  840: Species O            29.49020957       31.45625901       21.95986029
  |  841: Species O             1.96601379        3.93203204       21.95986030
  |  842: Species O             5.89804175        3.93203205       21.95986030
  |  843: Species O             9.83006972        3.93203205       21.95986030
  |  844: Species O            13.76209768        3.93203205       21.95986030
  |  845: Species O            17.69412565        3.93203205       21.95986030
  |  846: Species O            21.62615361        3.93203206       21.95986030
  |  847: Species O            25.55818158        3.93203206       21.95986029
  |  848: Species O            29.49020954        3.93203206       21.95986029
  |  849: Species O             1.96601379        7.86406446       21.95986030
  |  850: Species O             5.89804175        7.86406447       21.95986030
  |  851: Species O             9.83006972        7.86406447       21.95986030
  |  852: Species O            13.76209769        7.86406447       21.95986030
  |  853: Species O            17.69412565        7.86406448       21.95986030
  |  854: Species O            21.62615362        7.86406448       21.95986029
  |  855: Species O            25.55818158        7.86406448       21.95986029
  |  856: Species O            29.49020955        7.86406449       21.95986029
  |  857: Species O             1.96601379       11.79609688       21.95986030
  |  858: Species O             5.89804176       11.79609689       21.95986030
  |  859: Species O             9.83006972       11.79609689       21.95986030
  |  860: Species O            13.76209769       11.79609689       21.95986030
  |  861: Species O            17.69412565       11.79609690       21.95986030
  |  862: Species O            21.62615362       11.79609690       21.95986029
  |  863: Species O            25.55818158       11.79609690       21.95986029
  |  864: Species O            29.49020955       11.79609691       21.95986029
  |  865: Species O             1.96601380       15.72812930       21.95986030
  |  866: Species O             5.89804176       15.72812931       21.95986030
  |  867: Species O             9.83006973       15.72812931       21.95986030
  |  868: Species O            13.76209769       15.72812931       21.95986030
  |  869: Species O            17.69412566       15.72812932       21.95986029
  |  870: Species O            21.62615362       15.72812932       21.95986029
  |  871: Species O            25.55818159       15.72812932       21.95986029
  |  872: Species O            29.49020955       15.72812933       21.95986029
  |  873: Species O             1.96601380       19.66016172       21.95986030
  |  874: Species O             5.89804176       19.66016173       21.95986030
  |  875: Species O             9.83006973       19.66016173       21.95986030
  |  876: Species O            13.76209770       19.66016173       21.95986030
  |  877: Species O            17.69412566       19.66016174       21.95986029
  |  878: Species O            21.62615363       19.66016174       21.95986029
  |  879: Species O            25.55818159       19.66016174       21.95986029
  |  880: Species O            29.49020956       19.66016175       21.95986029
  |  881: Species O             1.96601380       23.59219414       21.95986030
  |  882: Species O             5.89804177       23.59219415       21.95986030
  |  883: Species O             9.83006973       23.59219415       21.95986030
  |  884: Species O            13.76209770       23.59219415       21.95986029
  |  885: Species O            17.69412566       23.59219416       21.95986029
  |  886: Species O            21.62615363       23.59219416       21.95986029
  |  887: Species O            25.55818159       23.59219416       21.95986029
  |  888: Species O            29.49020956       23.59219417       21.95986029
  |  889: Species O             1.96601381       27.52422656       21.95986030
  |  890: Species O             5.89804177       27.52422657       21.95986030
  |  891: Species O             9.83006974       27.52422657       21.95986030
  |  892: Species O            13.76209770       27.52422657       21.95986029
  |  893: Species O            17.69412567       27.52422658       21.95986029
  |  894: Species O            21.62615363       27.52422658       21.95986029
  |  895: Species O            25.55818160       27.52422658       21.95986029
  |  896: Species O            29.49020956       27.52422659       21.95986029
  |  897: Species O             1.96601381       31.45625898       25.94206915
  |  898: Species O             5.89804177       31.45625899       25.94206914
  |  899: Species O             9.83006974       31.45625899       25.94206914
  |  900: Species O            13.76209770       31.45625899       25.94206914
  |  901: Species O            17.69412567       31.45625900       25.94206914
  |  902: Species O            21.62615363       31.45625900       25.94206914
  |  903: Species O            25.55818160       31.45625900       25.94206914
  |  904: Species O            29.49020956       31.45625901       25.94206914
  |  905: Species O             1.96601378        3.93203204       25.94206915
  |  906: Species O             5.89804175        3.93203204       25.94206915
  |  907: Species O             9.83006972        3.93203205       25.94206915
  |  908: Species O            13.76209768        3.93203205       25.94206915
  |  909: Species O            17.69412565        3.93203205       25.94206915
  |  910: Species O            21.62615361        3.93203206       25.94206914
  |  911: Species O            25.55818158        3.93203206       25.94206914
  |  912: Species O            29.49020954        3.93203206       25.94206914
  |  913: Species O             1.96601379        7.86406446       25.94206915
  |  914: Species O             5.89804175        7.86406446       25.94206915
  |  915: Species O             9.83006972        7.86406447       25.94206915
  |  916: Species O            13.76209768        7.86406447       25.94206915
  |  917: Species O            17.69412565        7.86406447       25.94206915
  |  918: Species O            21.62615361        7.86406448       25.94206914
  |  919: Species O            25.55818158        7.86406448       25.94206914
  |  920: Species O            29.49020954        7.86406448       25.94206914
  |  921: Species O             1.96601379       11.79609688       25.94206915
  |  922: Species O             5.89804176       11.79609688       25.94206915
  |  923: Species O             9.83006972       11.79609689       25.94206915
  |  924: Species O            13.76209769       11.79609689       25.94206915
  |  925: Species O            17.69412565       11.79609689       25.94206914
  |  926: Species O            21.62615362       11.79609690       25.94206914
  |  927: Species O            25.55818158       11.79609690       25.94206914
  |  928: Species O            29.49020955       11.79609690       25.94206914
  |  929: Species O             1.96601379       15.72812930       25.94206915
  |  930: Species O             5.89804176       15.72812931       25.94206915
  |  931: Species O             9.83006973       15.72812931       25.94206915
  |  932: Species O            13.76209769       15.72812931       25.94206914
  |  933: Species O            17.69412566       15.72812932       25.94206914
  |  934: Species O            21.62615362       15.72812932       25.94206914
  |  935: Species O            25.55818159       15.72812932       25.94206914
  |  936: Species O            29.49020955       15.72812932       25.94206914
  |  937: Species O             1.96601380       19.66016172       25.94206915
  |  938: Species O             5.89804176       19.66016173       25.94206915
  |  939: Species O             9.83006973       19.66016173       25.94206915
  |  940: Species O            13.76209769       19.66016173       25.94206914
  |  941: Species O            17.69412566       19.66016174       25.94206914
  |  942: Species O            21.62615362       19.66016174       25.94206914
  |  943: Species O            25.55818159       19.66016174       25.94206914
  |  944: Species O            29.49020955       19.66016175       25.94206914
  |  945: Species O             1.96601380       23.59219414       25.94206915
  |  946: Species O             5.89804177       23.59219415       25.94206915
  |  947: Species O             9.83006973       23.59219415       25.94206914
  |  948: Species O            13.76209770       23.59219415       25.94206914
  |  949: Species O            17.69412566       23.59219416       25.94206914
  |  950: Species O            21.62615363       23.59219416       25.94206914
  |  951: Species O            25.55818159       23.59219416       25.94206914
  |  952: Species O            29.49020956       23.59219417       25.94206914
  |  953: Species O             1.96601380       27.52422656       25.94206915
  |  954: Species O             5.89804177       27.52422657       25.94206915
  |  955: Species O             9.83006973       27.52422657       25.94206914
  |  956: Species O            13.76209770       27.52422657       25.94206914
  |  957: Species O            17.69412567       27.52422658       25.94206914
  |  958: Species O            21.62615363       27.52422658       25.94206914
  |  959: Species O            25.55818160       27.52422658       25.94206914
  |  960: Species O            29.49020956       27.52422659       25.94206914
  |  961: Species O             1.96601381       31.45625898       29.92427799
  |  962: Species O             5.89804177       31.45625899       29.92427799
  |  963: Species O             9.83006974       31.45625899       29.92427799
  |  964: Species O            13.76209770       31.45625899       29.92427799
  |  965: Species O            17.69412567       31.45625900       29.92427799
  |  966: Species O            21.62615363       31.45625900       29.92427799
  |  967: Species O            25.55818160       31.45625900       29.92427799
  |  968: Species O            29.49020956       31.45625901       29.92427798
  |  969: Species O             1.96601378        3.93203204       29.92427800
  |  970: Species O             5.89804175        3.93203204       29.92427800
  |  971: Species O             9.83006971        3.93203205       29.92427800
  |  972: Species O            13.76209768        3.93203205       29.92427800
  |  973: Species O            17.69412564        3.93203205       29.92427799
  |  974: Species O            21.62615361        3.93203206       29.92427799
  |  975: Species O            25.55818157        3.93203206       29.92427799
  |  976: Species O            29.49020954        3.93203206       29.92427799
  |  977: Species O             1.96601379        7.86406446       29.92427800
  |  978: Species O             5.89804175        7.86406446       29.92427800
  |  979: Species O             9.83006972        7.86406447       29.92427800
  |  980: Species O            13.76209768        7.86406447       29.92427800
  |  981: Species O            17.69412565        7.86406447       29.92427799
  |  982: Species O            21.62615361        7.86406448       29.92427799
  |  983: Species O            25.55818158        7.86406448       29.92427799
  |  984: Species O            29.49020954        7.86406448       29.92427799
  |  985: Species O             1.96601379       11.79609688       29.92427800
  |  986: Species O             5.89804176       11.79609688       29.92427800
  |  987: Species O             9.83006972       11.79609689       29.92427800
  |  988: Species O            13.76209769       11.79609689       29.92427799
  |  989: Species O            17.69412565       11.79609689       29.92427799
  |  990: Species O            21.62615362       11.79609690       29.92427799
  |  991: Species O            25.55818158       11.79609690       29.92427799
  |  992: Species O            29.49020955       11.79609690       29.92427799
  |  993: Species O             1.96601379       15.72812930       29.92427800
  |  994: Species O             5.89804176       15.72812930       29.92427800
  |  995: Species O             9.83006972       15.72812931       29.92427800
  |  996: Species O            13.76209769       15.72812931       29.92427799
  |  997: Species O            17.69412565       15.72812931       29.92427799
  |  998: Species O            21.62615362       15.72812932       29.92427799
  |  999: Species O            25.55818158       15.72812932       29.92427799
  | 1000: Species O            29.49020955       15.72812932       29.92427799
  | 1001: Species O             1.96601380       19.66016172       29.92427800
  | 1002: Species O             5.89804176       19.66016172       29.92427800
  | 1003: Species O             9.83006973       19.66016173       29.92427799
  | 1004: Species O            13.76209769       19.66016173       29.92427799
  | 1005: Species O            17.69412566       19.66016173       29.92427799
  | 1006: Species O            21.62615362       19.66016174       29.92427799
  | 1007: Species O            25.55818159       19.66016174       29.92427799
  | 1008: Species O            29.49020955       19.66016174       29.92427799
  | 1009: Species O             1.96601380       23.59219414       29.92427800
  | 1010: Species O             5.89804177       23.59219414       29.92427800
  | 1011: Species O             9.83006973       23.59219415       29.92427799
  | 1012: Species O            13.76209770       23.59219415       29.92427799
  | 1013: Species O            17.69412566       23.59219415       29.92427799
  | 1014: Species O            21.62615363       23.59219416       29.92427799
  | 1015: Species O            25.55818159       23.59219416       29.92427799
  | 1016: Species O            29.49020956       23.59219416       29.92427799
  | 1017: Species O             1.96601380       27.52422656       29.92427800
  | 1018: Species O             5.89804177       27.52422657       29.92427799
  | 1019: Species O             9.83006973       27.52422657       29.92427799
  | 1020: Species O            13.76209770       27.52422657       29.92427799
  | 1021: Species O            17.69412566       27.52422658       29.92427799
  | 1022: Species O            21.62615363       27.52422658       29.92427799
  | 1023: Species O            25.55818159       27.52422658       29.92427799
  | 1024: Species O            29.49020956       27.52422658       29.92427799
  | 1025: Species O            31.45622347        1.96601595        2.04883240
  | 1026: Species O             3.93202771        1.96601593        2.04883241
  | 1027: Species O             7.86405567        1.96601593        2.04883241
  | 1028: Species O            11.79608364        1.96601594        2.04883240
  | 1029: Species O            15.72811160        1.96601594        2.04883240
  | 1030: Species O            19.66013957        1.96601594        2.04883240
  | 1031: Species O            23.59216753        1.96601595        2.04883240
  | 1032: Species O            27.52419550        1.96601595        2.04883240
  | 1033: Species O            31.45622347        5.89804837        2.04883240
  | 1034: Species O             3.93202771        5.89804835        2.04883241
  | 1035: Species O             7.86405568        5.89804835        2.04883241
  | 1036: Species O            11.79608364        5.89804836        2.04883240
  | 1037: Species O            15.72811161        5.89804836        2.04883240
  | 1038: Species O            19.66013957        5.89804836        2.04883240
  | 1039: Species O            23.59216754        5.89804837        2.04883240
  | 1040: Species O            27.52419550        5.89804837        2.04883240
  | 1041: Species O            31.45622347        9.83008079        2.04883240
  | 1042: Species O             3.93202772        9.83008077        2.04883241
  | 1043: Species O             7.86405568        9.83008077        2.04883240
  | 1044: Species O            11.79608365        9.83008078        2.04883240
  | 1045: Species O            15.72811161        9.83008078        2.04883240
  | 1046: Species O            19.66013958        9.83008078        2.04883240
  | 1047: Species O            23.59216754        9.83008079        2.04883240
  | 1048: Species O            27.52419551        9.83008079        2.04883240
  | 1049: Species O            31.45622348       13.76211321        2.04883239
  | 1050: Species O             3.93202772       13.76211319        2.04883240
  | 1051: Species O             7.86405568       13.76211319        2.04883240
  | 1052: Species O            11.79608365       13.76211320        2.04883240
  | 1053: Species O            15.72811161       13.76211320        2.04883240
  | 1054: Species O            19.66013958       13.76211320        2.04883240
  | 1055: Species O            23.59216754       13.76211321        2.04883240
  | 1056: Species O            27.52419551       13.76211321        2.04883240
  | 1057: Species O            31.45622348       17.69414563        2.04883239
  | 1058: Species O             3.93202772       17.69414561        2.04883240
  | 1059: Species O             7.86405569       17.69414561        2.04883240
  | 1060: Species O            11.79608365       17.69414562        2.04883240
  | 1061: Species O            15.72811162       17.69414562        2.04883240
  | 1062: Species O            19.66013958       17.69414562        2.04883240
  | 1063: Species O            23.59216755       17.69414563        2.04883240
  | 1064: Species O            27.52419551       17.69414563        2.04883240
  | 1065: Species O            31.45622348       21.62617805        2.04883239
  | 1066: Species O             3.93202773       21.62617803        2.04883240
  | 1067: Species O             7.86405569       21.62617803        2.04883240
  | 1068: Species O            11.79608366       21.62617804        2.04883240
  | 1069: Species O            15.72811162       21.62617804        2.04883240
  | 1070: Species O            19.66013959       21.62617804        2.04883240
  | 1071: Species O            23.59216755       21.62617805        2.04883240
  | 1072: Species O            27.52419552       21.62617805        2.04883239
  | 1073: Species O            31.45622348       25.55821047        2.04883239
  | 1074: Species O             3.93202773       25.55821045        2.04883240
  | 1075: Species O             7.86405569       25.55821045        2.04883240
  | 1076: Species O            11.79608366       25.55821046        2.04883240
  | 1077: Species O            15.72811162       25.55821046        2.04883240
  | 1078: Species O            19.66013959       25.55821046        2.04883240
  | 1079: Species O            23.59216755       25.55821047        2.04883239
  | 1080: Species O            27.52419552       25.55821047        2.04883239
  | 1081: Species O            31.45622349       29.49024289        2.04883239
  | 1082: Species O             3.93202773       29.49024287        2.04883240
  | 1083: Species O             7.86405570       29.49024288        2.04883240
  | 1084: Species O            11.79608366       29.49024288        2.04883240
  | 1085: Species O            15.72811163       29.49024288        2.04883240
  | 1086: Species O            19.66013959       29.49024288        2.04883240
  | 1087: Species O            23.59216756       29.49024289        2.04883239
  | 1088: Species O            27.52419552       29.49024289        2.04883239
  | 1089: Species O            31.45622346        1.96601595        6.03104125
  | 1090: Species O             3.93202771        1.96601593        6.03104126
  | 1091: Species O             7.86405567        1.96601593        6.03104125
  | 1092: Species O            11.79608364        1.96601594        6.03104125
  | 1093: Species O            15.72811160        1.96601594        6.03104125
  | 1094: Species O            19.66013957        1.96601594        6.03104125
  | 1095: Species O            23.59216753        1.96601595        6.03104125
  | 1096: Species O            27.52419550        1.96601595        6.03104125
  | 1097: Species O            31.45622347        5.89804837        6.03104124
  | 1098: Species O             3.93202771        5.89804835        6.03104126
  | 1099: Species O             7.86405568        5.89804835        6.03104125
  | 1100: Species O            11.79608364        5.89804836        6.03104125
  | 1101: Species O            15.72811161        5.89804836        6.03104125
  | 1102: Species O            19.66013957        5.89804836        6.03104125
  | 1103: Species O            23.59216754        5.89804837        6.03104125
  | 1104: Species O            27.52419550        5.89804837        6.03104125
  | 1105: Species O            31.45622347        9.83008079        6.03104124
  | 1106: Species O             3.93202771        9.83008077        6.03104125
  | 1107: Species O             7.86405568        9.83008077        6.03104125
  | 1108: Species O            11.79608364        9.83008078        6.03104125
  | 1109: Species O            15.72811161        9.83008078        6.03104125
  | 1110: Species O            19.66013957        9.83008078        6.03104125
  | 1111: Species O            23.59216754        9.83008079        6.03104125
  | 1112: Species O            27.52419551        9.83008079        6.03104125
  | 1113: Species O            31.45622347       13.76211321        6.03104124
  | 1114: Species O             3.93202772       13.76211319        6.03104125
  | 1115: Species O             7.86405568       13.76211319        6.03104125
  | 1116: Species O            11.79608365       13.76211320        6.03104125
  | 1117: Species O            15.72811161       13.76211320        6.03104125
  | 1118: Species O            19.66013958       13.76211320        6.03104125
  | 1119: Species O            23.59216754       13.76211321        6.03104125
  | 1120: Species O            27.52419551       13.76211321        6.03104124
  | 1121: Species O            31.45622348       17.69414563        6.03104124
  | 1122: Species O             3.93202772       17.69414561        6.03104125
  | 1123: Species O             7.86405569       17.69414561        6.03104125
  | 1124: Species O            11.79608365       17.69414562        6.03104125
  | 1125: Species O            15.72811162       17.69414562        6.03104125
  | 1126: Species O            19.66013958       17.69414562        6.03104125
  | 1127: Species O            23.59216755       17.69414563        6.03104125
  | 1128: Species O            27.52419551       17.69414563        6.03104124
  | 1129: Species O            31.45622348       21.62617805        6.03104124
  | 1130: Species O             3.93202772       21.62617803        6.03104125
  | 1131: Species O             7.86405569       21.62617803        6.03104125
  | 1132: Species O            11.79608365       21.62617804        6.03104125
  | 1133: Species O            15.72811162       21.62617804        6.03104125
  | 1134: Species O            19.66013958       21.62617804        6.03104125
  | 1135: Species O            23.59216755       21.62617805        6.03104124
  | 1136: Species O            27.52419551       21.62617805        6.03104124
  | 1137: Species O            31.45622348       25.55821047        6.03104124
  | 1138: Species O             3.93202773       25.55821045        6.03104125
  | 1139: Species O             7.86405569       25.55821045        6.03104125
  | 1140: Species O            11.79608366       25.55821046        6.03104125
  | 1141: Species O            15.72811162       25.55821046        6.03104125
  | 1142: Species O            19.66013959       25.55821046        6.03104125
  | 1143: Species O            23.59216755       25.55821047        6.03104124
  | 1144: Species O            27.52419552       25.55821047        6.03104124
  | 1145: Species O            31.45622349       29.49024289        6.03104124
  | 1146: Species O             3.93202773       29.49024287        6.03104125
  | 1147: Species O             7.86405570       29.49024287        6.03104125
  | 1148: Species O            11.79608366       29.49024288        6.03104125
  | 1149: Species O            15.72811163       29.49024288        6.03104125
  | 1150: Species O            19.66013959       29.49024288        6.03104124
  | 1151: Species O            23.59216756       29.49024289        6.03104124
  | 1152: Species O            27.52419552       29.49024289        6.03104124
  | 1153: Species O            31.45622346        1.96601595       10.01325009
  | 1154: Species O             3.93202771        1.96601593       10.01325011
  | 1155: Species O             7.86405567        1.96601593       10.01325010
  | 1156: Species O            11.79608364        1.96601593       10.01325010
  | 1157: Species O            15.72811160        1.96601594       10.01325010
  | 1158: Species O            19.66013957        1.96601594       10.01325010
  | 1159: Species O            23.59216753        1.96601594       10.01325010
  | 1160: Species O            27.52419550        1.96601595       10.01325010
  | 1161: Species O            31.45622347        5.89804837       10.01325009
  | 1162: Species O             3.93202771        5.89804835       10.01325010
  | 1163: Species O             7.86405567        5.89804835       10.01325010
  | 1164: Species O            11.79608364        5.89804836       10.01325010
  | 1165: Species O            15.72811160        5.89804836       10.01325010
  | 1166: Species O            19.66013957        5.89804836       10.01325010
  | 1167: Species O            23.59216754        5.89804836       10.01325010
  | 1168: Species O            27.52419550        5.89804837       10.01325010
  | 1169: Species O            31.45622347        9.83008079       10.01325009
  | 1170: Species O             3.93202771        9.83008077       10.01325010
  | 1171: Species O             7.86405568        9.83008077       10.01325010
  | 1172: Species O            11.79608364        9.83008078       10.01325010
  | 1173: Species O            15.72811161        9.83008078       10.01325010
  | 1174: Species O            19.66013957        9.83008078       10.01325010
  | 1175: Species O            23.59216754        9.83008079       10.01325010
  | 1176: Species O            27.52419550        9.83008079       10.01325009
  | 1177: Species O            31.45622347       13.76211321       10.01325009
  | 1178: Species O             3.93202772       13.76211319       10.01325010
  | 1179: Species O             7.86405568       13.76211319       10.01325010
  | 1180: Species O            11.79608365       13.76211320       10.01325010
  | 1181: Species O            15.72811161       13.76211320       10.01325010
  | 1182: Species O            19.66013958       13.76211320       10.01325010
  | 1183: Species O            23.59216754       13.76211321       10.01325010
  | 1184: Species O            27.52419551       13.76211321       10.01325009
  | 1185: Species O            31.45622348       17.69414563       10.01325009
  | 1186: Species O             3.93202772       17.69414561       10.01325010
  | 1187: Species O             7.86405568       17.69414561       10.01325010
  | 1188: Species O            11.79608365       17.69414562       10.01325010
  | 1189: Species O            15.72811161       17.69414562       10.01325010
  | 1190: Species O            19.66013958       17.69414562       10.01325010
  | 1191: Species O            23.59216755       17.69414563       10.01325009
  | 1192: Species O            27.52419551       17.69414563       10.01325009
  | 1193: Species O            31.45622348       21.62617805       10.01325009
  | 1194: Species O             3.93202772       21.62617803       10.01325010
  | 1195: Species O             7.86405569       21.62617803       10.01325010
  | 1196: Species O            11.79608365       21.62617804       10.01325010
  | 1197: Species O            15.72811162       21.62617804       10.01325010
  | 1198: Species O            19.66013958       21.62617804       10.01325009
  | 1199: Species O            23.59216755       21.62617805       10.01325009
  | 1200: Species O            27.52419551       21.62617805       10.01325009
  | 1201: Species O            31.45622348       25.55821047       10.01325009
  | 1202: Species O             3.93202773       25.55821045       10.01325010
  | 1203: Species O             7.86405569       25.55821045       10.01325010
  | 1204: Species O            11.79608366       25.55821046       10.01325010
  | 1205: Species O            15.72811162       25.55821046       10.01325010
  | 1206: Species O            19.66013959       25.55821046       10.01325009
  | 1207: Species O            23.59216755       25.55821047       10.01325009
  | 1208: Species O            27.52419552       25.55821047       10.01325009
  | 1209: Species O            31.45622349       29.49024289       10.01325009
  | 1210: Species O             3.93202773       29.49024287       10.01325010
  | 1211: Species O             7.86405569       29.49024287       10.01325010
  | 1212: Species O            11.79608366       29.49024288       10.01325010
  | 1213: Species O            15.72811162       29.49024288       10.01325009
  | 1214: Species O            19.66013959       29.49024288       10.01325009
  | 1215: Species O            23.59216755       29.49024289       10.01325009
  | 1216: Species O            27.52419552       29.49024289       10.01325009
  | 1217: Species O            31.45622346        1.96601595       13.99545894
  | 1218: Species O             3.93202770        1.96601593       13.99545895
  | 1219: Species O             7.86405567        1.96601593       13.99545895
  | 1220: Species O            11.79608363        1.96601593       13.99545895
  | 1221: Species O            15.72811160        1.96601594       13.99545895
  | 1222: Species O            19.66013957        1.96601594       13.99545895
  | 1223: Species O            23.59216753        1.96601594       13.99545895
  | 1224: Species O            27.52419550        1.96601595       13.99545894
  | 1225: Species O            31.45622346        5.89804837       13.99545894
  | 1226: Species O             3.93202771        5.89804835       13.99545895
  | 1227: Species O             7.86405567        5.89804835       13.99545895
  | 1228: Species O            11.79608364        5.89804835       13.99545895
  | 1229: Species O            15.72811160        5.89804836       13.99545895
  | 1230: Species O            19.66013957        5.89804836       13.99545895
  | 1231: Species O            23.59216753        5.89804836       13.99545895
  | 1232: Species O            27.52419550        5.89804837       13.99545894
  | 1233: Species O            31.45622347        9.83008079       13.99545894
  | 1234: Species O             3.93202771        9.83008077       13.99545895
  | 1235: Species O             7.86405568        9.83008077       13.99545895
  | 1236: Species O            11.79608364        9.83008077       13.99545895
  | 1237: Species O            15.72811161        9.83008078       13.99545895
  | 1238: Species O            19.66013957        9.83008078       13.99545895
  | 1239: Species O            23.59216754        9.83008078       13.99545894
  | 1240: Species O            27.52419550        9.83008079       13.99545894
  | 1241: Species O            31.45622347       13.76211321       13.99545894
  | 1242: Species O             3.93202771       13.76211319       13.99545895
  | 1243: Species O             7.86405568       13.76211319       13.99545895
  | 1244: Species O            11.79608364       13.76211319       13.99545895
  | 1245: Species O            15.72811161       13.76211320       13.99545895
  | 1246: Species O            19.66013958       13.76211320       13.99545895
  | 1247: Species O            23.59216754       13.76211320       13.99545894
  | 1248: Species O            27.52419551       13.76211321       13.99545894
  | 1249: Species O            31.45622347       17.69414563       13.99545894
  | 1250: Species O             3.93202772       17.69414561       13.99545895
  | 1251: Species O             7.86405568       17.69414561       13.99545895
  | 1252: Species O            11.79608365       17.69414562       13.99545895
  | 1253: Species O            15.72811161       17.69414562       13.99545895
  | 1254: Species O            19.66013958       17.69414562       13.99545894
  | 1255: Species O            23.59216754       17.69414562       13.99545894
  | 1256: Species O            27.52419551       17.69414563       13.99545894
  | 1257: Species O            31.45622348       21.62617805       13.99545894
  | 1258: Species O             3.93202772       21.62617803       13.99545895
  | 1259: Species O             7.86405569       21.62617803       13.99545895
  | 1260: Species O            11.79608365       21.62617804       13.99545895
  | 1261: Species O            15.72811162       21.62617804       13.99545895
  | 1262: Species O            19.66013958       21.62617804       13.99545894
  | 1263: Species O            23.59216755       21.62617805       13.99545894
  | 1264: Species O            27.52419551       21.62617805       13.99545894
  | 1265: Species O            31.45622348       25.55821047       13.99545894
  | 1266: Species O             3.93202772       25.55821045       13.99545895
  | 1267: Species O             7.86405569       25.55821045       13.99545895
  | 1268: Species O            11.79608365       25.55821046       13.99545895
  | 1269: Species O            15.72811162       25.55821046       13.99545894
  | 1270: Species O            19.66013958       25.55821046       13.99545894
  | 1271: Species O            23.59216755       25.55821047       13.99545894
  | 1272: Species O            27.52419552       25.55821047       13.99545894
  | 1273: Species O            31.45622348       29.49024289       13.99545894
  | 1274: Species O             3.93202773       29.49024287       13.99545895
  | 1275: Species O             7.86405569       29.49024287       13.99545895
  | 1276: Species O            11.79608366       29.49024288       13.99545894
  | 1277: Species O            15.72811162       29.49024288       13.99545894
  | 1278: Species O            19.66013959       29.49024288       13.99545894
  | 1279: Species O            23.59216755       29.49024289       13.99545894
  | 1280: Species O            27.52419552       29.49024289       13.99545894
  | 1281: Species O            31.45622346        1.96601595       17.97766779
  | 1282: Species O             3.93202770        1.96601593       17.97766780
  | 1283: Species O             7.86405567        1.96601593       17.97766780
  | 1284: Species O            11.79608363        1.96601593       17.97766780
  | 1285: Species O            15.72811160        1.96601594       17.97766780
  | 1286: Species O            19.66013956        1.96601594       17.97766780
  | 1287: Species O            23.59216753        1.96601594       17.97766780
  | 1288: Species O            27.52419549        1.96601595       17.97766779
  | 1289: Species O            31.45622346        5.89804837       17.97766779
  | 1290: Species O             3.93202771        5.89804835       17.97766780
  | 1291: Species O             7.86405567        5.89804835       17.97766780
  | 1292: Species O            11.79608364        5.89804835       17.97766780
  | 1293: Species O            15.72811160        5.89804836       17.97766780
  | 1294: Species O            19.66013957        5.89804836       17.97766780
  | 1295: Species O            23.59216753        5.89804836       17.97766779
  | 1296: Species O            27.52419550        5.89804837       17.97766779
  | 1297: Species O            31.45622347        9.83008079       17.97766779
  | 1298: Species O             3.93202771        9.83008077       17.97766780
  | 1299: Species O             7.86405567        9.83008077       17.97766780
  | 1300: Species O            11.79608364        9.83008077       17.97766780
  | 1301: Species O            15.72811161        9.83008078       17.97766780
  | 1302: Species O            19.66013957        9.83008078       17.97766780
  | 1303: Species O            23.59216754        9.83008078       17.97766779
  | 1304: Species O            27.52419550        9.83008079       17.97766779
  | 1305: Species O            31.45622347       13.76211321       17.97766779
  | 1306: Species O             3.93202771       13.76211319       17.97766780
  | 1307: Species O             7.86405568       13.76211319       17.97766780
  | 1308: Species O            11.79608364       13.76211319       17.97766780
  | 1309: Species O            15.72811161       13.76211320       17.97766780
  | 1310: Species O            19.66013957       13.76211320       17.97766779
  | 1311: Species O            23.59216754       13.76211320       17.97766779
  | 1312: Species O            27.52419550       13.76211321       17.97766779
  | 1313: Species O            31.45622347       17.69414563       17.97766779
  | 1314: Species O             3.93202772       17.69414561       17.97766780
  | 1315: Species O             7.86405568       17.69414561       17.97766780
  | 1316: Species O            11.79608365       17.69414561       17.97766780
  | 1317: Species O            15.72811161       17.69414562       17.97766779
  | 1318: Species O            19.66013958       17.69414562       17.97766779
  | 1319: Species O            23.59216754       17.69414562       17.97766779
  | 1320: Species O            27.52419551       17.69414563       17.97766779
  | 1321: Species O            31.45622348       21.62617805       17.97766779
  | 1322: Species O             3.93202772       21.62617803       17.97766780
  | 1323: Species O             7.86405568       21.62617803       17.97766780
  | 1324: Species O            11.79608365       21.62617803       17.97766780
  | 1325: Species O            15.72811162       21.62617804       17.97766779
  | 1326: Species O            19.66013958       21.62617804       17.97766779
  | 1327: Species O            23.59216755       21.62617804       17.97766779
  | 1328: Species O            27.52419551       21.62617805       17.97766779
  | 1329: Species O            31.45622348       25.55821047       17.97766779
  | 1330: Species O             3.93202772       25.55821045       17.97766780
  | 1331: Species O             7.86405569       25.55821045       17.97766780
  | 1332: Species O            11.79608365       25.55821045       17.97766779
  | 1333: Species O            15.72811162       25.55821046       17.97766779
  | 1334: Species O            19.66013958       25.55821046       17.97766779
  | 1335: Species O            23.59216755       25.55821046       17.97766779
  | 1336: Species O            27.52419551       25.55821047       17.97766779
  | 1337: Species O            31.45622348       29.49024289       17.97766779
  | 1338: Species O             3.93202773       29.49024287       17.97766780
  | 1339: Species O             7.86405569       29.49024287       17.97766780
  | 1340: Species O            11.79608366       29.49024288       17.97766779
  | 1341: Species O            15.72811162       29.49024288       17.97766779
  | 1342: Species O            19.66013959       29.49024288       17.97766779
  | 1343: Species O            23.59216755       29.49024288       17.97766779
  | 1344: Species O            27.52419552       29.49024289       17.97766779
  | 1345: Species O            31.45622346        1.96601595       21.95987664
  | 1346: Species O             3.93202770        1.96601593       21.95987665
  | 1347: Species O             7.86405567        1.96601593       21.95987665
  | 1348: Species O            11.79608363        1.96601593       21.95987665
  | 1349: Species O            15.72811160        1.96601594       21.95987665
  | 1350: Species O            19.66013956        1.96601594       21.95987665
  | 1351: Species O            23.59216753        1.96601594       21.95987664
  | 1352: Species O            27.52419549        1.96601595       21.95987664
  | 1353: Species O            31.45622346        5.89804837       21.95987664
  | 1354: Species O             3.93202770        5.89804835       21.95987665
  | 1355: Species O             7.86405567        5.89804835       21.95987665
  | 1356: Species O            11.79608364        5.89804835       21.95987665
  | 1357: Species O            15.72811160        5.89804836       21.95987665
  | 1358: Species O            19.66013957        5.89804836       21.95987664
  | 1359: Species O            23.59216753        5.89804836       21.95987664
  | 1360: Species O            27.52419550        5.89804837       21.95987664
  | 1361: Species O            31.45622346        9.83008079       21.95987664
  | 1362: Species O             3.93202771        9.83008077       21.95987665
  | 1363: Species O             7.86405567        9.83008077       21.95987665
  | 1364: Species O            11.79608364        9.83008077       21.95987665
  | 1365: Species O            15.72811160        9.83008078       21.95987665
  | 1366: Species O            19.66013957        9.83008078       21.95987664
  | 1367: Species O            23.59216753        9.83008078       21.95987664
  | 1368: Species O            27.52419550        9.83008079       21.95987664
  | 1369: Species O            31.45622347       13.76211321       21.95987664
  | 1370: Species O             3.93202771       13.76211319       21.95987665
  | 1371: Species O             7.86405568       13.76211319       21.95987665
  | 1372: Species O            11.79608364       13.76211319       21.95987665
  | 1373: Species O            15.72811161       13.76211320       21.95987664
  | 1374: Species O            19.66013957       13.76211320       21.95987664
  | 1375: Species O            23.59216754       13.76211320       21.95987664
  | 1376: Species O            27.52419550       13.76211321       21.95987664
  | 1377: Species O            31.45622347       17.69414563       21.95987664
  | 1378: Species O             3.93202771       17.69414561       21.95987665
  | 1379: Species O             7.86405568       17.69414561       21.95987665
  | 1380: Species O            11.79608365       17.69414561       21.95987665
  | 1381: Species O            15.72811161       17.69414562       21.95987664
  | 1382: Species O            19.66013958       17.69414562       21.95987664
  | 1383: Species O            23.59216754       17.69414562       21.95987664
  | 1384: Species O            27.52419551       17.69414563       21.95987664
  | 1385: Species O            31.45622347       21.62617805       21.95987664
  | 1386: Species O             3.93202772       21.62617803       21.95987665
  | 1387: Species O             7.86405568       21.62617803       21.95987665
  | 1388: Species O            11.79608365       21.62617803       21.95987664
  | 1389: Species O            15.72811161       21.62617804       21.95987664
  | 1390: Species O            19.66013958       21.62617804       21.95987664
  | 1391: Species O            23.59216754       21.62617804       21.95987664
  | 1392: Species O            27.52419551       21.62617805       21.95987664
  | 1393: Species O            31.45622348       25.55821047       21.95987664
  | 1394: Species O             3.93202772       25.55821045       21.95987665
  | 1395: Species O             7.86405569       25.55821045       21.95987664
  | 1396: Species O            11.79608365       25.55821045       21.95987664
  | 1397: Species O            15.72811162       25.55821046       21.95987664
  | 1398: Species O            19.66013958       25.55821046       21.95987664
  | 1399: Species O            23.59216755       25.55821046       21.95987664
  | 1400: Species O            27.52419551       25.55821047       21.95987664
  | 1401: Species O            31.45622348       29.49024289       21.95987664
  | 1402: Species O             3.93202772       29.49024287       21.95987665
  | 1403: Species O             7.86405569       29.49024287       21.95987664
  | 1404: Species O            11.79608365       29.49024287       21.95987664
  | 1405: Species O            15.72811162       29.49024288       21.95987664
  | 1406: Species O            19.66013959       29.49024288       21.95987664
  | 1407: Species O            23.59216755       29.49024288       21.95987664
  | 1408: Species O            27.52419552       29.49024289       21.95987664
  | 1409: Species O            31.45622346        1.96601595       25.94208549
  | 1410: Species O             3.93202770        1.96601592       25.94208550
  | 1411: Species O             7.86405567        1.96601593       25.94208550
  | 1412: Species O            11.79608363        1.96601593       25.94208550
  | 1413: Species O            15.72811160        1.96601593       25.94208550
  | 1414: Species O            19.66013956        1.96601594       25.94208549
  | 1415: Species O            23.59216753        1.96601594       25.94208549
  | 1416: Species O            27.52419549        1.96601594       25.94208549
  | 1417: Species O            31.45622346        5.89804837       25.94208549
  | 1418: Species O             3.93202770        5.89804835       25.94208550
  | 1419: Species O             7.86405567        5.89804835       25.94208550
  | 1420: Species O            11.79608363        5.89804835       25.94208550
  | 1421: Species O            15.72811160        5.89804836       25.94208549
  | 1422: Species O            19.66013956        5.89804836       25.94208549
  | 1423: Species O            23.59216753        5.89804836       25.94208549
  | 1424: Species O            27.52419549        5.89804836       25.94208549
  | 1425: Species O            31.45622346        9.83008079       25.94208549
  | 1426: Species O             3.93202771        9.83008077       25.94208550
  | 1427: Species O             7.86405567        9.83008077       25.94208550
  | 1428: Species O            11.79608364        9.83008077       25.94208550
  | 1429: Species O            15.72811160        9.83008078       25.94208549
  | 1430: Species O            19.66013957        9.83008078       25.94208549
  | 1431: Species O            23.59216753        9.83008078       25.94208549
  | 1432: Species O            27.52419550        9.83008079       25.94208549
  | 1433: Species O            31.45622347       13.76211321       25.94208549
  | 1434: Species O             3.93202771       13.76211319       25.94208550
  | 1435: Species O             7.86405568       13.76211319       25.94208550
  | 1436: Species O            11.79608364       13.76211319       25.94208549
  | 1437: Species O            15.72811161       13.76211320       25.94208549
  | 1438: Species O            19.66013957       13.76211320       25.94208549
  | 1439: Species O            23.59216754       13.76211320       25.94208549
  | 1440: Species O            27.52419550       13.76211321       25.94208549
  | 1441: Species O            31.45622347       17.69414563       25.94208549
  | 1442: Species O             3.93202771       17.69414561       25.94208550
  | 1443: Species O             7.86405568       17.69414561       25.94208550
  | 1444: Species O            11.79608364       17.69414561       25.94208549
  | 1445: Species O            15.72811161       17.69414562       25.94208549
  | 1446: Species O            19.66013957       17.69414562       25.94208549
  | 1447: Species O            23.59216754       17.69414562       25.94208549
  | 1448: Species O            27.52419550       17.69414563       25.94208549
  | 1449: Species O            31.45622347       21.62617805       25.94208549
  | 1450: Species O             3.93202772       21.62617803       25.94208550
  | 1451: Species O             7.86405568       21.62617803       25.94208549
  | 1452: Species O            11.79608365       21.62617803       25.94208549
  | 1453: Species O            15.72811161       21.62617804       25.94208549
  | 1454: Species O            19.66013958       21.62617804       25.94208549
  | 1455: Species O            23.59216754       21.62617804       25.94208549
  | 1456: Species O            27.52419551       21.62617805       25.94208549
  | 1457: Species O            31.45622348       25.55821047       25.94208548
  | 1458: Species O             3.93202772       25.55821045       25.94208550
  | 1459: Species O             7.86405569       25.55821045       25.94208549
  | 1460: Species O            11.79608365       25.55821045       25.94208549
  | 1461: Species O            15.72811162       25.55821046       25.94208549
  | 1462: Species O            19.66013958       25.55821046       25.94208549
  | 1463: Species O            23.59216755       25.55821046       25.94208549
  | 1464: Species O            27.52419551       25.55821047       25.94208549
  | 1465: Species O            31.45622348       29.49024289       25.94208548
  | 1466: Species O             3.93202772       29.49024287       25.94208549
  | 1467: Species O             7.86405569       29.49024287       25.94208549
  | 1468: Species O            11.79608365       29.49024287       25.94208549
  | 1469: Species O            15.72811162       29.49024288       25.94208549
  | 1470: Species O            19.66013958       29.49024288       25.94208549
  | 1471: Species O            23.59216755       29.49024288       25.94208549
  | 1472: Species O            27.52419551       29.49024289       25.94208549
  | 1473: Species O            31.45622346        1.96601595       29.92429434
  | 1474: Species O             3.93202770        1.96601592       29.92429435
  | 1475: Species O             7.86405566        1.96601593       29.92429435
  | 1476: Species O            11.79608363        1.96601593       29.92429435
  | 1477: Species O            15.72811159        1.96601593       29.92429434
  | 1478: Species O            19.66013956        1.96601594       29.92429434
  | 1479: Species O            23.59216752        1.96601594       29.92429434
  | 1480: Species O            27.52419549        1.96601594       29.92429434
  | 1481: Species O            31.45622346        5.89804837       29.92429434
  | 1482: Species O             3.93202770        5.89804834       29.92429435
  | 1483: Species O             7.86405567        5.89804835       29.92429435
  | 1484: Species O            11.79608363        5.89804835       29.92429435
  | 1485: Species O            15.72811160        5.89804835       29.92429434
  | 1486: Species O            19.66013956        5.89804836       29.92429434
  | 1487: Species O            23.59216753        5.89804836       29.92429434
  | 1488: Species O            27.52419549        5.89804836       29.92429434
  | 1489: Species O            31.45622346        9.83008079       29.92429434
  | 1490: Species O             3.93202771        9.83008076       29.92429435
  | 1491: Species O             7.86405567        9.83008077       29.92429435
  | 1492: Species O            11.79608364        9.83008077       29.92429434
  | 1493: Species O            15.72811160        9.83008077       29.92429434
  | 1494: Species O            19.66013957        9.83008078       29.92429434
  | 1495: Species O            23.59216753        9.83008078       29.92429434
  | 1496: Species O            27.52419550        9.83008078       29.92429434
  | 1497: Species O            31.45622346       13.76211321       29.92429434
  | 1498: Species O             3.93202771       13.76211319       29.92429435
  | 1499: Species O             7.86405567       13.76211319       29.92429435
  | 1500: Species O            11.79608364       13.76211319       29.92429434
  | 1501: Species O            15.72811160       13.76211319       29.92429434
  | 1502: Species O            19.66013957       13.76211320       29.92429434
  | 1503: Species O            23.59216753       13.76211320       29.92429434
  | 1504: Species O            27.52419550       13.76211320       29.92429434
  | 1505: Species O            31.45622347       17.69414563       29.92429434
  | 1506: Species O             3.93202771       17.69414561       29.92429435
  | 1507: Species O             7.86405568       17.69414561       29.92429434
  | 1508: Species O            11.79608364       17.69414561       29.92429434
  | 1509: Species O            15.72811161       17.69414562       29.92429434
  | 1510: Species O            19.66013957       17.69414562       29.92429434
  | 1511: Species O            23.59216754       17.69414562       29.92429434
  | 1512: Species O            27.52419550       17.69414562       29.92429434
  | 1513: Species O            31.45622347       21.62617805       29.92429433
  | 1514: Species O             3.93202772       21.62617803       29.92429434
  | 1515: Species O             7.86405568       21.62617803       29.92429434
  | 1516: Species O            11.79608365       21.62617803       29.92429434
  | 1517: Species O            15.72811161       21.62617804       29.92429434
  | 1518: Species O            19.66013958       21.62617804       29.92429434
  | 1519: Species O            23.59216754       21.62617804       29.92429434
  | 1520: Species O            27.52419551       21.62617805       29.92429434
  | 1521: Species O            31.45622347       25.55821047       29.92429433
  | 1522: Species O             3.93202772       25.55821045       29.92429434
  | 1523: Species O             7.86405568       25.55821045       29.92429434
  | 1524: Species O            11.79608365       25.55821045       29.92429434
  | 1525: Species O            15.72811161       25.55821046       29.92429434
  | 1526: Species O            19.66013958       25.55821046       29.92429434
  | 1527: Species O            23.59216754       25.55821046       29.92429434
  | 1528: Species O            27.52419551       25.55821047       29.92429434
  | 1529: Species O            31.45622348       29.49024289       29.92429433
  | 1530: Species O             3.93202772       29.49024287       29.92429434
  | 1531: Species O             7.86405569       29.49024287       29.92429434
  | 1532: Species O            11.79608365       29.49024287       29.92429434
  | 1533: Species O            15.72811162       29.49024288       29.92429434
  | 1534: Species O            19.66013958       29.49024288       29.92429434
  | 1535: Species O            23.59216755       29.49024288       29.92429434
  | 1536: Species O            27.52419551       29.49024289       29.92429433
  | 1537: Species O             1.96601397        1.96601620        0.08648110
  | 1538: Species O             5.89804193        1.96601620        0.08648110
  | 1539: Species O             9.83006990        1.96601621        0.08648110
  | 1540: Species O            13.76209786        1.96601621        0.08648110
  | 1541: Species O            17.69412583        1.96601621        0.08648110
  | 1542: Species O            21.62615379        1.96601622        0.08648109
  | 1543: Species O            25.55818176        1.96601622        0.08648109
  | 1544: Species O            29.49020972        1.96601622        0.08648109
  | 1545: Species O             1.96601397        5.89804862        0.08648110
  | 1546: Species O             5.89804193        5.89804862        0.08648110
  | 1547: Species O             9.83006990        5.89804863        0.08648110
  | 1548: Species O            13.76209786        5.89804863        0.08648110
  | 1549: Species O            17.69412583        5.89804863        0.08648110
  | 1550: Species O            21.62615379        5.89804864        0.08648109
  | 1551: Species O            25.55818176        5.89804864        0.08648109
  | 1552: Species O            29.49020972        5.89804864        0.08648109
  | 1553: Species O             1.96601397        9.83008104        0.08648110
  | 1554: Species O             5.89804194        9.83008104        0.08648110
  | 1555: Species O             9.83006990        9.83008105        0.08648110
  | 1556: Species O            13.76209787        9.83008105        0.08648110
  | 1557: Species O            17.69412583        9.83008105        0.08648109
  | 1558: Species O            21.62615380        9.83008106        0.08648109
  | 1559: Species O            25.55818176        9.83008106        0.08648109
  | 1560: Species O            29.49020973        9.83008106        0.08648109
  | 1561: Species O             1.96601398       13.76211346        0.08648110
  | 1562: Species O             5.89804194       13.76211346        0.08648110
  | 1563: Species O             9.83006991       13.76211347        0.08648110
  | 1564: Species O            13.76209787       13.76211347        0.08648109
  | 1565: Species O            17.69412584       13.76211347        0.08648109
  | 1566: Species O            21.62615380       13.76211348        0.08648109
  | 1567: Species O            25.55818177       13.76211348        0.08648109
  | 1568: Species O            29.49020973       13.76211348        0.08648109
  | 1569: Species O             1.96601398       17.69414588        0.08648110
  | 1570: Species O             5.89804194       17.69414588        0.08648110
  | 1571: Species O             9.83006991       17.69414589        0.08648110
  | 1572: Species O            13.76209787       17.69414589        0.08648109
  | 1573: Species O            17.69412584       17.69414589        0.08648109
  | 1574: Species O            21.62615380       17.69414590        0.08648109
  | 1575: Species O            25.55818177       17.69414590        0.08648109
  | 1576: Species O            29.49020973       17.69414590        0.08648109
  | 1577: Species O             1.96601398       21.62617830        0.08648110
  | 1578: Species O             5.89804195       21.62617830        0.08648110
  | 1579: Species O             9.83006991       21.62617831        0.08648109
  | 1580: Species O            13.76209788       21.62617831        0.08648109
  | 1581: Species O            17.69412584       21.62617831        0.08648109
  | 1582: Species O            21.62615381       21.62617832        0.08648109
  | 1583: Species O            25.55818177       21.62617832        0.08648109
  | 1584: Species O            29.49020974       21.62617832        0.08648109
  | 1585: Species O             1.96601398       25.55821072        0.08648110
  | 1586: Species O             5.89804195       25.55821072        0.08648110
  | 1587: Species O             9.83006992       25.55821073        0.08648109
  | 1588: Species O            13.76209788       25.55821073        0.08648109
  | 1589: Species O            17.69412585       25.55821073        0.08648109
  | 1590: Species O            21.62615381       25.55821074        0.08648109
  | 1591: Species O            25.55818178       25.55821074        0.08648109
  | 1592: Species O            29.49020974       25.55821074        0.08648109
  | 1593: Species O             1.96601399       29.49024314        0.08648110
  | 1594: Species O             5.89804195       29.49024314        0.08648109
  | 1595: Species O             9.83006992       29.49024315        0.08648109
  | 1596: Species O            13.76209788       29.49024315        0.08648109
  | 1597: Species O            17.69412585       29.49024315        0.08648109
  | 1598: Species O            21.62615381       29.49024316        0.08648109
  | 1599: Species O            25.55818178       29.49024316        0.08648109
  | 1600: Species O            29.49020974       29.49024316        0.08648109
  | 1601: Species O             1.96601396        1.96601620        4.06868995
  | 1602: Species O             5.89804193        1.96601620        4.06868995
  | 1603: Species O             9.83006989        1.96601621        4.06868995
  | 1604: Species O            13.76209786        1.96601621        4.06868995
  | 1605: Species O            17.69412582        1.96601621        4.06868994
  | 1606: Species O            21.62615379        1.96601621        4.06868994
  | 1607: Species O            25.55818175        1.96601622        4.06868994
  | 1608: Species O            29.49020972        1.96601622        4.06868994
  | 1609: Species O             1.96601397        5.89804862        4.06868995
  | 1610: Species O             5.89804193        5.89804862        4.06868995
  | 1611: Species O             9.83006990        5.89804863        4.06868995
  | 1612: Species O            13.76209786        5.89804863        4.06868995
  | 1613: Species O            17.69412583        5.89804863        4.06868994
  | 1614: Species O            21.62615379        5.89804864        4.06868994
  | 1615: Species O            25.55818176        5.89804864        4.06868994
  | 1616: Species O            29.49020972        5.89804864        4.06868994
  | 1617: Species O             1.96601397        9.83008104        4.06868995
  | 1618: Species O             5.89804194        9.83008104        4.06868995
  | 1619: Species O             9.83006990        9.83008105        4.06868995
  | 1620: Species O            13.76209787        9.83008105        4.06868994
  | 1621: Species O            17.69412583        9.83008105        4.06868994
  | 1622: Species O            21.62615380        9.83008106        4.06868994
  | 1623: Species O            25.55818176        9.83008106        4.06868994
  | 1624: Species O            29.49020973        9.83008106        4.06868994
  | 1625: Species O             1.96601397       13.76211346        4.06868995
  | 1626: Species O             5.89804194       13.76211346        4.06868995
  | 1627: Species O             9.83006990       13.76211347        4.06868995
  | 1628: Species O            13.76209787       13.76211347        4.06868994
  | 1629: Species O            17.69412583       13.76211347        4.06868994
  | 1630: Species O            21.62615380       13.76211348        4.06868994
  | 1631: Species O            25.55818176       13.76211348        4.06868994
  | 1632: Species O            29.49020973       13.76211348        4.06868994
  | 1633: Species O             1.96601398       17.69414588        4.06868995
  | 1634: Species O             5.89804194       17.69414588        4.06868995
  | 1635: Species O             9.83006991       17.69414589        4.06868994
  | 1636: Species O            13.76209787       17.69414589        4.06868994
  | 1637: Species O            17.69412584       17.69414589        4.06868994
  | 1638: Species O            21.62615380       17.69414590        4.06868994
  | 1639: Species O            25.55818177       17.69414590        4.06868994
  | 1640: Species O            29.49020973       17.69414590        4.06868994
  | 1641: Species O             1.96601398       21.62617830        4.06868995
  | 1642: Species O             5.89804195       21.62617830        4.06868995
  | 1643: Species O             9.83006991       21.62617831        4.06868994
  | 1644: Species O            13.76209788       21.62617831        4.06868994
  | 1645: Species O            17.69412584       21.62617831        4.06868994
  | 1646: Species O            21.62615381       21.62617832        4.06868994
  | 1647: Species O            25.55818177       21.62617832        4.06868994
  | 1648: Species O            29.49020974       21.62617832        4.06868994
  | 1649: Species O             1.96601398       25.55821072        4.06868995
  | 1650: Species O             5.89804195       25.55821072        4.06868994
  | 1651: Species O             9.83006991       25.55821073        4.06868994
  | 1652: Species O            13.76209788       25.55821073        4.06868994
  | 1653: Species O            17.69412584       25.55821073        4.06868994
  | 1654: Species O            21.62615381       25.55821074        4.06868994
  | 1655: Species O            25.55818177       25.55821074        4.06868994
  | 1656: Species O            29.49020974       25.55821074        4.06868994
  | 1657: Species O             1.96601399       29.49024314        4.06868994
  | 1658: Species O             5.89804195       29.49024314        4.06868994
  | 1659: Species O             9.83006992       29.49024315        4.06868994
  | 1660: Species O            13.76209788       29.49024315        4.06868994
  | 1661: Species O            17.69412585       29.49024315        4.06868994
  | 1662: Species O            21.62615381       29.49024316        4.06868994
  | 1663: Species O            25.55818178       29.49024316        4.06868994
  | 1664: Species O            29.49020974       29.49024316        4.06868993
  | 1665: Species O             1.96601396        1.96601620        8.05089880
  | 1666: Species O             5.89804193        1.96601620        8.05089880
  | 1667: Species O             9.83006989        1.96601620        8.05089880
  | 1668: Species O            13.76209786        1.96601621        8.05089880
  | 1669: Species O            17.69412582        1.96601621        8.05089879
  | 1670: Species O            21.62615379        1.96601621        8.05089879
  | 1671: Species O            25.55818175        1.96601622        8.05089879
  | 1672: Species O            29.49020972        1.96601622        8.05089879
  | 1673: Species O             1.96601397        5.89804862        8.05089880
  | 1674: Species O             5.89804193        5.89804862        8.05089880
  | 1675: Species O             9.83006990        5.89804862        8.05089880
  | 1676: Species O            13.76209786        5.89804863        8.05089879
  | 1677: Species O            17.69412583        5.89804863        8.05089879
  | 1678: Species O            21.62615379        5.89804863        8.05089879
  | 1679: Species O            25.55818176        5.89804864        8.05089879
  | 1680: Species O            29.49020972        5.89804864        8.05089879
  | 1681: Species O             1.96601397        9.83008104        8.05089880
  | 1682: Species O             5.89804193        9.83008104        8.05089880
  | 1683: Species O             9.83006990        9.83008104        8.05089879
  | 1684: Species O            13.76209786        9.83008105        8.05089879
  | 1685: Species O            17.69412583        9.83008105        8.05089879
  | 1686: Species O            21.62615379        9.83008105        8.05089879
  | 1687: Species O            25.55818176        9.83008106        8.05089879
  | 1688: Species O            29.49020973        9.83008106        8.05089879
  | 1689: Species O             1.96601397       13.76211346        8.05089880
  | 1690: Species O             5.89804194       13.76211346        8.05089880
  | 1691: Species O             9.83006990       13.76211347        8.05089879
  | 1692: Species O            13.76209787       13.76211347        8.05089879
  | 1693: Species O            17.69412583       13.76211347        8.05089879
  | 1694: Species O            21.62615380       13.76211347        8.05089879
  | 1695: Species O            25.55818176       13.76211348        8.05089879
  | 1696: Species O            29.49020973       13.76211348        8.05089879
  | 1697: Species O             1.96601398       17.69414588        8.05089880
  | 1698: Species O             5.89804194       17.69414588        8.05089879
  | 1699: Species O             9.83006991       17.69414589        8.05089879
  | 1700: Species O            13.76209787       17.69414589        8.05089879
  | 1701: Species O            17.69412584       17.69414589        8.05089879
  | 1702: Species O            21.62615380       17.69414590        8.05089879
  | 1703: Species O            25.55818177       17.69414590        8.05089879
  | 1704: Species O            29.49020973       17.69414590        8.05089879
  | 1705: Species O             1.96601398       21.62617830        8.05089880
  | 1706: Species O             5.89804194       21.62617830        8.05089879
  | 1707: Species O             9.83006991       21.62617831        8.05089879
  | 1708: Species O            13.76209787       21.62617831        8.05089879
  | 1709: Species O            17.69412584       21.62617831        8.05089879
  | 1710: Species O            21.62615380       21.62617832        8.05089879
  | 1711: Species O            25.55818177       21.62617832        8.05089879
  | 1712: Species O            29.49020974       21.62617832        8.05089878
  | 1713: Species O             1.96601398       25.55821072        8.05089879
  | 1714: Species O             5.89804195       25.55821072        8.05089879
  | 1715: Species O             9.83006991       25.55821073        8.05089879
  | 1716: Species O            13.76209788       25.55821073        8.05089879
  | 1717: Species O            17.69412584       25.55821073        8.05089879
  | 1718: Species O            21.62615381       25.55821074        8.05089879
  | 1719: Species O            25.55818177       25.55821074        8.05089879
  | 1720: Species O            29.49020974       25.55821074        8.05089878
  | 1721: Species O             1.96601399       29.49024314        8.05089879
  | 1722: Species O             5.89804195       29.49024314        8.05089879
  | 1723: Species O             9.83006992       29.49024315        8.05089879
  | 1724: Species O            13.76209788       29.49024315        8.05089879
  | 1725: Species O            17.69412585       29.49024315        8.05089879
  | 1726: Species O            21.62615381       29.49024316        8.05089879
  | 1727: Species O            25.55818178       29.49024316        8.05089878
  | 1728: Species O            29.49020974       29.49024316        8.05089878
  | 1729: Species O             1.96601396        1.96601620       12.03310765
  | 1730: Species O             5.89804193        1.96601620       12.03310765
  | 1731: Species O             9.83006989        1.96601620       12.03310765
  | 1732: Species O            13.76209786        1.96601621       12.03310764
  | 1733: Species O            17.69412582        1.96601621       12.03310764
  | 1734: Species O            21.62615379        1.96601621       12.03310764
  | 1735: Species O            25.55818175        1.96601622       12.03310764
  | 1736: Species O            29.49020972        1.96601622       12.03310764
  | 1737: Species O             1.96601396        5.89804862       12.03310765
  | 1738: Species O             5.89804193        5.89804862       12.03310765
  | 1739: Species O             9.83006989        5.89804862       12.03310764
  | 1740: Species O            13.76209786        5.89804863       12.03310764
  | 1741: Species O            17.69412582        5.89804863       12.03310764
  | 1742: Species O            21.62615379        5.89804863       12.03310764
  | 1743: Species O            25.55818176        5.89804864       12.03310764
  | 1744: Species O            29.49020972        5.89804864       12.03310764
  | 1745: Species O             1.96601397        9.83008104       12.03310765
  | 1746: Species O             5.89804193        9.83008104       12.03310765
  | 1747: Species O             9.83006990        9.83008104       12.03310764
  | 1748: Species O            13.76209786        9.83008105       12.03310764
  | 1749: Species O            17.69412583        9.83008105       12.03310764
  | 1750: Species O            21.62615379        9.83008105       12.03310764
  | 1751: Species O            25.55818176        9.83008106       12.03310764
  | 1752: Species O            29.49020972        9.83008106       12.03310764
  | 1753: Species O             1.96601397       13.76211346       12.03310765
  | 1754: Species O             5.89804194       13.76211346       12.03310764
  | 1755: Species O             9.83006990       13.76211346       12.03310764
  | 1756: Species O            13.76209787       13.76211347       12.03310764
  | 1757: Species O            17.69412583       13.76211347       12.03310764
  | 1758: Species O            21.62615380       13.76211347       12.03310764
  | 1759: Species O            25.55818176       13.76211348       12.03310764
  | 1760: Species O            29.49020973       13.76211348       12.03310764
  | 1761: Species O             1.96601397       17.69414588       12.03310765
  | 1762: Species O             5.89804194       17.69414588       12.03310764
  | 1763: Species O             9.83006990       17.69414588       12.03310764
  | 1764: Species O            13.76209787       17.69414589       12.03310764
  | 1765: Species O            17.69412583       17.69414589       12.03310764
  | 1766: Species O            21.62615380       17.69414589       12.03310764
  | 1767: Species O            25.55818177       17.69414590       12.03310764
  | 1768: Species O            29.49020973       17.69414590       12.03310763
  | 1769: Species O             1.96601398       21.62617830       12.03310764
  | 1770: Species O             5.89804194       21.62617830       12.03310764
  | 1771: Species O             9.83006991       21.62617830       12.03310764
  | 1772: Species O            13.76209787       21.62617831       12.03310764
  | 1773: Species O            17.69412584       21.62617831       12.03310764
  | 1774: Species O            21.62615380       21.62617831       12.03310764
  | 1775: Species O            25.55818177       21.62617832       12.03310764
  | 1776: Species O            29.49020973       21.62617832       12.03310763
  | 1777: Species O             1.96601398       25.55821072       12.03310764
  | 1778: Species O             5.89804195       25.55821072       12.03310764
  | 1779: Species O             9.83006991       25.55821073       12.03310764
  | 1780: Species O            13.76209788       25.55821073       12.03310764
  | 1781: Species O            17.69412584       25.55821073       12.03310764
  | 1782: Species O            21.62615381       25.55821073       12.03310764
  | 1783: Species O            25.55818177       25.55821074       12.03310763
  | 1784: Species O            29.49020974       25.55821074       12.03310763
  | 1785: Species O             1.96601398       29.49024314       12.03310764
  | 1786: Species O             5.89804195       29.49024314       12.03310764
  | 1787: Species O             9.83006991       29.49024315       12.03310764
  | 1788: Species O            13.76209788       29.49024315       12.03310764
  | 1789: Species O            17.69412584       29.49024315       12.03310764
  | 1790: Species O            21.62615381       29.49024316       12.03310764
  | 1791: Species O            25.55818177       29.49024316       12.03310763
  | 1792: Species O            29.49020974       29.49024316       12.03310763
  | 1793: Species O             1.96601396        1.96601620       16.01531650
  | 1794: Species O             5.89804192        1.96601620       16.01531650
  | 1795: Species O             9.83006989        1.96601620       16.01531649
  | 1796: Species O            13.76209785        1.96601621       16.01531649
  | 1797: Species O            17.69412582        1.96601621       16.01531649
  | 1798: Species O            21.62615379        1.96601621       16.01531649
  | 1799: Species O            25.55818175        1.96601622       16.01531649
  | 1800: Species O            29.49020972        1.96601622       16.01531649
  | 1801: Species O             1.96601396        5.89804862       16.01531650
  | 1802: Species O             5.89804193        5.89804862       16.01531649
  | 1803: Species O             9.83006989        5.89804862       16.01531649
  | 1804: Species O            13.76209786        5.89804863       16.01531649
  | 1805: Species O            17.69412582        5.89804863       16.01531649
  | 1806: Species O            21.62615379        5.89804863       16.01531649
  | 1807: Species O            25.55818175        5.89804864       16.01531649
  | 1808: Species O            29.49020972        5.89804864       16.01531649
  | 1809: Species O             1.96601397        9.83008104       16.01531650
  | 1810: Species O             5.89804193        9.83008104       16.01531649
  | 1811: Species O             9.83006990        9.83008104       16.01531649
  | 1812: Species O            13.76209786        9.83008105       16.01531649
  | 1813: Species O            17.69412583        9.83008105       16.01531649
  | 1814: Species O            21.62615379        9.83008105       16.01531649
  | 1815: Species O            25.55818176        9.83008106       16.01531649
  | 1816: Species O            29.49020972        9.83008106       16.01531649
  | 1817: Species O             1.96601397       13.76211346       16.01531649
  | 1818: Species O             5.89804193       13.76211346       16.01531649
  | 1819: Species O             9.83006990       13.76211346       16.01531649
  | 1820: Species O            13.76209786       13.76211347       16.01531649
  | 1821: Species O            17.69412583       13.76211347       16.01531649
  | 1822: Species O            21.62615380       13.76211347       16.01531649
  | 1823: Species O            25.55818176       13.76211348       16.01531649
  | 1824: Species O            29.49020973       13.76211348       16.01531648
  | 1825: Species O             1.96601397       17.69414588       16.01531649
  | 1826: Species O             5.89804194       17.69414588       16.01531649
  | 1827: Species O             9.83006990       17.69414588       16.01531649
  | 1828: Species O            13.76209787       17.69414589       16.01531649
  | 1829: Species O            17.69412583       17.69414589       16.01531649
  | 1830: Species O            21.62615380       17.69414589       16.01531649
  | 1831: Species O            25.55818176       17.69414590       16.01531648
  | 1832: Species O            29.49020973       17.69414590       16.01531648
  | 1833: Species O             1.96601398       21.62617830       16.01531649
  | 1834: Species O             5.89804194       21.62617830       16.01531649
  | 1835: Species O             9.83006991       21.62617830       16.01531649
  | 1836: Species O            13.76209787       21.62617831       16.01531649
  | 1837: Species O            17.69412584       21.62617831       16.01531649
  | 1838: Species O            21.62615380       21.62617831       16.01531649
  | 1839: Species O            25.55818177       21.62617832       16.01531648
  | 1840: Species O            29.49020973       21.62617832       16.01531648
  | 1841: Species O             1.96601398       25.55821072       16.01531649
  | 1842: Species O             5.89804194       25.55821072       16.01531649
  | 1843: Species O             9.83006991       25.55821072       16.01531649
  | 1844: Species O            13.76209787       25.55821073       16.01531649
  | 1845: Species O            17.69412584       25.55821073       16.01531649
  | 1846: Species O            21.62615381       25.55821073       16.01531648
  | 1847: Species O            25.55818177       25.55821074       16.01531648
  | 1848: Species O            29.49020974       25.55821074       16.01531648
  | 1849: Species O             1.96601398       29.49024314       16.01531649
  | 1850: Species O             5.89804195       29.49024314       16.01531649
  | 1851: Species O             9.83006991       29.49024314       16.01531649
  | 1852: Species O            13.76209788       29.49024315       16.01531649
  | 1853: Species O            17.69412584       29.49024315       16.01531649
  | 1854: Species O            21.62615381       29.49024315       16.01531648
  | 1855: Species O            25.55818177       29.49024316       16.01531648
  | 1856: Species O            29.49020974       29.49024316       16.01531648
  | 1857: Species O             1.96601396        1.96601620       19.99752535
  | 1858: Species O             5.89804192        1.96601620       19.99752534
  | 1859: Species O             9.83006989        1.96601620       19.99752534
  | 1860: Species O            13.76209785        1.96601621       19.99752534
  | 1861: Species O            17.69412582        1.96601621       19.99752534
  | 1862: Species O            21.62615378        1.96601621       19.99752534
  | 1863: Species O            25.55818175        1.96601621       19.99752534
  | 1864: Species O            29.49020971        1.96601622       19.99752534
  | 1865: Species O             1.96601396        5.89804862       19.99752535
  | 1866: Species O             5.89804193        5.89804862       19.99752534
  | 1867: Species O             9.83006989        5.89804862       19.99752534
  | 1868: Species O            13.76209786        5.89804863       19.99752534
  | 1869: Species O            17.69412582        5.89804863       19.99752534
  | 1870: Species O            21.62615379        5.89804863       19.99752534
  | 1871: Species O            25.55818175        5.89804864       19.99752534
  | 1872: Species O            29.49020972        5.89804864       19.99752533
  | 1873: Species O             1.96601396        9.83008104       19.99752534
  | 1874: Species O             5.89804193        9.83008104       19.99752534
  | 1875: Species O             9.83006989        9.83008104       19.99752534
  | 1876: Species O            13.76209786        9.83008105       19.99752534
  | 1877: Species O            17.69412583        9.83008105       19.99752534
  | 1878: Species O            21.62615379        9.83008105       19.99752534
  | 1879: Species O            25.55818176        9.83008106       19.99752534
  | 1880: Species O            29.49020972        9.83008106       19.99752533
  | 1881: Species O             1.96601397       13.76211346       19.99752534
  | 1882: Species O             5.89804193       13.76211346       19.99752534
  | 1883: Species O             9.83006990       13.76211346       19.99752534
  | 1884: Species O            13.76209786       13.76211347       19.99752534
  | 1885: Species O            17.69412583       13.76211347       19.99752534
  | 1886: Species O            21.62615379       13.76211347       19.99752534
  | 1887: Species O            25.55818176       13.76211348       19.99752533
  | 1888: Species O            29.49020972       13.76211348       19.99752533
  | 1889: Species O             1.96601397       17.69414588       19.99752534
  | 1890: Species O             5.89804194       17.69414588       19.99752534
  | 1891: Species O             9.83006990       17.69414588       19.99752534
  | 1892: Species O            13.76209787       17.69414589       19.99752534
  | 1893: Species O            17.69412583       17.69414589       19.99752534
  | 1894: Species O            21.62615380       17.69414589       19.99752534
  | 1895: Species O            25.55818176       17.69414590       19.99752533
  | 1896: Species O            29.49020973       17.69414590       19.99752533
  | 1897: Species O             1.96601397       21.62617830       19.99752534
  | 1898: Species O             5.89804194       21.62617830       19.99752534
  | 1899: Species O             9.83006990       21.62617830       19.99752534
  | 1900: Species O            13.76209787       21.62617831       19.99752534
  | 1901: Species O            17.69412584       21.62617831       19.99752534
  | 1902: Species O            21.62615380       21.62617831       19.99752533
  | 1903: Species O            25.55818177       21.62617832       19.99752533
  | 1904: Species O            29.49020973       21.62617832       19.99752533
  | 1905: Species O             1.96601398       25.55821072       19.99752534
  | 1906: Species O             5.89804194       25.55821072       19.99752534
  | 1907: Species O             9.83006991       25.55821072       19.99752534
  | 1908: Species O            13.76209787       25.55821073       19.99752534
  | 1909: Species O            17.69412584       25.55821073       19.99752534
  | 1910: Species O            21.62615380       25.55821073       19.99752533
  | 1911: Species O            25.55818177       25.55821074       19.99752533
  | 1912: Species O            29.49020973       25.55821074       19.99752533
  | 1913: Species O             1.96601398       29.49024314       19.99752534
  | 1914: Species O             5.89804195       29.49024314       19.99752534
  | 1915: Species O             9.83006991       29.49024314       19.99752534
  | 1916: Species O            13.76209788       29.49024315       19.99752534
  | 1917: Species O            17.69412584       29.49024315       19.99752533
  | 1918: Species O            21.62615381       29.49024315       19.99752533
  | 1919: Species O            25.55818177       29.49024316       19.99752533
  | 1920: Species O            29.49020974       29.49024316       19.99752533
  | 1921: Species O             1.96601396        1.96601619       23.97973419
  | 1922: Species O             5.89804192        1.96601620       23.97973419
  | 1923: Species O             9.83006989        1.96601620       23.97973419
  | 1924: Species O            13.76209785        1.96601620       23.97973419
  | 1925: Species O            17.69412582        1.96601621       23.97973419
  | 1926: Species O            21.62615378        1.96601621       23.97973419
  | 1927: Species O            25.55818175        1.96601621       23.97973419
  | 1928: Species O            29.49020971        1.96601622       23.97973418
  | 1929: Species O             1.96601396        5.89804861       23.97973419
  | 1930: Species O             5.89804192        5.89804862       23.97973419
  | 1931: Species O             9.83006989        5.89804862       23.97973419
  | 1932: Species O            13.76209786        5.89804862       23.97973419
  | 1933: Species O            17.69412582        5.89804863       23.97973419
  | 1934: Species O            21.62615379        5.89804863       23.97973419
  | 1935: Species O            25.55818175        5.89804863       23.97973419
  | 1936: Species O            29.49020972        5.89804864       23.97973418
  | 1937: Species O             1.96601396        9.83008104       23.97973419
  | 1938: Species O             5.89804193        9.83008104       23.97973419
  | 1939: Species O             9.83006989        9.83008104       23.97973419
  | 1940: Species O            13.76209786        9.83008104       23.97973419
  | 1941: Species O            17.69412582        9.83008105       23.97973419
  | 1942: Species O            21.62615379        9.83008105       23.97973419
  | 1943: Species O            25.55818175        9.83008105       23.97973418
  | 1944: Species O            29.49020972        9.83008106       23.97973418
  | 1945: Species O             1.96601397       13.76211346       23.97973419
  | 1946: Species O             5.89804193       13.76211346       23.97973419
  | 1947: Species O             9.83006990       13.76211346       23.97973419
  | 1948: Species O            13.76209786       13.76211347       23.97973419
  | 1949: Species O            17.69412583       13.76211347       23.97973419
  | 1950: Species O            21.62615379       13.76211347       23.97973418
  | 1951: Species O            25.55818176       13.76211347       23.97973418
  | 1952: Species O            29.49020972       13.76211348       23.97973418
  | 1953: Species O             1.96601397       17.69414588       23.97973419
  | 1954: Species O             5.89804193       17.69414588       23.97973419
  | 1955: Species O             9.83006990       17.69414588       23.97973419
  | 1956: Species O            13.76209787       17.69414589       23.97973419
  | 1957: Species O            17.69412583       17.69414589       23.97973419
  | 1958: Species O            21.62615380       17.69414589       23.97973418
  | 1959: Species O            25.55818176       17.69414590       23.97973418
  | 1960: Species O            29.49020973       17.69414590       23.97973418
  | 1961: Species O             1.96601397       21.62617830       23.97973419
  | 1962: Species O             5.89804194       21.62617830       23.97973419
  | 1963: Species O             9.83006990       21.62617830       23.97973419
  | 1964: Species O            13.76209787       21.62617831       23.97973419
  | 1965: Species O            17.69412583       21.62617831       23.97973418
  | 1966: Species O            21.62615380       21.62617831       23.97973418
  | 1967: Species O            25.55818176       21.62617832       23.97973418
  | 1968: Species O            29.49020973       21.62617832       23.97973418
  | 1969: Species O             1.96601398       25.55821072       23.97973419
  | 1970: Species O             5.89804194       25.55821072       23.97973419
  | 1971: Species O             9.83006991       25.55821072       23.97973419
  | 1972: Species O            13.76209787       25.55821073       23.97973419
  | 1973: Species O            17.69412584       25.55821073       23.97973418
  | 1974: Species O            21.62615380       25.55821073       23.97973418
  | 1975: Species O            25.55818177       25.55821074       23.97973418
  | 1976: Species O            29.49020973       25.55821074       23.97973418
  | 1977: Species O             1.96601398       29.49024314       23.97973419
  | 1978: Species O             5.89804194       29.49024314       23.97973419
  | 1979: Species O             9.83006991       29.49024314       23.97973419
  | 1980: Species O            13.76209788       29.49024315       23.97973418
  | 1981: Species O            17.69412584       29.49024315       23.97973418
  | 1982: Species O            21.62615381       29.49024315       23.97973418
  | 1983: Species O            25.55818177       29.49024316       23.97973418
  | 1984: Species O            29.49020974       29.49024316       23.97973418
  | 1985: Species O             1.96601396        1.96601619       27.96194304
  | 1986: Species O             5.89804192        1.96601620       27.96194304
  | 1987: Species O             9.83006989        1.96601620       27.96194304
  | 1988: Species O            13.76209785        1.96601620       27.96194304
  | 1989: Species O            17.69412582        1.96601621       27.96194304
  | 1990: Species O            21.62615378        1.96601621       27.96194304
  | 1991: Species O            25.55818175        1.96601621       27.96194303
  | 1992: Species O            29.49020971        1.96601622       27.96194303
  | 1993: Species O             1.96601396        5.89804861       27.96194304
  | 1994: Species O             5.89804192        5.89804862       27.96194304
  | 1995: Species O             9.83006989        5.89804862       27.96194304
  | 1996: Species O            13.76209785        5.89804862       27.96194304
  | 1997: Species O            17.69412582        5.89804863       27.96194304
  | 1998: Species O            21.62615378        5.89804863       27.96194304
  | 1999: Species O            25.55818175        5.89804863       27.96194303
  | 2000: Species O            29.49020971        5.89804864       27.96194303
  | 2001: Species O             1.96601396        9.83008103       27.96194304
  | 2002: Species O             5.89804193        9.83008104       27.96194304
  | 2003: Species O             9.83006989        9.83008104       27.96194304
  | 2004: Species O            13.76209786        9.83008104       27.96194304
  | 2005: Species O            17.69412582        9.83008105       27.96194304
  | 2006: Species O            21.62615379        9.83008105       27.96194303
  | 2007: Species O            25.55818175        9.83008105       27.96194303
  | 2008: Species O            29.49020972        9.83008106       27.96194303
  | 2009: Species O             1.96601396       13.76211345       27.96194304
  | 2010: Species O             5.89804193       13.76211346       27.96194304
  | 2011: Species O             9.83006990       13.76211346       27.96194304
  | 2012: Species O            13.76209786       13.76211346       27.96194304
  | 2013: Species O            17.69412583       13.76211347       27.96194304
  | 2014: Species O            21.62615379       13.76211347       27.96194303
  | 2015: Species O            25.55818176       13.76211347       27.96194303
  | 2016: Species O            29.49020972       13.76211348       27.96194303
  | 2017: Species O             1.96601397       17.69414587       27.96194304
  | 2018: Species O             5.89804193       17.69414588       27.96194304
  | 2019: Species O             9.83006990       17.69414588       27.96194304
  | 2020: Species O            13.76209786       17.69414588       27.96194304
  | 2021: Species O            17.69412583       17.69414589       27.96194303
  | 2022: Species O            21.62615379       17.69414589       27.96194303
  | 2023: Species O            25.55818176       17.69414589       27.96194303
  | 2024: Species O            29.49020972       17.69414590       27.96194303
  | 2025: Species O             1.96601397       21.62617830       27.96194304
  | 2026: Species O             5.89804194       21.62617830       27.96194304
  | 2027: Species O             9.83006990       21.62617830       27.96194304
  | 2028: Species O            13.76209787       21.62617830       27.96194304
  | 2029: Species O            17.69412583       21.62617831       27.96194303
  | 2030: Species O            21.62615380       21.62617831       27.96194303
  | 2031: Species O            25.55818176       21.62617831       27.96194303
  | 2032: Species O            29.49020973       21.62617832       27.96194303
  | 2033: Species O             1.96601397       25.55821072       27.96194304
  | 2034: Species O             5.89804194       25.55821072       27.96194304
  | 2035: Species O             9.83006991       25.55821072       27.96194304
  | 2036: Species O            13.76209787       25.55821073       27.96194303
  | 2037: Species O            17.69412584       25.55821073       27.96194303
  | 2038: Species O            21.62615380       25.55821073       27.96194303
  | 2039: Species O            25.55818177       25.55821074       27.96194303
  | 2040: Species O            29.49020973       25.55821074       27.96194303
  | 2041: Species O             1.96601398       29.49024314       27.96194304
  | 2042: Species O             5.89804194       29.49024314       27.96194304
  | 2043: Species O             9.83006991       29.49024314       27.96194303
  | 2044: Species O            13.76209787       29.49024315       27.96194303
  | 2045: Species O            17.69412584       29.49024315       27.96194303
  | 2046: Species O            21.62615380       29.49024315       27.96194303
  | 2047: Species O            25.55818177       29.49024316       27.96194303
  | 2048: Species O            29.49020973       29.49024316       27.96194303
  | 2049: Species Ti            1.96601377        1.96601586        1.93982197
  | 2050: Species Ti            5.89804173        1.96601586        1.93982197
  | 2051: Species Ti            9.83006970        1.96601586        1.93982197
  | 2052: Species Ti           13.76209766        1.96601587        1.93982197
  | 2053: Species Ti           17.69412563        1.96601587        1.93982196
  | 2054: Species Ti           21.62615359        1.96601587        1.93982196
  | 2055: Species Ti           25.55818156        1.96601588        1.93982196
  | 2056: Species Ti           29.49020952        1.96601588        1.93982196
  | 2057: Species Ti            1.96601377        5.89804828        1.93982197
  | 2058: Species Ti            5.89804173        5.89804828        1.93982197
  | 2059: Species Ti            9.83006970        5.89804828        1.93982197
  | 2060: Species Ti           13.76209767        5.89804829        1.93982196
  | 2061: Species Ti           17.69412563        5.89804829        1.93982196
  | 2062: Species Ti           21.62615360        5.89804829        1.93982196
  | 2063: Species Ti           25.55818156        5.89804830        1.93982196
  | 2064: Species Ti           29.49020953        5.89804830        1.93982196
  | 2065: Species Ti            1.96601377        9.83008070        1.93982197
  | 2066: Species Ti            5.89804174        9.83008070        1.93982197
  | 2067: Species Ti            9.83006970        9.83008070        1.93982197
  | 2068: Species Ti           13.76209767        9.83008071        1.93982196
  | 2069: Species Ti           17.69412563        9.83008071        1.93982196
  | 2070: Species Ti           21.62615360        9.83008071        1.93982196
  | 2071: Species Ti           25.55818156        9.83008072        1.93982196
  | 2072: Species Ti           29.49020953        9.83008072        1.93982196
  | 2073: Species Ti            1.96601378       13.76211312        1.93982197
  | 2074: Species Ti            5.89804174       13.76211312        1.93982197
  | 2075: Species Ti            9.83006971       13.76211312        1.93982196
  | 2076: Species Ti           13.76209767       13.76211313        1.93982196
  | 2077: Species Ti           17.69412564       13.76211313        1.93982196
  | 2078: Species Ti           21.62615360       13.76211313        1.93982196
  | 2079: Species Ti           25.55818157       13.76211314        1.93982196
  | 2080: Species Ti           29.49020953       13.76211314        1.93982196
  | 2081: Species Ti            1.96601378       17.69414554        1.93982197
  | 2082: Species Ti            5.89804174       17.69414554        1.93982197
  | 2083: Species Ti            9.83006971       17.69414554        1.93982196
  | 2084: Species Ti           13.76209767       17.69414555        1.93982196
  | 2085: Species Ti           17.69412564       17.69414555        1.93982196
  | 2086: Species Ti           21.62615361       17.69414555        1.93982196
  | 2087: Species Ti           25.55818157       17.69414556        1.93982196
  | 2088: Species Ti           29.49020954       17.69414556        1.93982196
  | 2089: Species Ti            1.96601378       21.62617796        1.93982197
  | 2090: Species Ti            5.89804175       21.62617796        1.93982196
  | 2091: Species Ti            9.83006971       21.62617796        1.93982196
  | 2092: Species Ti           13.76209768       21.62617797        1.93982196
  | 2093: Species Ti           17.69412564       21.62617797        1.93982196
  | 2094: Species Ti           21.62615361       21.62617797        1.93982196
  | 2095: Species Ti           25.55818157       21.62617798        1.93982196
  | 2096: Species Ti           29.49020954       21.62617798        1.93982196
  | 2097: Species Ti            1.96601379       25.55821038        1.93982196
  | 2098: Species Ti            5.89804175       25.55821038        1.93982196
  | 2099: Species Ti            9.83006972       25.55821038        1.93982196
  | 2100: Species Ti           13.76209768       25.55821039        1.93982196
  | 2101: Species Ti           17.69412565       25.55821039        1.93982196
  | 2102: Species Ti           21.62615361       25.55821039        1.93982196
  | 2103: Species Ti           25.55818158       25.55821040        1.93982196
  | 2104: Species Ti           29.49020954       25.55821040        1.93982195
  | 2105: Species Ti            1.96601379       29.49024280        1.93982196
  | 2106: Species Ti            5.89804175       29.49024280        1.93982196
  | 2107: Species Ti            9.83006972       29.49024281        1.93982196
  | 2108: Species Ti           13.76209768       29.49024281        1.93982196
  | 2109: Species Ti           17.69412565       29.49024281        1.93982196
  | 2110: Species Ti           21.62615362       29.49024281        1.93982196
  | 2111: Species Ti           25.55818158       29.49024282        1.93982196
  | 2112: Species Ti           29.49020955       29.49024282        1.93982195
  | 2113: Species Ti            1.96601376        1.96601586        5.92203082
  | 2114: Species Ti            5.89804173        1.96601586        5.92203082
  | 2115: Species Ti            9.83006970        1.96601586        5.92203082
  | 2116: Species Ti           13.76209766        1.96601587        5.92203081
  | 2117: Species Ti           17.69412563        1.96601587        5.92203081
  | 2118: Species Ti           21.62615359        1.96601587        5.92203081
  | 2119: Species Ti           25.55818156        1.96601588        5.92203081
  | 2120: Species Ti           29.49020952        1.96601588        5.92203081
  | 2121: Species Ti            1.96601377        5.89804828        5.92203082
  | 2122: Species Ti            5.89804173        5.89804828        5.92203082
  | 2123: Species Ti            9.83006970        5.89804828        5.92203082
  | 2124: Species Ti           13.76209766        5.89804829        5.92203081
  | 2125: Species Ti           17.69412563        5.89804829        5.92203081
  | 2126: Species Ti           21.62615359        5.89804829        5.92203081
  | 2127: Species Ti           25.55818156        5.89804830        5.92203081
  | 2128: Species Ti           29.49020952        5.89804830        5.92203081
  | 2129: Species Ti            1.96601377        9.83008070        5.92203082
  | 2130: Species Ti            5.89804174        9.83008070        5.92203082
  | 2131: Species Ti            9.83006970        9.83008070        5.92203081
  | 2132: Species Ti           13.76209767        9.83008071        5.92203081
  | 2133: Species Ti           17.69412563        9.83008071        5.92203081
  | 2134: Species Ti           21.62615360        9.83008071        5.92203081
  | 2135: Species Ti           25.55818156        9.83008072        5.92203081
  | 2136: Species Ti           29.49020953        9.83008072        5.92203081
  | 2137: Species Ti            1.96601377       13.76211312        5.92203082
  | 2138: Species Ti            5.89804174       13.76211312        5.92203081
  | 2139: Species Ti            9.83006970       13.76211312        5.92203081
  | 2140: Species Ti           13.76209767       13.76211313        5.92203081
  | 2141: Species Ti           17.69412564       13.76211313        5.92203081
  | 2142: Species Ti           21.62615360       13.76211313        5.92203081
  | 2143: Species Ti           25.55818157       13.76211314        5.92203081
  | 2144: Species Ti           29.49020953       13.76211314        5.92203081
  | 2145: Species Ti            1.96601378       17.69414554        5.92203082
  | 2146: Species Ti            5.89804174       17.69414554        5.92203081
  | 2147: Species Ti            9.83006971       17.69414554        5.92203081
  | 2148: Species Ti           13.76209767       17.69414555        5.92203081
  | 2149: Species Ti           17.69412564       17.69414555        5.92203081
  | 2150: Species Ti           21.62615360       17.69414555        5.92203081
  | 2151: Species Ti           25.55818157       17.69414556        5.92203081
  | 2152: Species Ti           29.49020953       17.69414556        5.92203081
  | 2153: Species Ti            1.96601378       21.62617796        5.92203081
  | 2154: Species Ti            5.89804175       21.62617796        5.92203081
  | 2155: Species Ti            9.83006971       21.62617796        5.92203081
  | 2156: Species Ti           13.76209768       21.62617797        5.92203081
  | 2157: Species Ti           17.69412564       21.62617797        5.92203081
  | 2158: Species Ti           21.62615361       21.62617797        5.92203081
  | 2159: Species Ti           25.55818157       21.62617798        5.92203081
  | 2160: Species Ti           29.49020954       21.62617798        5.92203080
  | 2161: Species Ti            1.96601378       25.55821038        5.92203081
  | 2162: Species Ti            5.89804175       25.55821038        5.92203081
  | 2163: Species Ti            9.83006971       25.55821038        5.92203081
  | 2164: Species Ti           13.76209768       25.55821039        5.92203081
  | 2165: Species Ti           17.69412565       25.55821039        5.92203081
  | 2166: Species Ti           21.62615361       25.55821039        5.92203081
  | 2167: Species Ti           25.55818158       25.55821040        5.92203080
  | 2168: Species Ti           29.49020954       25.55821040        5.92203080
  | 2169: Species Ti            1.96601379       29.49024280        5.92203081
  | 2170: Species Ti            5.89804175       29.49024280        5.92203081
  | 2171: Species Ti            9.83006972       29.49024280        5.92203081
  | 2172: Species Ti           13.76209768       29.49024281        5.92203081
  | 2173: Species Ti           17.69412565       29.49024281        5.92203081
  | 2174: Species Ti           21.62615361       29.49024281        5.92203081
  | 2175: Species Ti           25.55818158       29.49024282        5.92203080
  | 2176: Species Ti           29.49020954       29.49024282        5.92203080
  | 2177: Species Ti            1.96601376        1.96601585        9.90423967
  | 2178: Species Ti            5.89804173        1.96601586        9.90423967
  | 2179: Species Ti            9.83006969        1.96601586        9.90423966
  | 2180: Species Ti           13.76209766        1.96601586        9.90423966
  | 2181: Species Ti           17.69412562        1.96601587        9.90423966
  | 2182: Species Ti           21.62615359        1.96601587        9.90423966
  | 2183: Species Ti           25.55818155        1.96601587        9.90423966
  | 2184: Species Ti           29.49020952        1.96601588        9.90423966
  | 2185: Species Ti            1.96601377        5.89804828        9.90423967
  | 2186: Species Ti            5.89804173        5.89804828        9.90423967
  | 2187: Species Ti            9.83006970        5.89804828        9.90423966
  | 2188: Species Ti           13.76209766        5.89804829        9.90423966
  | 2189: Species Ti           17.69412563        5.89804829        9.90423966
  | 2190: Species Ti           21.62615359        5.89804829        9.90423966
  | 2191: Species Ti           25.55818156        5.89804829        9.90423966
  | 2192: Species Ti           29.49020952        5.89804830        9.90423966
  | 2193: Species Ti            1.96601377        9.83008070        9.90423967
  | 2194: Species Ti            5.89804174        9.83008070        9.90423966
  | 2195: Species Ti            9.83006970        9.83008070        9.90423966
  | 2196: Species Ti           13.76209767        9.83008071        9.90423966
  | 2197: Species Ti           17.69412563        9.83008071        9.90423966
  | 2198: Species Ti           21.62615360        9.83008071        9.90423966
  | 2199: Species Ti           25.55818156        9.83008072        9.90423966
  | 2200: Species Ti           29.49020953        9.83008072        9.90423966
  | 2201: Species Ti            1.96601377       13.76211312        9.90423967
  | 2202: Species Ti            5.89804174       13.76211312        9.90423966
  | 2203: Species Ti            9.83006970       13.76211312        9.90423966
  | 2204: Species Ti           13.76209767       13.76211313        9.90423966
  | 2205: Species Ti           17.69412563       13.76211313        9.90423966
  | 2206: Species Ti           21.62615360       13.76211313        9.90423966
  | 2207: Species Ti           25.55818156       13.76211314        9.90423966
  | 2208: Species Ti           29.49020953       13.76211314        9.90423965
  | 2209: Species Ti            1.96601378       17.69414554        9.90423966
  | 2210: Species Ti            5.89804174       17.69414554        9.90423966
  | 2211: Species Ti            9.83006971       17.69414554        9.90423966
  | 2212: Species Ti           13.76209767       17.69414555        9.90423966
  | 2213: Species Ti           17.69412564       17.69414555        9.90423966
  | 2214: Species Ti           21.62615360       17.69414555        9.90423966
  | 2215: Species Ti           25.55818157       17.69414556        9.90423966
  | 2216: Species Ti           29.49020953       17.69414556        9.90423965
  | 2217: Species Ti            1.96601378       21.62617796        9.90423966
  | 2218: Species Ti            5.89804174       21.62617796        9.90423966
  | 2219: Species Ti            9.83006971       21.62617796        9.90423966
  | 2220: Species Ti           13.76209768       21.62617797        9.90423966
  | 2221: Species Ti           17.69412564       21.62617797        9.90423966
  | 2222: Species Ti           21.62615361       21.62617797        9.90423966
  | 2223: Species Ti           25.55818157       21.62617798        9.90423965
  | 2224: Species Ti           29.49020954       21.62617798        9.90423965
  | 2225: Species Ti            1.96601378       25.55821038        9.90423966
  | 2226: Species Ti            5.89804175       25.55821038        9.90423966
  | 2227: Species Ti            9.83006971       25.55821038        9.90423966
  | 2228: Species Ti           13.76209768       25.55821039        9.90423966
  | 2229: Species Ti           17.69412564       25.55821039        9.90423966
  | 2230: Species Ti           21.62615361       25.55821039        9.90423966
  | 2231: Species Ti           25.55818157       25.55821040        9.90423965
  | 2232: Species Ti           29.49020954       25.55821040        9.90423965
  | 2233: Species Ti            1.96601379       29.49024280        9.90423966
  | 2234: Species Ti            5.89804175       29.49024280        9.90423966
  | 2235: Species Ti            9.83006972       29.49024280        9.90423966
  | 2236: Species Ti           13.76209768       29.49024281        9.90423966
  | 2237: Species Ti           17.69412565       29.49024281        9.90423966
  | 2238: Species Ti           21.62615361       29.49024281        9.90423965
  | 2239: Species Ti           25.55818158       29.49024282        9.90423965
  | 2240: Species Ti           29.49020954       29.49024282        9.90423965
  | 2241: Species Ti            1.96601376        1.96601585       13.88644852
  | 2242: Species Ti            5.89804173        1.96601586       13.88644851
  | 2243: Species Ti            9.83006969        1.96601586       13.88644851
  | 2244: Species Ti           13.76209766        1.96601586       13.88644851
  | 2245: Species Ti           17.69412562        1.96601587       13.88644851
  | 2246: Species Ti           21.62615359        1.96601587       13.88644851
  | 2247: Species Ti           25.55818155        1.96601587       13.88644851
  | 2248: Species Ti           29.49020952        1.96601588       13.88644851
  | 2249: Species Ti            1.96601377        5.89804827       13.88644852
  | 2250: Species Ti            5.89804173        5.89804828       13.88644851
  | 2251: Species Ti            9.83006970        5.89804828       13.88644851
  | 2252: Species Ti           13.76209766        5.89804828       13.88644851
  | 2253: Species Ti           17.69412563        5.89804829       13.88644851
  | 2254: Species Ti           21.62615359        5.89804829       13.88644851
  | 2255: Species Ti           25.55818156        5.89804829       13.88644851
  | 2256: Species Ti           29.49020952        5.89804830       13.88644851
  | 2257: Species Ti            1.96601377        9.83008069       13.88644851
  | 2258: Species Ti            5.89804173        9.83008070       13.88644851
  | 2259: Species Ti            9.83006970        9.83008070       13.88644851
  | 2260: Species Ti           13.76209766        9.83008070       13.88644851
  | 2261: Species Ti           17.69412563        9.83008071       13.88644851
  | 2262: Species Ti           21.62615359        9.83008071       13.88644851
  | 2263: Species Ti           25.55818156        9.83008071       13.88644851
  | 2264: Species Ti           29.49020952        9.83008072       13.88644850
  | 2265: Species Ti            1.96601377       13.76211311       13.88644851
  | 2266: Species Ti            5.89804174       13.76211312       13.88644851
  | 2267: Species Ti            9.83006970       13.76211312       13.88644851
  | 2268: Species Ti           13.76209767       13.76211312       13.88644851
  | 2269: Species Ti           17.69412563       13.76211313       13.88644851
  | 2270: Species Ti           21.62615360       13.76211313       13.88644851
  | 2271: Species Ti           25.55818156       13.76211313       13.88644851
  | 2272: Species Ti           29.49020953       13.76211314       13.88644850
  | 2273: Species Ti            1.96601377       17.69414554       13.88644851
  | 2274: Species Ti            5.89804174       17.69414554       13.88644851
  | 2275: Species Ti            9.83006971       17.69414554       13.88644851
  | 2276: Species Ti           13.76209767       17.69414555       13.88644851
  | 2277: Species Ti           17.69412564       17.69414555       13.88644851
  | 2278: Species Ti           21.62615360       17.69414555       13.88644851
  | 2279: Species Ti           25.55818157       17.69414555       13.88644850
  | 2280: Species Ti           29.49020953       17.69414556       13.88644850
  | 2281: Species Ti            1.96601378       21.62617796       13.88644851
  | 2282: Species Ti            5.89804174       21.62617796       13.88644851
  | 2283: Species Ti            9.83006971       21.62617796       13.88644851
  | 2284: Species Ti           13.76209767       21.62617797       13.88644851
  | 2285: Species Ti           17.69412564       21.62617797       13.88644851
  | 2286: Species Ti           21.62615360       21.62617797       13.88644850
  | 2287: Species Ti           25.55818157       21.62617798       13.88644850
  | 2288: Species Ti           29.49020953       21.62617798       13.88644850
  | 2289: Species Ti            1.96601378       25.55821038       13.88644851
  | 2290: Species Ti            5.89804175       25.55821038       13.88644851
  | 2291: Species Ti            9.83006971       25.55821038       13.88644851
  | 2292: Species Ti           13.76209768       25.55821039       13.88644851
  | 2293: Species Ti           17.69412564       25.55821039       13.88644851
  | 2294: Species Ti           21.62615361       25.55821039       13.88644850
  | 2295: Species Ti           25.55818157       25.55821040       13.88644850
  | 2296: Species Ti           29.49020954       25.55821040       13.88644850
  | 2297: Species Ti            1.96601378       29.49024280       13.88644851
  | 2298: Species Ti            5.89804175       29.49024280       13.88644851
  | 2299: Species Ti            9.83006972       29.49024280       13.88644851
  | 2300: Species Ti           13.76209768       29.49024281       13.88644851
  | 2301: Species Ti           17.69412565       29.49024281       13.88644850
  | 2302: Species Ti           21.62615361       29.49024281       13.88644850
  | 2303: Species Ti           25.55818158       29.49024282       13.88644850
  | 2304: Species Ti           29.49020954       29.49024282       13.88644850
  | 2305: Species Ti            1.96601376        1.96601585       17.86865737
  | 2306: Species Ti            5.89804173        1.96601586       17.86865736
  | 2307: Species Ti            9.83006969        1.96601586       17.86865736
  | 2308: Species Ti           13.76209766        1.96601586       17.86865736
  | 2309: Species Ti           17.69412562        1.96601587       17.86865736
  | 2310: Species Ti           21.62615359        1.96601587       17.86865736
  | 2311: Species Ti           25.55818155        1.96601587       17.86865736
  | 2312: Species Ti           29.49020952        1.96601588       17.86865735
  | 2313: Species Ti            1.96601376        5.89804827       17.86865736
  | 2314: Species Ti            5.89804173        5.89804828       17.86865736
  | 2315: Species Ti            9.83006969        5.89804828       17.86865736
  | 2316: Species Ti           13.76209766        5.89804828       17.86865736
  | 2317: Species Ti           17.69412562        5.89804829       17.86865736
  | 2318: Species Ti           21.62615359        5.89804829       17.86865736
  | 2319: Species Ti           25.55818155        5.89804829       17.86865736
  | 2320: Species Ti           29.49020952        5.89804830       17.86865735
  | 2321: Species Ti            1.96601377        9.83008069       17.86865736
  | 2322: Species Ti            5.89804173        9.83008070       17.86865736
  | 2323: Species Ti            9.83006970        9.83008070       17.86865736
  | 2324: Species Ti           13.76209766        9.83008070       17.86865736
  | 2325: Species Ti           17.69412563        9.83008071       17.86865736
  | 2326: Species Ti           21.62615359        9.83008071       17.86865736
  | 2327: Species Ti           25.55818156        9.83008071       17.86865735
  | 2328: Species Ti           29.49020952        9.83008072       17.86865735
  | 2329: Species Ti            1.96601377       13.76211311       17.86865736
  | 2330: Species Ti            5.89804174       13.76211312       17.86865736
  | 2331: Species Ti            9.83006970       13.76211312       17.86865736
  | 2332: Species Ti           13.76209767       13.76211312       17.86865736
  | 2333: Species Ti           17.69412563       13.76211313       17.86865736
  | 2334: Species Ti           21.62615360       13.76211313       17.86865736
  | 2335: Species Ti           25.55818156       13.76211313       17.86865735
  | 2336: Species Ti           29.49020953       13.76211314       17.86865735
  | 2337: Species Ti            1.96601377       17.69414553       17.86865736
  | 2338: Species Ti            5.89804174       17.69414554       17.86865736
  | 2339: Species Ti            9.83006970       17.69414554       17.86865736
  | 2340: Species Ti           13.76209767       17.69414554       17.86865736
  | 2341: Species Ti           17.69412563       17.69414555       17.86865736
  | 2342: Species Ti           21.62615360       17.69414555       17.86865735
  | 2343: Species Ti           25.55818156       17.69414555       17.86865735
  | 2344: Species Ti           29.49020953       17.69414556       17.86865735
  | 2345: Species Ti            1.96601378       21.62617795       17.86865736
  | 2346: Species Ti            5.89804174       21.62617796       17.86865736
  | 2347: Species Ti            9.83006971       21.62617796       17.86865736
  | 2348: Species Ti           13.76209767       21.62617796       17.86865736
  | 2349: Species Ti           17.69412564       21.62617797       17.86865736
  | 2350: Species Ti           21.62615360       21.62617797       17.86865735
  | 2351: Species Ti           25.55818157       21.62617797       17.86865735
  | 2352: Species Ti           29.49020953       21.62617798       17.86865735
  | 2353: Species Ti            1.96601378       25.55821037       17.86865736
  | 2354: Species Ti            5.89804175       25.55821038       17.86865736
  | 2355: Species Ti            9.83006971       25.55821038       17.86865736
  | 2356: Species Ti           13.76209768       25.55821038       17.86865736
  | 2357: Species Ti           17.69412564       25.55821039       17.86865735
  | 2358: Species Ti           21.62615361       25.55821039       17.86865735
  | 2359: Species Ti           25.55818157       25.55821039       17.86865735
  | 2360: Species Ti           29.49020954       25.55821040       17.86865735
  | 2361: Species Ti            1.96601378       29.49024280       17.86865736
  | 2362: Species Ti            5.89804175       29.49024280       17.86865736
  | 2363: Species Ti            9.83006971       29.49024280       17.86865736
  | 2364: Species Ti           13.76209768       29.49024281       17.86865735
  | 2365: Species Ti           17.69412564       29.49024281       17.86865735
  | 2366: Species Ti           21.62615361       29.49024281       17.86865735
  | 2367: Species Ti           25.55818157       29.49024281       17.86865735
  | 2368: Species Ti           29.49020954       29.49024282       17.86865735
  | 2369: Species Ti            1.96601376        1.96601585       21.85086621
  | 2370: Species Ti            5.89804172        1.96601586       21.85086621
  | 2371: Species Ti            9.83006969        1.96601586       21.85086621
  | 2372: Species Ti           13.76209765        1.96601586       21.85086621
  | 2373: Species Ti           17.69412562        1.96601587       21.85086621
  | 2374: Species Ti           21.62615358        1.96601587       21.85086621
  | 2375: Species Ti           25.55818155        1.96601587       21.85086621
  | 2376: Species Ti           29.49020952        1.96601588       21.85086620
  | 2377: Species Ti            1.96601376        5.89804827       21.85086621
  | 2378: Species Ti            5.89804173        5.89804828       21.85086621
  | 2379: Species Ti            9.83006969        5.89804828       21.85086621
  | 2380: Species Ti           13.76209766        5.89804828       21.85086621
  | 2381: Species Ti           17.69412562        5.89804829       21.85086621
  | 2382: Species Ti           21.62615359        5.89804829       21.85086621
  | 2383: Species Ti           25.55818155        5.89804829       21.85086620
  | 2384: Species Ti           29.49020952        5.89804830       21.85086620
  | 2385: Species Ti            1.96601377        9.83008069       21.85086621
  | 2386: Species Ti            5.89804173        9.83008070       21.85086621
  | 2387: Species Ti            9.83006970        9.83008070       21.85086621
  | 2388: Species Ti           13.76209766        9.83008070       21.85086621
  | 2389: Species Ti           17.69412563        9.83008071       21.85086621
  | 2390: Species Ti           21.62615359        9.83008071       21.85086620
  | 2391: Species Ti           25.55818156        9.83008071       21.85086620
  | 2392: Species Ti           29.49020952        9.83008072       21.85086620
  | 2393: Species Ti            1.96601377       13.76211311       21.85086621
  | 2394: Species Ti            5.89804173       13.76211312       21.85086621
  | 2395: Species Ti            9.83006970       13.76211312       21.85086621
  | 2396: Species Ti           13.76209766       13.76211312       21.85086621
  | 2397: Species Ti           17.69412563       13.76211313       21.85086621
  | 2398: Species Ti           21.62615359       13.76211313       21.85086620
  | 2399: Species Ti           25.55818156       13.76211313       21.85086620
  | 2400: Species Ti           29.49020953       13.76211314       21.85086620
  | 2401: Species Ti            1.96601377       17.69414553       21.85086621
  | 2402: Species Ti            5.89804174       17.69414554       21.85086621
  | 2403: Species Ti            9.83006970       17.69414554       21.85086621
  | 2404: Species Ti           13.76209767       17.69414554       21.85086621
  | 2405: Species Ti           17.69412563       17.69414555       21.85086620
  | 2406: Species Ti           21.62615360       17.69414555       21.85086620
  | 2407: Species Ti           25.55818156       17.69414555       21.85086620
  | 2408: Species Ti           29.49020953       17.69414556       21.85086620
  | 2409: Species Ti            1.96601378       21.62617795       21.85086621
  | 2410: Species Ti            5.89804174       21.62617796       21.85086621
  | 2411: Species Ti            9.83006971       21.62617796       21.85086621
  | 2412: Species Ti           13.76209767       21.62617796       21.85086621
  | 2413: Species Ti           17.69412564       21.62617797       21.85086620
  | 2414: Species Ti           21.62615360       21.62617797       21.85086620
  | 2415: Species Ti           25.55818157       21.62617797       21.85086620
  | 2416: Species Ti           29.49020953       21.62617798       21.85086620
  | 2417: Species Ti            1.96601378       25.55821037       21.85086621
  | 2418: Species Ti            5.89804174       25.55821038       21.85086621
  | 2419: Species Ti            9.83006971       25.55821038       21.85086621
  | 2420: Species Ti           13.76209767       25.55821038       21.85086620
  | 2421: Species Ti           17.69412564       25.55821039       21.85086620
  | 2422: Species Ti           21.62615360       25.55821039       21.85086620
  | 2423: Species Ti           25.55818157       25.55821039       21.85086620
  | 2424: Species Ti           29.49020953       25.55821040       21.85086620
  | 2425: Species Ti            1.96601378       29.49024279       21.85086621
  | 2426: Species Ti            5.89804175       29.49024280       21.85086621
  | 2427: Species Ti            9.83006971       29.49024280       21.85086621
  | 2428: Species Ti           13.76209768       29.49024280       21.85086620
  | 2429: Species Ti           17.69412564       29.49024281       21.85086620
  | 2430: Species Ti           21.62615361       29.49024281       21.85086620
  | 2431: Species Ti           25.55818157       29.49024281       21.85086620
  | 2432: Species Ti           29.49020954       29.49024282       21.85086620
  | 2433: Species Ti            1.96601376        1.96601585       25.83307506
  | 2434: Species Ti            5.89804172        1.96601585       25.83307506
  | 2435: Species Ti            9.83006969        1.96601586       25.83307506
  | 2436: Species Ti           13.76209765        1.96601586       25.83307506
  | 2437: Species Ti           17.69412562        1.96601586       25.83307506
  | 2438: Species Ti           21.62615358        1.96601587       25.83307506
  | 2439: Species Ti           25.55818155        1.96601587       25.83307505
  | 2440: Species Ti           29.49020951        1.96601587       25.83307505
  | 2441: Species Ti            1.96601376        5.89804827       25.83307506
  | 2442: Species Ti            5.89804173        5.89804828       25.83307506
  | 2443: Species Ti            9.83006969        5.89804828       25.83307506
  | 2444: Species Ti           13.76209766        5.89804828       25.83307506
  | 2445: Species Ti           17.69412562        5.89804829       25.83307506
  | 2446: Species Ti           21.62615359        5.89804829       25.83307505
  | 2447: Species Ti           25.55818155        5.89804829       25.83307505
  | 2448: Species Ti           29.49020952        5.89804829       25.83307505
  | 2449: Species Ti            1.96601376        9.83008069       25.83307506
  | 2450: Species Ti            5.89804173        9.83008070       25.83307506
  | 2451: Species Ti            9.83006969        9.83008070       25.83307506
  | 2452: Species Ti           13.76209766        9.83008070       25.83307506
  | 2453: Species Ti           17.69412562        9.83008071       25.83307506
  | 2454: Species Ti           21.62615359        9.83008071       25.83307505
  | 2455: Species Ti           25.55818156        9.83008071       25.83307505
  | 2456: Species Ti           29.49020952        9.83008072       25.83307505
  | 2457: Species Ti            1.96601377       13.76211311       25.83307506
  | 2458: Species Ti            5.89804173       13.76211312       25.83307506
  | 2459: Species Ti            9.83006970       13.76211312       25.83307506
  | 2460: Species Ti           13.76209766       13.76211312       25.83307506
  | 2461: Species Ti           17.69412563       13.76211313       25.83307505
  | 2462: Species Ti           21.62615359       13.76211313       25.83307505
  | 2463: Species Ti           25.55818156       13.76211313       25.83307505
  | 2464: Species Ti           29.49020952       13.76211314       25.83307505
  | 2465: Species Ti            1.96601377       17.69414553       25.83307506
  | 2466: Species Ti            5.89804174       17.69414554       25.83307506
  | 2467: Species Ti            9.83006970       17.69414554       25.83307506
  | 2468: Species Ti           13.76209767       17.69414554       25.83307506
  | 2469: Species Ti           17.69412563       17.69414555       25.83307505
  | 2470: Species Ti           21.62615360       17.69414555       25.83307505
  | 2471: Species Ti           25.55818156       17.69414555       25.83307505
  | 2472: Species Ti           29.49020953       17.69414556       25.83307505
  | 2473: Species Ti            1.96601377       21.62617795       25.83307506
  | 2474: Species Ti            5.89804174       21.62617796       25.83307506
  | 2475: Species Ti            9.83006970       21.62617796       25.83307506
  | 2476: Species Ti           13.76209767       21.62617796       25.83307505
  | 2477: Species Ti           17.69412563       21.62617797       25.83307505
  | 2478: Species Ti           21.62615360       21.62617797       25.83307505
  | 2479: Species Ti           25.55818157       21.62617797       25.83307505
  | 2480: Species Ti           29.49020953       21.62617798       25.83307505
  | 2481: Species Ti            1.96601378       25.55821037       25.83307506
  | 2482: Species Ti            5.89804174       25.55821038       25.83307506
  | 2483: Species Ti            9.83006971       25.55821038       25.83307505
  | 2484: Species Ti           13.76209767       25.55821038       25.83307505
  | 2485: Species Ti           17.69412564       25.55821039       25.83307505
  | 2486: Species Ti           21.62615360       25.55821039       25.83307505
  | 2487: Species Ti           25.55818157       25.55821039       25.83307505
  | 2488: Species Ti           29.49020953       25.55821040       25.83307505
  | 2489: Species Ti            1.96601378       29.49024279       25.83307506
  | 2490: Species Ti            5.89804175       29.49024280       25.83307506
  | 2491: Species Ti            9.83006971       29.49024280       25.83307505
  | 2492: Species Ti           13.76209768       29.49024280       25.83307505
  | 2493: Species Ti           17.69412564       29.49024281       25.83307505
  | 2494: Species Ti           21.62615361       29.49024281       25.83307505
  | 2495: Species Ti           25.55818157       29.49024281       25.83307505
  | 2496: Species Ti           29.49020954       29.49024282       25.83307505
  | 2497: Species Ti            1.96601376        1.96601585       29.81528391
  | 2498: Species Ti            5.89804172        1.96601585       29.81528391
  | 2499: Species Ti            9.83006969        1.96601586       29.81528391
  | 2500: Species Ti           13.76209765        1.96601586       29.81528391
  | 2501: Species Ti           17.69412562        1.96601586       29.81528391
  | 2502: Species Ti           21.62615358        1.96601587       29.81528390
  | 2503: Species Ti           25.55818155        1.96601587       29.81528390
  | 2504: Species Ti           29.49020951        1.96601587       29.81528390
  | 2505: Species Ti            1.96601376        5.89804827       29.81528391
  | 2506: Species Ti            5.89804172        5.89804827       29.81528391
  | 2507: Species Ti            9.83006969        5.89804828       29.81528391
  | 2508: Species Ti           13.76209765        5.89804828       29.81528391
  | 2509: Species Ti           17.69412562        5.89804828       29.81528390
  | 2510: Species Ti           21.62615359        5.89804829       29.81528390
  | 2511: Species Ti           25.55818155        5.89804829       29.81528390
  | 2512: Species Ti           29.49020952        5.89804829       29.81528390
  | 2513: Species Ti            1.96601376        9.83008069       29.81528391
  | 2514: Species Ti            5.89804173        9.83008069       29.81528391
  | 2515: Species Ti            9.83006969        9.83008070       29.81528391
  | 2516: Species Ti           13.76209766        9.83008070       29.81528391
  | 2517: Species Ti           17.69412562        9.83008070       29.81528390
  | 2518: Species Ti           21.62615359        9.83008071       29.81528390
  | 2519: Species Ti           25.55818155        9.83008071       29.81528390
  | 2520: Species Ti           29.49020952        9.83008071       29.81528390
  | 2521: Species Ti            1.96601377       13.76211311       29.81528391
  | 2522: Species Ti            5.89804173       13.76211311       29.81528391
  | 2523: Species Ti            9.83006970       13.76211312       29.81528391
  | 2524: Species Ti           13.76209766       13.76211312       29.81528390
  | 2525: Species Ti           17.69412563       13.76211312       29.81528390
  | 2526: Species Ti           21.62615359       13.76211313       29.81528390
  | 2527: Species Ti           25.55818156       13.76211313       29.81528390
  | 2528: Species Ti           29.49020952       13.76211313       29.81528390
  | 2529: Species Ti            1.96601377       17.69414553       29.81528391
  | 2530: Species Ti            5.89804173       17.69414554       29.81528391
  | 2531: Species Ti            9.83006970       17.69414554       29.81528391
  | 2532: Species Ti           13.76209766       17.69414554       29.81528390
  | 2533: Species Ti           17.69412563       17.69414555       29.81528390
  | 2534: Species Ti           21.62615360       17.69414555       29.81528390
  | 2535: Species Ti           25.55818156       17.69414555       29.81528390
  | 2536: Species Ti           29.49020953       17.69414555       29.81528390
  | 2537: Species Ti            1.96601377       21.62617795       29.81528391
  | 2538: Species Ti            5.89804174       21.62617796       29.81528391
  | 2539: Species Ti            9.83006970       21.62617796       29.81528390
  | 2540: Species Ti           13.76209767       21.62617796       29.81528390
  | 2541: Species Ti           17.69412563       21.62617797       29.81528390
  | 2542: Species Ti           21.62615360       21.62617797       29.81528390
  | 2543: Species Ti           25.55818156       21.62617797       29.81528390
  | 2544: Species Ti           29.49020953       21.62617798       29.81528390
  | 2545: Species Ti            1.96601378       25.55821037       29.81528391
  | 2546: Species Ti            5.89804174       25.55821038       29.81528391
  | 2547: Species Ti            9.83006971       25.55821038       29.81528390
  | 2548: Species Ti           13.76209767       25.55821038       29.81528390
  | 2549: Species Ti           17.69412564       25.55821039       29.81528390
  | 2550: Species Ti           21.62615360       25.55821039       29.81528390
  | 2551: Species Ti           25.55818157       25.55821039       29.81528390
  | 2552: Species Ti           29.49020953       25.55821040       29.81528390
  | 2553: Species Ti            1.96601378       29.49024279       29.81528391
  | 2554: Species Ti            5.89804174       29.49024280       29.81528390
  | 2555: Species Ti            9.83006971       29.49024280       29.81528390
  | 2556: Species Ti           13.76209767       29.49024280       29.81528390
  | 2557: Species Ti           17.69412564       29.49024281       29.81528390
  | 2558: Species Ti           21.62615360       29.49024281       29.81528390
  | 2559: Species Ti           25.55818157       29.49024281       29.81528390
  | 2560: Species Ti           29.49020954       29.49024282       29.81528390

  Lattice parameters for 3D lattice (in Angstroms) :    31.456224   31.456259   31.857671
  Angle(s) between unit vectors (in degrees)       :    90.000000   90.000000   90.000000


  Quantities derived from the lattice vectors (in Angstrom^-1):
  | Reciprocal lattice vector 1:  0.199744 -0.000000  0.000000
  | Reciprocal lattice vector 2: -0.000000  0.199744  0.000000
  | Reciprocal lattice vector 3:  0.000000  0.000000  0.197227
  | Unit cell volume                               :   0.315230E+05  Angstrom^3

  Fractional coordinates:
                         L1                L2                L3
       atom_frac         0.00000002        0.00000003        0.00014651  Ba
       atom_frac         0.12500002        0.00000003        0.00014651  Ba
       atom_frac         0.25000002        0.00000003        0.00014651  Ba
       atom_frac         0.37500002        0.00000003        0.00014651  Ba
       atom_frac         0.50000002        0.00000003        0.00014651  Ba
       atom_frac         0.62500002        0.00000003        0.00014651  Ba
       atom_frac         0.75000002        0.00000003        0.00014651  Ba
       atom_frac         0.87500002        0.00000003        0.00014651  Ba
       atom_frac         0.00000002        0.12500003        0.00014651  Ba
       atom_frac         0.12500002        0.12500003        0.00014651  Ba
       atom_frac         0.25000002        0.12500003        0.00014651  Ba
       atom_frac         0.37500002        0.12500003        0.00014651  Ba
       atom_frac         0.50000002        0.12500003        0.00014651  Ba
       atom_frac         0.62500002        0.12500003        0.00014651  Ba
       atom_frac         0.75000002        0.12500003        0.00014651  Ba
       atom_frac         0.87500002        0.12500003        0.00014651  Ba
       atom_frac         0.00000002        0.25000003        0.00014651  Ba
       atom_frac         0.12500002        0.25000003        0.00014651  Ba
       atom_frac         0.25000002        0.25000003        0.00014651  Ba
       atom_frac         0.37500002        0.25000003        0.00014651  Ba
       atom_frac         0.50000002        0.25000003        0.00014651  Ba
       atom_frac         0.62500002        0.25000003        0.00014651  Ba
       atom_frac         0.75000002        0.25000003        0.00014651  Ba
       atom_frac         0.87500002        0.25000003        0.00014651  Ba
       atom_frac         0.00000002        0.37500003        0.00014651  Ba
       atom_frac         0.12500002        0.37500003        0.00014651  Ba
       atom_frac         0.25000002        0.37500003        0.00014651  Ba
       atom_frac         0.37500002        0.37500003        0.00014651  Ba
       atom_frac         0.50000002        0.37500003        0.00014651  Ba
       atom_frac         0.62500002        0.37500003        0.00014651  Ba
       atom_frac         0.75000002        0.37500003        0.00014651  Ba
       atom_frac         0.87500002        0.37500003        0.00014651  Ba
       atom_frac         0.00000002        0.50000003        0.00014651  Ba
       atom_frac         0.12500002        0.50000003        0.00014651  Ba
       atom_frac         0.25000002        0.50000003        0.00014651  Ba
       atom_frac         0.37500002        0.50000003        0.00014651  Ba
       atom_frac         0.50000002        0.50000003        0.00014651  Ba
       atom_frac         0.62500002        0.50000003        0.00014651  Ba
       atom_frac         0.75000002        0.50000003        0.00014651  Ba
       atom_frac         0.87500002        0.50000003        0.00014651  Ba
       atom_frac         0.00000002        0.62500003        0.00014651  Ba
       atom_frac         0.12500002        0.62500003        0.00014651  Ba
       atom_frac         0.25000002        0.62500003        0.00014651  Ba
       atom_frac         0.37500002        0.62500003        0.00014651  Ba
       atom_frac         0.50000002        0.62500003        0.00014651  Ba
       atom_frac         0.62500002        0.62500003        0.00014651  Ba
       atom_frac         0.75000002        0.62500003        0.00014651  Ba
       atom_frac         0.87500002        0.62500003        0.00014651  Ba
       atom_frac         0.00000002        0.75000003        0.00014651  Ba
       atom_frac         0.12500002        0.75000003        0.00014651  Ba
       atom_frac         0.25000002        0.75000003        0.00014651  Ba
       atom_frac         0.37500002        0.75000003        0.00014651  Ba
       atom_frac         0.50000002        0.75000003        0.00014651  Ba
       atom_frac         0.62500002        0.75000003        0.00014651  Ba
       atom_frac         0.75000002        0.75000003        0.00014651  Ba
       atom_frac         0.87500002        0.75000003        0.00014651  Ba
       atom_frac         0.00000002        0.87500003        0.00014651  Ba
       atom_frac         0.12500002        0.87500003        0.00014651  Ba
       atom_frac         0.25000002        0.87500003        0.00014651  Ba
       atom_frac         0.37500002        0.87500003        0.00014651  Ba
       atom_frac         0.50000002        0.87500003        0.00014651  Ba
       atom_frac         0.62500002        0.87500003        0.00014651  Ba
       atom_frac         0.75000002        0.87500003        0.00014651  Ba
       atom_frac         0.87500002        0.87500003        0.00014651  Ba
       atom_frac         0.00000002        0.00000003        0.12514651  Ba
       atom_frac         0.12500002        0.00000003        0.12514651  Ba
       atom_frac         0.25000002        0.00000003        0.12514651  Ba
       atom_frac         0.37500002        0.00000003        0.12514651  Ba
       atom_frac         0.50000002        0.00000003        0.12514651  Ba
       atom_frac         0.62500002        0.00000003        0.12514651  Ba
       atom_frac         0.75000002        0.00000003        0.12514651  Ba
       atom_frac         0.87500002        0.00000003        0.12514651  Ba
       atom_frac         0.00000002        0.12500003        0.12514651  Ba
       atom_frac         0.12500002        0.12500003        0.12514651  Ba
       atom_frac         0.25000002        0.12500003        0.12514651  Ba
       atom_frac         0.37500002        0.12500003        0.12514651  Ba
       atom_frac         0.50000002        0.12500003        0.12514651  Ba
       atom_frac         0.62500002        0.12500003        0.12514651  Ba
       atom_frac         0.75000002        0.12500003        0.12514651  Ba
       atom_frac         0.87500002        0.12500003        0.12514651  Ba
       atom_frac         0.00000002        0.25000003        0.12514651  Ba
       atom_frac         0.12500002        0.25000003        0.12514651  Ba
       atom_frac         0.25000002        0.25000003        0.12514651  Ba
       atom_frac         0.37500002        0.25000003        0.12514651  Ba
       atom_frac         0.50000002        0.25000003        0.12514651  Ba
       atom_frac         0.62500002        0.25000003        0.12514651  Ba
       atom_frac         0.75000002        0.25000003        0.12514651  Ba
       atom_frac         0.87500002        0.25000003        0.12514651  Ba
       atom_frac         0.00000002        0.37500003        0.12514651  Ba
       atom_frac         0.12500002        0.37500003        0.12514651  Ba
       atom_frac         0.25000002        0.37500003        0.12514651  Ba
       atom_frac         0.37500002        0.37500003        0.12514651  Ba
       atom_frac         0.50000002        0.37500003        0.12514651  Ba
       atom_frac         0.62500002        0.37500003        0.12514651  Ba
       atom_frac         0.75000002        0.37500003        0.12514651  Ba
       atom_frac         0.87500002        0.37500003        0.12514651  Ba
       atom_frac         0.00000002        0.50000003        0.12514651  Ba
       atom_frac         0.12500002        0.50000003        0.12514651  Ba
       atom_frac         0.25000002        0.50000003        0.12514651  Ba
       atom_frac         0.37500002        0.50000003        0.12514651  Ba
       atom_frac         0.50000002        0.50000003        0.12514651  Ba
       atom_frac         0.62500002        0.50000003        0.12514651  Ba
       atom_frac         0.75000002        0.50000003        0.12514651  Ba
       atom_frac         0.87500002        0.50000003        0.12514651  Ba
       atom_frac         0.00000002        0.62500003        0.12514651  Ba
       atom_frac         0.12500002        0.62500003        0.12514651  Ba
       atom_frac         0.25000002        0.62500003        0.12514651  Ba
       atom_frac         0.37500002        0.62500003        0.12514651  Ba
       atom_frac         0.50000002        0.62500003        0.12514651  Ba
       atom_frac         0.62500002        0.62500003        0.12514651  Ba
       atom_frac         0.75000002        0.62500003        0.12514651  Ba
       atom_frac         0.87500002        0.62500003        0.12514651  Ba
       atom_frac         0.00000002        0.75000003        0.12514651  Ba
       atom_frac         0.12500002        0.75000003        0.12514651  Ba
       atom_frac         0.25000002        0.75000003        0.12514651  Ba
       atom_frac         0.37500002        0.75000003        0.12514651  Ba
       atom_frac         0.50000002        0.75000003        0.12514651  Ba
       atom_frac         0.62500002        0.75000003        0.12514651  Ba
       atom_frac         0.75000002        0.75000003        0.12514651  Ba
       atom_frac         0.87500002        0.75000003        0.12514651  Ba
       atom_frac         0.00000002        0.87500003        0.12514651  Ba
       atom_frac         0.12500002        0.87500003        0.12514651  Ba
       atom_frac         0.25000002        0.87500003        0.12514651  Ba
       atom_frac         0.37500002        0.87500003        0.12514651  Ba
       atom_frac         0.50000002        0.87500003        0.12514651  Ba
       atom_frac         0.62500002        0.87500003        0.12514651  Ba
       atom_frac         0.75000002        0.87500003        0.12514651  Ba
       atom_frac         0.87500002        0.87500003        0.12514651  Ba
       atom_frac         0.00000002        0.00000003        0.25014651  Ba
       atom_frac         0.12500002        0.00000003        0.25014651  Ba
       atom_frac         0.25000002        0.00000003        0.25014651  Ba
       atom_frac         0.37500002        0.00000003        0.25014651  Ba
       atom_frac         0.50000002        0.00000003        0.25014651  Ba
       atom_frac         0.62500002        0.00000003        0.25014651  Ba
       atom_frac         0.75000002        0.00000003        0.25014651  Ba
       atom_frac         0.87500002        0.00000003        0.25014651  Ba
       atom_frac         0.00000002        0.12500003        0.25014651  Ba
       atom_frac         0.12500002        0.12500003        0.25014651  Ba
       atom_frac         0.25000002        0.12500003        0.25014651  Ba
       atom_frac         0.37500002        0.12500003        0.25014651  Ba
       atom_frac         0.50000002        0.12500003        0.25014651  Ba
       atom_frac         0.62500002        0.12500003        0.25014651  Ba
       atom_frac         0.75000002        0.12500003        0.25014651  Ba
       atom_frac         0.87500002        0.12500003        0.25014651  Ba
       atom_frac         0.00000002        0.25000003        0.25014651  Ba
       atom_frac         0.12500002        0.25000003        0.25014651  Ba
       atom_frac         0.25000002        0.25000003        0.25014651  Ba
       atom_frac         0.37500002        0.25000003        0.25014651  Ba
       atom_frac         0.50000002        0.25000003        0.25014651  Ba
       atom_frac         0.62500002        0.25000003        0.25014651  Ba
       atom_frac         0.75000002        0.25000003        0.25014651  Ba
       atom_frac         0.87500002        0.25000003        0.25014651  Ba
       atom_frac         0.00000002        0.37500003        0.25014651  Ba
       atom_frac         0.12500002        0.37500003        0.25014651  Ba
       atom_frac         0.25000002        0.37500003        0.25014651  Ba
       atom_frac         0.37500002        0.37500003        0.25014651  Ba
       atom_frac         0.50000002        0.37500003        0.25014651  Ba
       atom_frac         0.62500002        0.37500003        0.25014651  Ba
       atom_frac         0.75000002        0.37500003        0.25014651  Ba
       atom_frac         0.87500002        0.37500003        0.25014651  Ba
       atom_frac         0.00000002        0.50000003        0.25014651  Ba
       atom_frac         0.12500002        0.50000003        0.25014651  Ba
       atom_frac         0.25000002        0.50000003        0.25014651  Ba
       atom_frac         0.37500002        0.50000003        0.25014651  Ba
       atom_frac         0.50000002        0.50000003        0.25014651  Ba
       atom_frac         0.62500002        0.50000003        0.25014651  Ba
       atom_frac         0.75000002        0.50000003        0.25014651  Ba
       atom_frac         0.87500002        0.50000003        0.25014651  Ba
       atom_frac         0.00000002        0.62500003        0.25014651  Ba
       atom_frac         0.12500002        0.62500003        0.25014651  Ba
       atom_frac         0.25000002        0.62500003        0.25014651  Ba
       atom_frac         0.37500002        0.62500003        0.25014651  Ba
       atom_frac         0.50000002        0.62500003        0.25014651  Ba
       atom_frac         0.62500002        0.62500003        0.25014651  Ba
       atom_frac         0.75000002        0.62500003        0.25014651  Ba
       atom_frac         0.87500002        0.62500003        0.25014651  Ba
       atom_frac         0.00000002        0.75000003        0.25014651  Ba
       atom_frac         0.12500002        0.75000003        0.25014651  Ba
       atom_frac         0.25000002        0.75000003        0.25014651  Ba
       atom_frac         0.37500002        0.75000003        0.25014651  Ba
       atom_frac         0.50000002        0.75000003        0.25014651  Ba
       atom_frac         0.62500002        0.75000003        0.25014651  Ba
       atom_frac         0.75000002        0.75000003        0.25014651  Ba
       atom_frac         0.87500002        0.75000003        0.25014651  Ba
       atom_frac         0.00000002        0.87500003        0.25014651  Ba
       atom_frac         0.12500002        0.87500003        0.25014651  Ba
       atom_frac         0.25000002        0.87500003        0.25014651  Ba
       atom_frac         0.37500002        0.87500003        0.25014651  Ba
       atom_frac         0.50000002        0.87500003        0.25014651  Ba
       atom_frac         0.62500002        0.87500003        0.25014651  Ba
       atom_frac         0.75000002        0.87500003        0.25014651  Ba
       atom_frac         0.87500002        0.87500003        0.25014651  Ba
       atom_frac         0.00000002        0.00000003        0.37514651  Ba
       atom_frac         0.12500002        0.00000003        0.37514651  Ba
       atom_frac         0.25000002        0.00000003        0.37514651  Ba
       atom_frac         0.37500002        0.00000003        0.37514651  Ba
       atom_frac         0.50000002        0.00000003        0.37514651  Ba
       atom_frac         0.62500002        0.00000003        0.37514651  Ba
       atom_frac         0.75000002        0.00000003        0.37514651  Ba
       atom_frac         0.87500002        0.00000003        0.37514651  Ba
       atom_frac         0.00000002        0.12500003        0.37514651  Ba
       atom_frac         0.12500002        0.12500003        0.37514651  Ba
       atom_frac         0.25000002        0.12500003        0.37514651  Ba
       atom_frac         0.37500002        0.12500003        0.37514651  Ba
       atom_frac         0.50000002        0.12500003        0.37514651  Ba
       atom_frac         0.62500002        0.12500003        0.37514651  Ba
       atom_frac         0.75000002        0.12500003        0.37514651  Ba
       atom_frac         0.87500002        0.12500003        0.37514651  Ba
       atom_frac         0.00000002        0.25000003        0.37514651  Ba
       atom_frac         0.12500002        0.25000003        0.37514651  Ba
       atom_frac         0.25000002        0.25000003        0.37514651  Ba
       atom_frac         0.37500002        0.25000003        0.37514651  Ba
       atom_frac         0.50000002        0.25000003        0.37514651  Ba
       atom_frac         0.62500002        0.25000003        0.37514651  Ba
       atom_frac         0.75000002        0.25000003        0.37514651  Ba
       atom_frac         0.87500002        0.25000003        0.37514651  Ba
       atom_frac         0.00000002        0.37500003        0.37514651  Ba
       atom_frac         0.12500002        0.37500003        0.37514651  Ba
       atom_frac         0.25000002        0.37500003        0.37514651  Ba
       atom_frac         0.37500002        0.37500003        0.37514651  Ba
       atom_frac         0.50000002        0.37500003        0.37514651  Ba
       atom_frac         0.62500002        0.37500003        0.37514651  Ba
       atom_frac         0.75000002        0.37500003        0.37514651  Ba
       atom_frac         0.87500002        0.37500003        0.37514651  Ba
       atom_frac         0.00000002        0.50000003        0.37514651  Ba
       atom_frac         0.12500002        0.50000003        0.37514651  Ba
       atom_frac         0.25000002        0.50000003        0.37514651  Ba
       atom_frac         0.37500002        0.50000003        0.37514651  Ba
       atom_frac         0.50000002        0.50000003        0.37514651  Ba
       atom_frac         0.62500002        0.50000003        0.37514651  Ba
       atom_frac         0.75000002        0.50000003        0.37514651  Ba
       atom_frac         0.87500002        0.50000003        0.37514651  Ba
       atom_frac         0.00000002        0.62500003        0.37514651  Ba
       atom_frac         0.12500002        0.62500003        0.37514651  Ba
       atom_frac         0.25000002        0.62500003        0.37514651  Ba
       atom_frac         0.37500002        0.62500003        0.37514651  Ba
       atom_frac         0.50000002        0.62500003        0.37514651  Ba
       atom_frac         0.62500002        0.62500003        0.37514651  Ba
       atom_frac         0.75000002        0.62500003        0.37514651  Ba
       atom_frac         0.87500002        0.62500003        0.37514651  Ba
       atom_frac         0.00000002        0.75000003        0.37514651  Ba
       atom_frac         0.12500002        0.75000003        0.37514651  Ba
       atom_frac         0.25000002        0.75000003        0.37514651  Ba
       atom_frac         0.37500002        0.75000003        0.37514651  Ba
       atom_frac         0.50000002        0.75000003        0.37514651  Ba
       atom_frac         0.62500002        0.75000003        0.37514651  Ba
       atom_frac         0.75000002        0.75000003        0.37514651  Ba
       atom_frac         0.87500002        0.75000003        0.37514651  Ba
       atom_frac         0.00000002        0.87500003        0.37514651  Ba
       atom_frac         0.12500002        0.87500003        0.37514651  Ba
       atom_frac         0.25000002        0.87500003        0.37514651  Ba
       atom_frac         0.37500002        0.87500003        0.37514651  Ba
       atom_frac         0.50000002        0.87500003        0.37514651  Ba
       atom_frac         0.62500002        0.87500003        0.37514651  Ba
       atom_frac         0.75000002        0.87500003        0.37514651  Ba
       atom_frac         0.87500002        0.87500003        0.37514651  Ba
       atom_frac         0.00000002        0.00000003        0.50014651  Ba
       atom_frac         0.12500002        0.00000003        0.50014651  Ba
       atom_frac         0.25000002        0.00000003        0.50014651  Ba
       atom_frac         0.37500002        0.00000003        0.50014651  Ba
       atom_frac         0.50000002        0.00000003        0.50014651  Ba
       atom_frac         0.62500002        0.00000003        0.50014651  Ba
       atom_frac         0.75000002        0.00000003        0.50014651  Ba
       atom_frac         0.87500002        0.00000003        0.50014651  Ba
       atom_frac         0.00000002        0.12500003        0.50014651  Ba
       atom_frac         0.12500002        0.12500003        0.50014651  Ba
       atom_frac         0.25000002        0.12500003        0.50014651  Ba
       atom_frac         0.37500002        0.12500003        0.50014651  Ba
       atom_frac         0.50000002        0.12500003        0.50014651  Ba
       atom_frac         0.62500002        0.12500003        0.50014651  Ba
       atom_frac         0.75000002        0.12500003        0.50014651  Ba
       atom_frac         0.87500002        0.12500003        0.50014651  Ba
       atom_frac         0.00000002        0.25000003        0.50014651  Ba
       atom_frac         0.12500002        0.25000003        0.50014651  Ba
       atom_frac         0.25000002        0.25000003        0.50014651  Ba
       atom_frac         0.37500002        0.25000003        0.50014651  Ba
       atom_frac         0.50000002        0.25000003        0.50014651  Ba
       atom_frac         0.62500002        0.25000003        0.50014651  Ba
       atom_frac         0.75000002        0.25000003        0.50014651  Ba
       atom_frac         0.87500002        0.25000003        0.50014651  Ba
       atom_frac         0.00000002        0.37500003        0.50014651  Ba
       atom_frac         0.12500002        0.37500003        0.50014651  Ba
       atom_frac         0.25000002        0.37500003        0.50014651  Ba
       atom_frac         0.37500002        0.37500003        0.50014651  Ba
       atom_frac         0.50000002        0.37500003        0.50014651  Ba
       atom_frac         0.62500002        0.37500003        0.50014651  Ba
       atom_frac         0.75000002        0.37500003        0.50014651  Ba
       atom_frac         0.87500002        0.37500003        0.50014651  Ba
       atom_frac         0.00000002        0.50000003        0.50014651  Ba
       atom_frac         0.12500002        0.50000003        0.50014651  Ba
       atom_frac         0.25000002        0.50000003        0.50014651  Ba
       atom_frac         0.37500002        0.50000003        0.50014651  Ba
       atom_frac         0.50000002        0.50000003        0.50014651  Ba
       atom_frac         0.62500002        0.50000003        0.50014651  Ba
       atom_frac         0.75000002        0.50000003        0.50014651  Ba
       atom_frac         0.87500002        0.50000003        0.50014651  Ba
       atom_frac         0.00000002        0.62500003        0.50014651  Ba
       atom_frac         0.12500002        0.62500003        0.50014651  Ba
       atom_frac         0.25000002        0.62500003        0.50014651  Ba
       atom_frac         0.37500002        0.62500003        0.50014651  Ba
       atom_frac         0.50000002        0.62500003        0.50014651  Ba
       atom_frac         0.62500002        0.62500003        0.50014651  Ba
       atom_frac         0.75000002        0.62500003        0.50014651  Ba
       atom_frac         0.87500002        0.62500003        0.50014651  Ba
       atom_frac         0.00000002        0.75000003        0.50014651  Ba
       atom_frac         0.12500002        0.75000003        0.50014651  Ba
       atom_frac         0.25000002        0.75000003        0.50014651  Ba
       atom_frac         0.37500002        0.75000003        0.50014651  Ba
       atom_frac         0.50000002        0.75000003        0.50014651  Ba
       atom_frac         0.62500002        0.75000003        0.50014651  Ba
       atom_frac         0.75000002        0.75000003        0.50014651  Ba
       atom_frac         0.87500002        0.75000003        0.50014651  Ba
       atom_frac         0.00000002        0.87500003        0.50014651  Ba
       atom_frac         0.12500002        0.87500003        0.50014651  Ba
       atom_frac         0.25000002        0.87500003        0.50014651  Ba
       atom_frac         0.37500002        0.87500003        0.50014651  Ba
       atom_frac         0.50000002        0.87500003        0.50014651  Ba
       atom_frac         0.62500002        0.87500003        0.50014651  Ba
       atom_frac         0.75000002        0.87500003        0.50014651  Ba
       atom_frac         0.87500002        0.87500003        0.50014651  Ba
       atom_frac         0.00000002        0.00000003        0.62514651  Ba
       atom_frac         0.12500002        0.00000003        0.62514651  Ba
       atom_frac         0.25000002        0.00000003        0.62514651  Ba
       atom_frac         0.37500002        0.00000003        0.62514651  Ba
       atom_frac         0.50000002        0.00000003        0.62514651  Ba
       atom_frac         0.62500002        0.00000003        0.62514651  Ba
       atom_frac         0.75000002        0.00000003        0.62514651  Ba
       atom_frac         0.87500002        0.00000003        0.62514651  Ba
       atom_frac         0.00000002        0.12500003        0.62514651  Ba
       atom_frac         0.12500002        0.12500003        0.62514651  Ba
       atom_frac         0.25000002        0.12500003        0.62514651  Ba
       atom_frac         0.37500002        0.12500003        0.62514651  Ba
       atom_frac         0.50000002        0.12500003        0.62514651  Ba
       atom_frac         0.62500002        0.12500003        0.62514651  Ba
       atom_frac         0.75000002        0.12500003        0.62514651  Ba
       atom_frac         0.87500002        0.12500003        0.62514651  Ba
       atom_frac         0.00000002        0.25000003        0.62514651  Ba
       atom_frac         0.12500002        0.25000003        0.62514651  Ba
       atom_frac         0.25000002        0.25000003        0.62514651  Ba
       atom_frac         0.37500002        0.25000003        0.62514651  Ba
       atom_frac         0.50000002        0.25000003        0.62514651  Ba
       atom_frac         0.62500002        0.25000003        0.62514651  Ba
       atom_frac         0.75000002        0.25000003        0.62514651  Ba
       atom_frac         0.87500002        0.25000003        0.62514651  Ba
       atom_frac         0.00000002        0.37500003        0.62514651  Ba
       atom_frac         0.12500002        0.37500003        0.62514651  Ba
       atom_frac         0.25000002        0.37500003        0.62514651  Ba
       atom_frac         0.37500002        0.37500003        0.62514651  Ba
       atom_frac         0.50000002        0.37500003        0.62514651  Ba
       atom_frac         0.62500002        0.37500003        0.62514651  Ba
       atom_frac         0.75000002        0.37500003        0.62514651  Ba
       atom_frac         0.87500002        0.37500003        0.62514651  Ba
       atom_frac         0.00000002        0.50000003        0.62514651  Ba
       atom_frac         0.12500002        0.50000003        0.62514651  Ba
       atom_frac         0.25000002        0.50000003        0.62514651  Ba
       atom_frac         0.37500002        0.50000003        0.62514651  Ba
       atom_frac         0.50000002        0.50000003        0.62514651  Ba
       atom_frac         0.62500002        0.50000003        0.62514651  Ba
       atom_frac         0.75000002        0.50000003        0.62514651  Ba
       atom_frac         0.87500002        0.50000003        0.62514651  Ba
       atom_frac         0.00000002        0.62500003        0.62514651  Ba
       atom_frac         0.12500002        0.62500003        0.62514651  Ba
       atom_frac         0.25000002        0.62500003        0.62514651  Ba
       atom_frac         0.37500002        0.62500003        0.62514651  Ba
       atom_frac         0.50000002        0.62500003        0.62514651  Ba
       atom_frac         0.62500002        0.62500003        0.62514651  Ba
       atom_frac         0.75000002        0.62500003        0.62514651  Ba
       atom_frac         0.87500002        0.62500003        0.62514651  Ba
       atom_frac         0.00000002        0.75000003        0.62514651  Ba
       atom_frac         0.12500002        0.75000003        0.62514651  Ba
       atom_frac         0.25000002        0.75000003        0.62514651  Ba
       atom_frac         0.37500002        0.75000003        0.62514651  Ba
       atom_frac         0.50000002        0.75000003        0.62514651  Ba
       atom_frac         0.62500002        0.75000003        0.62514651  Ba
       atom_frac         0.75000002        0.75000003        0.62514651  Ba
       atom_frac         0.87500002        0.75000003        0.62514651  Ba
       atom_frac         0.00000002        0.87500003        0.62514651  Ba
       atom_frac         0.12500002        0.87500003        0.62514651  Ba
       atom_frac         0.25000002        0.87500003        0.62514651  Ba
       atom_frac         0.37500002        0.87500003        0.62514651  Ba
       atom_frac         0.50000002        0.87500003        0.62514651  Ba
       atom_frac         0.62500002        0.87500003        0.62514651  Ba
       atom_frac         0.75000002        0.87500003        0.62514651  Ba
       atom_frac         0.87500002        0.87500003        0.62514651  Ba
       atom_frac         0.00000002        0.00000003        0.75014651  Ba
       atom_frac         0.12500002        0.00000003        0.75014651  Ba
       atom_frac         0.25000002        0.00000003        0.75014651  Ba
       atom_frac         0.37500002        0.00000003        0.75014651  Ba
       atom_frac         0.50000002        0.00000003        0.75014651  Ba
       atom_frac         0.62500002        0.00000003        0.75014651  Ba
       atom_frac         0.75000002        0.00000003        0.75014651  Ba
       atom_frac         0.87500002        0.00000003        0.75014651  Ba
       atom_frac         0.00000002        0.12500003        0.75014651  Ba
       atom_frac         0.12500002        0.12500003        0.75014651  Ba
       atom_frac         0.25000002        0.12500003        0.75014651  Ba
       atom_frac         0.37500002        0.12500003        0.75014651  Ba
       atom_frac         0.50000002        0.12500003        0.75014651  Ba
       atom_frac         0.62500002        0.12500003        0.75014651  Ba
       atom_frac         0.75000002        0.12500003        0.75014651  Ba
       atom_frac         0.87500002        0.12500003        0.75014651  Ba
       atom_frac         0.00000002        0.25000003        0.75014651  Ba
       atom_frac         0.12500002        0.25000003        0.75014651  Ba
       atom_frac         0.25000002        0.25000003        0.75014651  Ba
       atom_frac         0.37500002        0.25000003        0.75014651  Ba
       atom_frac         0.50000002        0.25000003        0.75014651  Ba
       atom_frac         0.62500002        0.25000003        0.75014651  Ba
       atom_frac         0.75000002        0.25000003        0.75014651  Ba
       atom_frac         0.87500002        0.25000003        0.75014651  Ba
       atom_frac         0.00000002        0.37500003        0.75014651  Ba
       atom_frac         0.12500002        0.37500003        0.75014651  Ba
       atom_frac         0.25000002        0.37500003        0.75014651  Ba
       atom_frac         0.37500002        0.37500003        0.75014651  Ba
       atom_frac         0.50000002        0.37500003        0.75014651  Ba
       atom_frac         0.62500002        0.37500003        0.75014651  Ba
       atom_frac         0.75000002        0.37500003        0.75014651  Ba
       atom_frac         0.87500002        0.37500003        0.75014651  Ba
       atom_frac         0.00000002        0.50000003        0.75014651  Ba
       atom_frac         0.12500002        0.50000003        0.75014651  Ba
       atom_frac         0.25000002        0.50000003        0.75014651  Ba
       atom_frac         0.37500002        0.50000003        0.75014651  Ba
       atom_frac         0.50000002        0.50000003        0.75014651  Ba
       atom_frac         0.62500002        0.50000003        0.75014651  Ba
       atom_frac         0.75000002        0.50000003        0.75014651  Ba
       atom_frac         0.87500002        0.50000003        0.75014651  Ba
       atom_frac         0.00000002        0.62500003        0.75014651  Ba
       atom_frac         0.12500002        0.62500003        0.75014651  Ba
       atom_frac         0.25000002        0.62500003        0.75014651  Ba
       atom_frac         0.37500002        0.62500003        0.75014651  Ba
       atom_frac         0.50000002        0.62500003        0.75014651  Ba
       atom_frac         0.62500002        0.62500003        0.75014651  Ba
       atom_frac         0.75000002        0.62500003        0.75014651  Ba
       atom_frac         0.87500002        0.62500003        0.75014651  Ba
       atom_frac         0.00000002        0.75000003        0.75014651  Ba
       atom_frac         0.12500002        0.75000003        0.75014651  Ba
       atom_frac         0.25000002        0.75000003        0.75014651  Ba
       atom_frac         0.37500002        0.75000003        0.75014651  Ba
       atom_frac         0.50000002        0.75000003        0.75014651  Ba
       atom_frac         0.62500002        0.75000003        0.75014651  Ba
       atom_frac         0.75000002        0.75000003        0.75014651  Ba
       atom_frac         0.87500002        0.75000003        0.75014651  Ba
       atom_frac         0.00000002        0.87500003        0.75014651  Ba
       atom_frac         0.12500002        0.87500003        0.75014651  Ba
       atom_frac         0.25000002        0.87500003        0.75014651  Ba
       atom_frac         0.37500002        0.87500003        0.75014651  Ba
       atom_frac         0.50000002        0.87500003        0.75014651  Ba
       atom_frac         0.62500002        0.87500003        0.75014651  Ba
       atom_frac         0.75000002        0.87500003        0.75014651  Ba
       atom_frac         0.87500002        0.87500003        0.75014651  Ba
       atom_frac         0.00000002        0.00000003        0.87514651  Ba
       atom_frac         0.12500002        0.00000003        0.87514651  Ba
       atom_frac         0.25000002        0.00000003        0.87514651  Ba
       atom_frac         0.37500002        0.00000003        0.87514651  Ba
       atom_frac         0.50000002        0.00000003        0.87514651  Ba
       atom_frac         0.62500002        0.00000003        0.87514651  Ba
       atom_frac         0.75000002        0.00000003        0.87514651  Ba
       atom_frac         0.87500002        0.00000003        0.87514651  Ba
       atom_frac         0.00000002        0.12500003        0.87514651  Ba
       atom_frac         0.12500002        0.12500003        0.87514651  Ba
       atom_frac         0.25000002        0.12500003        0.87514651  Ba
       atom_frac         0.37500002        0.12500003        0.87514651  Ba
       atom_frac         0.50000002        0.12500003        0.87514651  Ba
       atom_frac         0.62500002        0.12500003        0.87514651  Ba
       atom_frac         0.75000002        0.12500003        0.87514651  Ba
       atom_frac         0.87500002        0.12500003        0.87514651  Ba
       atom_frac         0.00000002        0.25000003        0.87514651  Ba
       atom_frac         0.12500002        0.25000003        0.87514651  Ba
       atom_frac         0.25000002        0.25000003        0.87514651  Ba
       atom_frac         0.37500002        0.25000003        0.87514651  Ba
       atom_frac         0.50000002        0.25000003        0.87514651  Ba
       atom_frac         0.62500002        0.25000003        0.87514651  Ba
       atom_frac         0.75000002        0.25000003        0.87514651  Ba
       atom_frac         0.87500002        0.25000003        0.87514651  Ba
       atom_frac         0.00000002        0.37500003        0.87514651  Ba
       atom_frac         0.12500002        0.37500003        0.87514651  Ba
       atom_frac         0.25000002        0.37500003        0.87514651  Ba
       atom_frac         0.37500002        0.37500003        0.87514651  Ba
       atom_frac         0.50000002        0.37500003        0.87514651  Ba
       atom_frac         0.62500002        0.37500003        0.87514651  Ba
       atom_frac         0.75000002        0.37500003        0.87514651  Ba
       atom_frac         0.87500002        0.37500003        0.87514651  Ba
       atom_frac         0.00000002        0.50000003        0.87514651  Ba
       atom_frac         0.12500002        0.50000003        0.87514651  Ba
       atom_frac         0.25000002        0.50000003        0.87514651  Ba
       atom_frac         0.37500002        0.50000003        0.87514651  Ba
       atom_frac         0.50000002        0.50000003        0.87514651  Ba
       atom_frac         0.62500002        0.50000003        0.87514651  Ba
       atom_frac         0.75000002        0.50000003        0.87514651  Ba
       atom_frac         0.87500002        0.50000003        0.87514651  Ba
       atom_frac         0.00000002        0.62500003        0.87514651  Ba
       atom_frac         0.12500002        0.62500003        0.87514651  Ba
       atom_frac         0.25000002        0.62500003        0.87514651  Ba
       atom_frac         0.37500002        0.62500003        0.87514651  Ba
       atom_frac         0.50000002        0.62500003        0.87514651  Ba
       atom_frac         0.62500002        0.62500003        0.87514651  Ba
       atom_frac         0.75000002        0.62500003        0.87514651  Ba
       atom_frac         0.87500002        0.62500003        0.87514651  Ba
       atom_frac         0.00000002        0.75000003        0.87514651  Ba
       atom_frac         0.12500002        0.75000003        0.87514651  Ba
       atom_frac         0.25000002        0.75000003        0.87514651  Ba
       atom_frac         0.37500002        0.75000003        0.87514651  Ba
       atom_frac         0.50000002        0.75000003        0.87514651  Ba
       atom_frac         0.62500002        0.75000003        0.87514651  Ba
       atom_frac         0.75000002        0.75000003        0.87514651  Ba
       atom_frac         0.87500002        0.75000003        0.87514651  Ba
       atom_frac         0.00000002        0.87500003        0.87514651  Ba
       atom_frac         0.12500002        0.87500003        0.87514651  Ba
       atom_frac         0.25000002        0.87500003        0.87514651  Ba
       atom_frac         0.37500002        0.87500003        0.87514651  Ba
       atom_frac         0.50000002        0.87500003        0.87514651  Ba
       atom_frac         0.62500002        0.87500003        0.87514651  Ba
       atom_frac         0.75000002        0.87500003        0.87514651  Ba
       atom_frac         0.87500002        0.87500003        0.87514651  Ba
       atom_frac         0.06249999        0.99999999        0.06431155  O
       atom_frac         0.18749999        0.99999999        0.06431155  O
       atom_frac         0.31249999        0.99999999        0.06431155  O
       atom_frac         0.43749999        0.99999999        0.06431155  O
       atom_frac         0.56249999        0.99999999        0.06431155  O
       atom_frac         0.68749999        0.99999999        0.06431155  O
       atom_frac         0.81249999        0.99999999        0.06431155  O
       atom_frac         0.93749999        0.99999999        0.06431155  O
       atom_frac         0.06249999        0.12499999        0.06431155  O
       atom_frac         0.18749999        0.12499999        0.06431155  O
       atom_frac         0.31249999        0.12499999        0.06431155  O
       atom_frac         0.43749999        0.12499999        0.06431155  O
       atom_frac         0.56249999        0.12499999        0.06431155  O
       atom_frac         0.68749999        0.12499999        0.06431155  O
       atom_frac         0.81249999        0.12499999        0.06431155  O
       atom_frac         0.93749999        0.12499999        0.06431155  O
       atom_frac         0.06249999        0.24999999        0.06431155  O
       atom_frac         0.18749999        0.24999999        0.06431155  O
       atom_frac         0.31249999        0.24999999        0.06431155  O
       atom_frac         0.43749999        0.24999999        0.06431155  O
       atom_frac         0.56249999        0.24999999        0.06431155  O
       atom_frac         0.68749999        0.24999999        0.06431155  O
       atom_frac         0.81249999        0.24999999        0.06431155  O
       atom_frac         0.93749999        0.24999999        0.06431155  O
       atom_frac         0.06249999        0.37499999        0.06431155  O
       atom_frac         0.18749999        0.37499999        0.06431155  O
       atom_frac         0.31249999        0.37499999        0.06431155  O
       atom_frac         0.43749999        0.37499999        0.06431155  O
       atom_frac         0.56249999        0.37499999        0.06431155  O
       atom_frac         0.68749999        0.37499999        0.06431155  O
       atom_frac         0.81249999        0.37499999        0.06431155  O
       atom_frac         0.93749999        0.37499999        0.06431155  O
       atom_frac         0.06249999        0.49999999        0.06431155  O
       atom_frac         0.18749999        0.49999999        0.06431155  O
       atom_frac         0.31249999        0.49999999        0.06431155  O
       atom_frac         0.43749999        0.49999999        0.06431155  O
       atom_frac         0.56249999        0.49999999        0.06431155  O
       atom_frac         0.68749999        0.49999999        0.06431155  O
       atom_frac         0.81249999        0.49999999        0.06431155  O
       atom_frac         0.93749999        0.49999999        0.06431155  O
       atom_frac         0.06249999        0.62499999        0.06431155  O
       atom_frac         0.18749999        0.62499999        0.06431155  O
       atom_frac         0.31249999        0.62499999        0.06431155  O
       atom_frac         0.43749999        0.62499999        0.06431155  O
       atom_frac         0.56249999        0.62499999        0.06431155  O
       atom_frac         0.68749999        0.62499999        0.06431155  O
       atom_frac         0.81249999        0.62499999        0.06431155  O
       atom_frac         0.93749999        0.62499999        0.06431155  O
       atom_frac         0.06249999        0.74999999        0.06431155  O
       atom_frac         0.18749999        0.74999999        0.06431155  O
       atom_frac         0.31249999        0.74999999        0.06431155  O
       atom_frac         0.43749999        0.74999999        0.06431155  O
       atom_frac         0.56249999        0.74999999        0.06431155  O
       atom_frac         0.68749999        0.74999999        0.06431155  O
       atom_frac         0.81249999        0.74999999        0.06431155  O
       atom_frac         0.93749999        0.74999999        0.06431155  O
       atom_frac         0.06249999        0.87499999        0.06431155  O
       atom_frac         0.18749999        0.87499999        0.06431155  O
       atom_frac         0.31249999        0.87499999        0.06431155  O
       atom_frac         0.43749999        0.87499999        0.06431155  O
       atom_frac         0.56249999        0.87499999        0.06431155  O
       atom_frac         0.68749999        0.87499999        0.06431155  O
       atom_frac         0.81249999        0.87499999        0.06431155  O
       atom_frac         0.93749999        0.87499999        0.06431155  O
       atom_frac         0.06249999        0.99999999        0.18931155  O
       atom_frac         0.18749999        0.99999999        0.18931155  O
       atom_frac         0.31249999        0.99999999        0.18931155  O
       atom_frac         0.43749999        0.99999999        0.18931155  O
       atom_frac         0.56249999        0.99999999        0.18931155  O
       atom_frac         0.68749999        0.99999999        0.18931155  O
       atom_frac         0.81249999        0.99999999        0.18931155  O
       atom_frac         0.93749999        0.99999999        0.18931155  O
       atom_frac         0.06249999        0.12499999        0.18931155  O
       atom_frac         0.18749999        0.12499999        0.18931155  O
       atom_frac         0.31249999        0.12499999        0.18931155  O
       atom_frac         0.43749999        0.12499999        0.18931155  O
       atom_frac         0.56249999        0.12499999        0.18931155  O
       atom_frac         0.68749999        0.12499999        0.18931155  O
       atom_frac         0.81249999        0.12499999        0.18931155  O
       atom_frac         0.93749999        0.12499999        0.18931155  O
       atom_frac         0.06249999        0.24999999        0.18931155  O
       atom_frac         0.18749999        0.24999999        0.18931155  O
       atom_frac         0.31249999        0.24999999        0.18931155  O
       atom_frac         0.43749999        0.24999999        0.18931155  O
       atom_frac         0.56249999        0.24999999        0.18931155  O
       atom_frac         0.68749999        0.24999999        0.18931155  O
       atom_frac         0.81249999        0.24999999        0.18931155  O
       atom_frac         0.93749999        0.24999999        0.18931155  O
       atom_frac         0.06249999        0.37499999        0.18931155  O
       atom_frac         0.18749999        0.37499999        0.18931155  O
       atom_frac         0.31249999        0.37499999        0.18931155  O
       atom_frac         0.43749999        0.37499999        0.18931155  O
       atom_frac         0.56249999        0.37499999        0.18931155  O
       atom_frac         0.68749999        0.37499999        0.18931155  O
       atom_frac         0.81249999        0.37499999        0.18931155  O
       atom_frac         0.93749999        0.37499999        0.18931155  O
       atom_frac         0.06249999        0.49999999        0.18931155  O
       atom_frac         0.18749999        0.49999999        0.18931155  O
       atom_frac         0.31249999        0.49999999        0.18931155  O
       atom_frac         0.43749999        0.49999999        0.18931155  O
       atom_frac         0.56249999        0.49999999        0.18931155  O
       atom_frac         0.68749999        0.49999999        0.18931155  O
       atom_frac         0.81249999        0.49999999        0.18931155  O
       atom_frac         0.93749999        0.49999999        0.18931155  O
       atom_frac         0.06249999        0.62499999        0.18931155  O
       atom_frac         0.18749999        0.62499999        0.18931155  O
       atom_frac         0.31249999        0.62499999        0.18931155  O
       atom_frac         0.43749999        0.62499999        0.18931155  O
       atom_frac         0.56249999        0.62499999        0.18931155  O
       atom_frac         0.68749999        0.62499999        0.18931155  O
       atom_frac         0.81249999        0.62499999        0.18931155  O
       atom_frac         0.93749999        0.62499999        0.18931155  O
       atom_frac         0.06249999        0.74999999        0.18931155  O
       atom_frac         0.18749999        0.74999999        0.18931155  O
       atom_frac         0.31249999        0.74999999        0.18931155  O
       atom_frac         0.43749999        0.74999999        0.18931155  O
       atom_frac         0.56249999        0.74999999        0.18931155  O
       atom_frac         0.68749999        0.74999999        0.18931155  O
       atom_frac         0.81249999        0.74999999        0.18931155  O
       atom_frac         0.93749999        0.74999999        0.18931155  O
       atom_frac         0.06249999        0.87499999        0.18931155  O
       atom_frac         0.18749999        0.87499999        0.18931155  O
       atom_frac         0.31249999        0.87499999        0.18931155  O
       atom_frac         0.43749999        0.87499999        0.18931155  O
       atom_frac         0.56249999        0.87499999        0.18931155  O
       atom_frac         0.68749999        0.87499999        0.18931155  O
       atom_frac         0.81249999        0.87499999        0.18931155  O
       atom_frac         0.93749999        0.87499999        0.18931155  O
       atom_frac         0.06249999        0.99999999        0.31431155  O
       atom_frac         0.18749999        0.99999999        0.31431155  O
       atom_frac         0.31249999        0.99999999        0.31431155  O
       atom_frac         0.43749999        0.99999999        0.31431155  O
       atom_frac         0.56249999        0.99999999        0.31431155  O
       atom_frac         0.68749999        0.99999999        0.31431155  O
       atom_frac         0.81249999        0.99999999        0.31431155  O
       atom_frac         0.93749999        0.99999999        0.31431155  O
       atom_frac         0.06249999        0.12499999        0.31431155  O
       atom_frac         0.18749999        0.12499999        0.31431155  O
       atom_frac         0.31249999        0.12499999        0.31431155  O
       atom_frac         0.43749999        0.12499999        0.31431155  O
       atom_frac         0.56249999        0.12499999        0.31431155  O
       atom_frac         0.68749999        0.12499999        0.31431155  O
       atom_frac         0.81249999        0.12499999        0.31431155  O
       atom_frac         0.93749999        0.12499999        0.31431155  O
       atom_frac         0.06249999        0.24999999        0.31431155  O
       atom_frac         0.18749999        0.24999999        0.31431155  O
       atom_frac         0.31249999        0.24999999        0.31431155  O
       atom_frac         0.43749999        0.24999999        0.31431155  O
       atom_frac         0.56249999        0.24999999        0.31431155  O
       atom_frac         0.68749999        0.24999999        0.31431155  O
       atom_frac         0.81249999        0.24999999        0.31431155  O
       atom_frac         0.93749999        0.24999999        0.31431155  O
       atom_frac         0.06249999        0.37499999        0.31431155  O
       atom_frac         0.18749999        0.37499999        0.31431155  O
       atom_frac         0.31249999        0.37499999        0.31431155  O
       atom_frac         0.43749999        0.37499999        0.31431155  O
       atom_frac         0.56249999        0.37499999        0.31431155  O
       atom_frac         0.68749999        0.37499999        0.31431155  O
       atom_frac         0.81249999        0.37499999        0.31431155  O
       atom_frac         0.93749999        0.37499999        0.31431155  O
       atom_frac         0.06249999        0.49999999        0.31431155  O
       atom_frac         0.18749999        0.49999999        0.31431155  O
       atom_frac         0.31249999        0.49999999        0.31431155  O
       atom_frac         0.43749999        0.49999999        0.31431155  O
       atom_frac         0.56249999        0.49999999        0.31431155  O
       atom_frac         0.68749999        0.49999999        0.31431155  O
       atom_frac         0.81249999        0.49999999        0.31431155  O
       atom_frac         0.93749999        0.49999999        0.31431155  O
       atom_frac         0.06249999        0.62499999        0.31431155  O
       atom_frac         0.18749999        0.62499999        0.31431155  O
       atom_frac         0.31249999        0.62499999        0.31431155  O
       atom_frac         0.43749999        0.62499999        0.31431155  O
       atom_frac         0.56249999        0.62499999        0.31431155  O
       atom_frac         0.68749999        0.62499999        0.31431155  O
       atom_frac         0.81249999        0.62499999        0.31431155  O
       atom_frac         0.93749999        0.62499999        0.31431155  O
       atom_frac         0.06249999        0.74999999        0.31431155  O
       atom_frac         0.18749999        0.74999999        0.31431155  O
       atom_frac         0.31249999        0.74999999        0.31431155  O
       atom_frac         0.43749999        0.74999999        0.31431155  O
       atom_frac         0.56249999        0.74999999        0.31431155  O
       atom_frac         0.68749999        0.74999999        0.31431155  O
       atom_frac         0.81249999        0.74999999        0.31431155  O
       atom_frac         0.93749999        0.74999999        0.31431155  O
       atom_frac         0.06249999        0.87499999        0.31431155  O
       atom_frac         0.18749999        0.87499999        0.31431155  O
       atom_frac         0.31249999        0.87499999        0.31431155  O
       atom_frac         0.43749999        0.87499999        0.31431155  O
       atom_frac         0.56249999        0.87499999        0.31431155  O
       atom_frac         0.68749999        0.87499999        0.31431155  O
       atom_frac         0.81249999        0.87499999        0.31431155  O
       atom_frac         0.93749999        0.87499999        0.31431155  O
       atom_frac         0.06249999        0.99999999        0.43931155  O
       atom_frac         0.18749999        0.99999999        0.43931155  O
       atom_frac         0.31249999        0.99999999        0.43931155  O
       atom_frac         0.43749999        0.99999999        0.43931155  O
       atom_frac         0.56249999        0.99999999        0.43931155  O
       atom_frac         0.68749999        0.99999999        0.43931155  O
       atom_frac         0.81249999        0.99999999        0.43931155  O
       atom_frac         0.93749999        0.99999999        0.43931155  O
       atom_frac         0.06249999        0.12499999        0.43931155  O
       atom_frac         0.18749999        0.12499999        0.43931155  O
       atom_frac         0.31249999        0.12499999        0.43931155  O
       atom_frac         0.43749999        0.12499999        0.43931155  O
       atom_frac         0.56249999        0.12499999        0.43931155  O
       atom_frac         0.68749999        0.12499999        0.43931155  O
       atom_frac         0.81249999        0.12499999        0.43931155  O
       atom_frac         0.93749999        0.12499999        0.43931155  O
       atom_frac         0.06249999        0.24999999        0.43931155  O
       atom_frac         0.18749999        0.24999999        0.43931155  O
       atom_frac         0.31249999        0.24999999        0.43931155  O
       atom_frac         0.43749999        0.24999999        0.43931155  O
       atom_frac         0.56249999        0.24999999        0.43931155  O
       atom_frac         0.68749999        0.24999999        0.43931155  O
       atom_frac         0.81249999        0.24999999        0.43931155  O
       atom_frac         0.93749999        0.24999999        0.43931155  O
       atom_frac         0.06249999        0.37499999        0.43931155  O
       atom_frac         0.18749999        0.37499999        0.43931155  O
       atom_frac         0.31249999        0.37499999        0.43931155  O
       atom_frac         0.43749999        0.37499999        0.43931155  O
       atom_frac         0.56249999        0.37499999        0.43931155  O
       atom_frac         0.68749999        0.37499999        0.43931155  O
       atom_frac         0.81249999        0.37499999        0.43931155  O
       atom_frac         0.93749999        0.37499999        0.43931155  O
       atom_frac         0.06249999        0.49999999        0.43931155  O
       atom_frac         0.18749999        0.49999999        0.43931155  O
       atom_frac         0.31249999        0.49999999        0.43931155  O
       atom_frac         0.43749999        0.49999999        0.43931155  O
       atom_frac         0.56249999        0.49999999        0.43931155  O
       atom_frac         0.68749999        0.49999999        0.43931155  O
       atom_frac         0.81249999        0.49999999        0.43931155  O
       atom_frac         0.93749999        0.49999999        0.43931155  O
       atom_frac         0.06249999        0.62499999        0.43931155  O
       atom_frac         0.18749999        0.62499999        0.43931155  O
       atom_frac         0.31249999        0.62499999        0.43931155  O
       atom_frac         0.43749999        0.62499999        0.43931155  O
       atom_frac         0.56249999        0.62499999        0.43931155  O
       atom_frac         0.68749999        0.62499999        0.43931155  O
       atom_frac         0.81249999        0.62499999        0.43931155  O
       atom_frac         0.93749999        0.62499999        0.43931155  O
       atom_frac         0.06249999        0.74999999        0.43931155  O
       atom_frac         0.18749999        0.74999999        0.43931155  O
       atom_frac         0.31249999        0.74999999        0.43931155  O
       atom_frac         0.43749999        0.74999999        0.43931155  O
       atom_frac         0.56249999        0.74999999        0.43931155  O
       atom_frac         0.68749999        0.74999999        0.43931155  O
       atom_frac         0.81249999        0.74999999        0.43931155  O
       atom_frac         0.93749999        0.74999999        0.43931155  O
       atom_frac         0.06249999        0.87499999        0.43931155  O
       atom_frac         0.18749999        0.87499999        0.43931155  O
       atom_frac         0.31249999        0.87499999        0.43931155  O
       atom_frac         0.43749999        0.87499999        0.43931155  O
       atom_frac         0.56249999        0.87499999        0.43931155  O
       atom_frac         0.68749999        0.87499999        0.43931155  O
       atom_frac         0.81249999        0.87499999        0.43931155  O
       atom_frac         0.93749999        0.87499999        0.43931155  O
       atom_frac         0.06249999        0.99999999        0.56431155  O
       atom_frac         0.18749999        0.99999999        0.56431155  O
       atom_frac         0.31249999        0.99999999        0.56431155  O
       atom_frac         0.43749999        0.99999999        0.56431155  O
       atom_frac         0.56249999        0.99999999        0.56431155  O
       atom_frac         0.68749999        0.99999999        0.56431155  O
       atom_frac         0.81249999        0.99999999        0.56431155  O
       atom_frac         0.93749999        0.99999999        0.56431155  O
       atom_frac         0.06249999        0.12499999        0.56431155  O
       atom_frac         0.18749999        0.12499999        0.56431155  O
       atom_frac         0.31249999        0.12499999        0.56431155  O
       atom_frac         0.43749999        0.12499999        0.56431155  O
       atom_frac         0.56249999        0.12499999        0.56431155  O
       atom_frac         0.68749999        0.12499999        0.56431155  O
       atom_frac         0.81249999        0.12499999        0.56431155  O
       atom_frac         0.93749999        0.12499999        0.56431155  O
       atom_frac         0.06249999        0.24999999        0.56431155  O
       atom_frac         0.18749999        0.24999999        0.56431155  O
       atom_frac         0.31249999        0.24999999        0.56431155  O
       atom_frac         0.43749999        0.24999999        0.56431155  O
       atom_frac         0.56249999        0.24999999        0.56431155  O
       atom_frac         0.68749999        0.24999999        0.56431155  O
       atom_frac         0.81249999        0.24999999        0.56431155  O
       atom_frac         0.93749999        0.24999999        0.56431155  O
       atom_frac         0.06249999        0.37499999        0.56431155  O
       atom_frac         0.18749999        0.37499999        0.56431155  O
       atom_frac         0.31249999        0.37499999        0.56431155  O
       atom_frac         0.43749999        0.37499999        0.56431155  O
       atom_frac         0.56249999        0.37499999        0.56431155  O
       atom_frac         0.68749999        0.37499999        0.56431155  O
       atom_frac         0.81249999        0.37499999        0.56431155  O
       atom_frac         0.93749999        0.37499999        0.56431155  O
       atom_frac         0.06249999        0.49999999        0.56431155  O
       atom_frac         0.18749999        0.49999999        0.56431155  O
       atom_frac         0.31249999        0.49999999        0.56431155  O
       atom_frac         0.43749999        0.49999999        0.56431155  O
       atom_frac         0.56249999        0.49999999        0.56431155  O
       atom_frac         0.68749999        0.49999999        0.56431155  O
       atom_frac         0.81249999        0.49999999        0.56431155  O
       atom_frac         0.93749999        0.49999999        0.56431155  O
       atom_frac         0.06249999        0.62499999        0.56431155  O
       atom_frac         0.18749999        0.62499999        0.56431155  O
       atom_frac         0.31249999        0.62499999        0.56431155  O
       atom_frac         0.43749999        0.62499999        0.56431155  O
       atom_frac         0.56249999        0.62499999        0.56431155  O
       atom_frac         0.68749999        0.62499999        0.56431155  O
       atom_frac         0.81249999        0.62499999        0.56431155  O
       atom_frac         0.93749999        0.62499999        0.56431155  O
       atom_frac         0.06249999        0.74999999        0.56431155  O
       atom_frac         0.18749999        0.74999999        0.56431155  O
       atom_frac         0.31249999        0.74999999        0.56431155  O
       atom_frac         0.43749999        0.74999999        0.56431155  O
       atom_frac         0.56249999        0.74999999        0.56431155  O
       atom_frac         0.68749999        0.74999999        0.56431155  O
       atom_frac         0.81249999        0.74999999        0.56431155  O
       atom_frac         0.93749999        0.74999999        0.56431155  O
       atom_frac         0.06249999        0.87499999        0.56431155  O
       atom_frac         0.18749999        0.87499999        0.56431155  O
       atom_frac         0.31249999        0.87499999        0.56431155  O
       atom_frac         0.43749999        0.87499999        0.56431155  O
       atom_frac         0.56249999        0.87499999        0.56431155  O
       atom_frac         0.68749999        0.87499999        0.56431155  O
       atom_frac         0.81249999        0.87499999        0.56431155  O
       atom_frac         0.93749999        0.87499999        0.56431155  O
       atom_frac         0.06249999        0.99999999        0.68931155  O
       atom_frac         0.18749999        0.99999999        0.68931155  O
       atom_frac         0.31249999        0.99999999        0.68931155  O
       atom_frac         0.43749999        0.99999999        0.68931155  O
       atom_frac         0.56249999        0.99999999        0.68931155  O
       atom_frac         0.68749999        0.99999999        0.68931155  O
       atom_frac         0.81249999        0.99999999        0.68931155  O
       atom_frac         0.93749999        0.99999999        0.68931155  O
       atom_frac         0.06249999        0.12499999        0.68931155  O
       atom_frac         0.18749999        0.12499999        0.68931155  O
       atom_frac         0.31249999        0.12499999        0.68931155  O
       atom_frac         0.43749999        0.12499999        0.68931155  O
       atom_frac         0.56249999        0.12499999        0.68931155  O
       atom_frac         0.68749999        0.12499999        0.68931155  O
       atom_frac         0.81249999        0.12499999        0.68931155  O
       atom_frac         0.93749999        0.12499999        0.68931155  O
       atom_frac         0.06249999        0.24999999        0.68931155  O
       atom_frac         0.18749999        0.24999999        0.68931155  O
       atom_frac         0.31249999        0.24999999        0.68931155  O
       atom_frac         0.43749999        0.24999999        0.68931155  O
       atom_frac         0.56249999        0.24999999        0.68931155  O
       atom_frac         0.68749999        0.24999999        0.68931155  O
       atom_frac         0.81249999        0.24999999        0.68931155  O
       atom_frac         0.93749999        0.24999999        0.68931155  O
       atom_frac         0.06249999        0.37499999        0.68931155  O
       atom_frac         0.18749999        0.37499999        0.68931155  O
       atom_frac         0.31249999        0.37499999        0.68931155  O
       atom_frac         0.43749999        0.37499999        0.68931155  O
       atom_frac         0.56249999        0.37499999        0.68931155  O
       atom_frac         0.68749999        0.37499999        0.68931155  O
       atom_frac         0.81249999        0.37499999        0.68931155  O
       atom_frac         0.93749999        0.37499999        0.68931155  O
       atom_frac         0.06249999        0.49999999        0.68931155  O
       atom_frac         0.18749999        0.49999999        0.68931155  O
       atom_frac         0.31249999        0.49999999        0.68931155  O
       atom_frac         0.43749999        0.49999999        0.68931155  O
       atom_frac         0.56249999        0.49999999        0.68931155  O
       atom_frac         0.68749999        0.49999999        0.68931155  O
       atom_frac         0.81249999        0.49999999        0.68931155  O
       atom_frac         0.93749999        0.49999999        0.68931155  O
       atom_frac         0.06249999        0.62499999        0.68931155  O
       atom_frac         0.18749999        0.62499999        0.68931155  O
       atom_frac         0.31249999        0.62499999        0.68931155  O
       atom_frac         0.43749999        0.62499999        0.68931155  O
       atom_frac         0.56249999        0.62499999        0.68931155  O
       atom_frac         0.68749999        0.62499999        0.68931155  O
       atom_frac         0.81249999        0.62499999        0.68931155  O
       atom_frac         0.93749999        0.62499999        0.68931155  O
       atom_frac         0.06249999        0.74999999        0.68931155  O
       atom_frac         0.18749999        0.74999999        0.68931155  O
       atom_frac         0.31249999        0.74999999        0.68931155  O
       atom_frac         0.43749999        0.74999999        0.68931155  O
       atom_frac         0.56249999        0.74999999        0.68931155  O
       atom_frac         0.68749999        0.74999999        0.68931155  O
       atom_frac         0.81249999        0.74999999        0.68931155  O
       atom_frac         0.93749999        0.74999999        0.68931155  O
       atom_frac         0.06249999        0.87499999        0.68931155  O
       atom_frac         0.18749999        0.87499999        0.68931155  O
       atom_frac         0.31249999        0.87499999        0.68931155  O
       atom_frac         0.43749999        0.87499999        0.68931155  O
       atom_frac         0.56249999        0.87499999        0.68931155  O
       atom_frac         0.68749999        0.87499999        0.68931155  O
       atom_frac         0.81249999        0.87499999        0.68931155  O
       atom_frac         0.93749999        0.87499999        0.68931155  O
       atom_frac         0.06249999        0.99999999        0.81431155  O
       atom_frac         0.18749999        0.99999999        0.81431155  O
       atom_frac         0.31249999        0.99999999        0.81431155  O
       atom_frac         0.43749999        0.99999999        0.81431155  O
       atom_frac         0.56249999        0.99999999        0.81431155  O
       atom_frac         0.68749999        0.99999999        0.81431155  O
       atom_frac         0.81249999        0.99999999        0.81431155  O
       atom_frac         0.93749999        0.99999999        0.81431155  O
       atom_frac         0.06249999        0.12499999        0.81431155  O
       atom_frac         0.18749999        0.12499999        0.81431155  O
       atom_frac         0.31249999        0.12499999        0.81431155  O
       atom_frac         0.43749999        0.12499999        0.81431155  O
       atom_frac         0.56249999        0.12499999        0.81431155  O
       atom_frac         0.68749999        0.12499999        0.81431155  O
       atom_frac         0.81249999        0.12499999        0.81431155  O
       atom_frac         0.93749999        0.12499999        0.81431155  O
       atom_frac         0.06249999        0.24999999        0.81431155  O
       atom_frac         0.18749999        0.24999999        0.81431155  O
       atom_frac         0.31249999        0.24999999        0.81431155  O
       atom_frac         0.43749999        0.24999999        0.81431155  O
       atom_frac         0.56249999        0.24999999        0.81431155  O
       atom_frac         0.68749999        0.24999999        0.81431155  O
       atom_frac         0.81249999        0.24999999        0.81431155  O
       atom_frac         0.93749999        0.24999999        0.81431155  O
       atom_frac         0.06249999        0.37499999        0.81431155  O
       atom_frac         0.18749999        0.37499999        0.81431155  O
       atom_frac         0.31249999        0.37499999        0.81431155  O
       atom_frac         0.43749999        0.37499999        0.81431155  O
       atom_frac         0.56249999        0.37499999        0.81431155  O
       atom_frac         0.68749999        0.37499999        0.81431155  O
       atom_frac         0.81249999        0.37499999        0.81431155  O
       atom_frac         0.93749999        0.37499999        0.81431155  O
       atom_frac         0.06249999        0.49999999        0.81431155  O
       atom_frac         0.18749999        0.49999999        0.81431155  O
       atom_frac         0.31249999        0.49999999        0.81431155  O
       atom_frac         0.43749999        0.49999999        0.81431155  O
       atom_frac         0.56249999        0.49999999        0.81431155  O
       atom_frac         0.68749999        0.49999999        0.81431155  O
       atom_frac         0.81249999        0.49999999        0.81431155  O
       atom_frac         0.93749999        0.49999999        0.81431155  O
       atom_frac         0.06249999        0.62499999        0.81431155  O
       atom_frac         0.18749999        0.62499999        0.81431155  O
       atom_frac         0.31249999        0.62499999        0.81431155  O
       atom_frac         0.43749999        0.62499999        0.81431155  O
       atom_frac         0.56249999        0.62499999        0.81431155  O
       atom_frac         0.68749999        0.62499999        0.81431155  O
       atom_frac         0.81249999        0.62499999        0.81431155  O
       atom_frac         0.93749999        0.62499999        0.81431155  O
       atom_frac         0.06249999        0.74999999        0.81431155  O
       atom_frac         0.18749999        0.74999999        0.81431155  O
       atom_frac         0.31249999        0.74999999        0.81431155  O
       atom_frac         0.43749999        0.74999999        0.81431155  O
       atom_frac         0.56249999        0.74999999        0.81431155  O
       atom_frac         0.68749999        0.74999999        0.81431155  O
       atom_frac         0.81249999        0.74999999        0.81431155  O
       atom_frac         0.93749999        0.74999999        0.81431155  O
       atom_frac         0.06249999        0.87499999        0.81431155  O
       atom_frac         0.18749999        0.87499999        0.81431155  O
       atom_frac         0.31249999        0.87499999        0.81431155  O
       atom_frac         0.43749999        0.87499999        0.81431155  O
       atom_frac         0.56249999        0.87499999        0.81431155  O
       atom_frac         0.68749999        0.87499999        0.81431155  O
       atom_frac         0.81249999        0.87499999        0.81431155  O
       atom_frac         0.93749999        0.87499999        0.81431155  O
       atom_frac         0.06249999        0.99999999        0.93931155  O
       atom_frac         0.18749999        0.99999999        0.93931155  O
       atom_frac         0.31249999        0.99999999        0.93931155  O
       atom_frac         0.43749999        0.99999999        0.93931155  O
       atom_frac         0.56249999        0.99999999        0.93931155  O
       atom_frac         0.68749999        0.99999999        0.93931155  O
       atom_frac         0.81249999        0.99999999        0.93931155  O
       atom_frac         0.93749999        0.99999999        0.93931155  O
       atom_frac         0.06249999        0.12499999        0.93931155  O
       atom_frac         0.18749999        0.12499999        0.93931155  O
       atom_frac         0.31249999        0.12499999        0.93931155  O
       atom_frac         0.43749999        0.12499999        0.93931155  O
       atom_frac         0.56249999        0.12499999        0.93931155  O
       atom_frac         0.68749999        0.12499999        0.93931155  O
       atom_frac         0.81249999        0.12499999        0.93931155  O
       atom_frac         0.93749999        0.12499999        0.93931155  O
       atom_frac         0.06249999        0.24999999        0.93931155  O
       atom_frac         0.18749999        0.24999999        0.93931155  O
       atom_frac         0.31249999        0.24999999        0.93931155  O
       atom_frac         0.43749999        0.24999999        0.93931155  O
       atom_frac         0.56249999        0.24999999        0.93931155  O
       atom_frac         0.68749999        0.24999999        0.93931155  O
       atom_frac         0.81249999        0.24999999        0.93931155  O
       atom_frac         0.93749999        0.24999999        0.93931155  O
       atom_frac         0.06249999        0.37499999        0.93931155  O
       atom_frac         0.18749999        0.37499999        0.93931155  O
       atom_frac         0.31249999        0.37499999        0.93931155  O
       atom_frac         0.43749999        0.37499999        0.93931155  O
       atom_frac         0.56249999        0.37499999        0.93931155  O
       atom_frac         0.68749999        0.37499999        0.93931155  O
       atom_frac         0.81249999        0.37499999        0.93931155  O
       atom_frac         0.93749999        0.37499999        0.93931155  O
       atom_frac         0.06249999        0.49999999        0.93931155  O
       atom_frac         0.18749999        0.49999999        0.93931155  O
       atom_frac         0.31249999        0.49999999        0.93931155  O
       atom_frac         0.43749999        0.49999999        0.93931155  O
       atom_frac         0.56249999        0.49999999        0.93931155  O
       atom_frac         0.68749999        0.49999999        0.93931155  O
       atom_frac         0.81249999        0.49999999        0.93931155  O
       atom_frac         0.93749999        0.49999999        0.93931155  O
       atom_frac         0.06249999        0.62499999        0.93931155  O
       atom_frac         0.18749999        0.62499999        0.93931155  O
       atom_frac         0.31249999        0.62499999        0.93931155  O
       atom_frac         0.43749999        0.62499999        0.93931155  O
       atom_frac         0.56249999        0.62499999        0.93931155  O
       atom_frac         0.68749999        0.62499999        0.93931155  O
       atom_frac         0.81249999        0.62499999        0.93931155  O
       atom_frac         0.93749999        0.62499999        0.93931155  O
       atom_frac         0.06249999        0.74999999        0.93931155  O
       atom_frac         0.18749999        0.74999999        0.93931155  O
       atom_frac         0.31249999        0.74999999        0.93931155  O
       atom_frac         0.43749999        0.74999999        0.93931155  O
       atom_frac         0.56249999        0.74999999        0.93931155  O
       atom_frac         0.68749999        0.74999999        0.93931155  O
       atom_frac         0.81249999        0.74999999        0.93931155  O
       atom_frac         0.93749999        0.74999999        0.93931155  O
       atom_frac         0.06249999        0.87499999        0.93931155  O
       atom_frac         0.18749999        0.87499999        0.93931155  O
       atom_frac         0.31249999        0.87499999        0.93931155  O
       atom_frac         0.43749999        0.87499999        0.93931155  O
       atom_frac         0.56249999        0.87499999        0.93931155  O
       atom_frac         0.68749999        0.87499999        0.93931155  O
       atom_frac         0.81249999        0.87499999        0.93931155  O
       atom_frac         0.93749999        0.87499999        0.93931155  O
       atom_frac         0.99999999        0.06249999        0.06431206  O
       atom_frac         0.12499999        0.06249999        0.06431206  O
       atom_frac         0.24999999        0.06249999        0.06431206  O
       atom_frac         0.37499999        0.06249999        0.06431206  O
       atom_frac         0.49999999        0.06249999        0.06431206  O
       atom_frac         0.62499999        0.06249999        0.06431206  O
       atom_frac         0.74999999        0.06249999        0.06431206  O
       atom_frac         0.87499999        0.06249999        0.06431206  O
       atom_frac         0.99999999        0.18749999        0.06431206  O
       atom_frac         0.12499999        0.18749999        0.06431206  O
       atom_frac         0.24999999        0.18749999        0.06431206  O
       atom_frac         0.37499999        0.18749999        0.06431206  O
       atom_frac         0.49999999        0.18749999        0.06431206  O
       atom_frac         0.62499999        0.18749999        0.06431206  O
       atom_frac         0.74999999        0.18749999        0.06431206  O
       atom_frac         0.87499999        0.18749999        0.06431206  O
       atom_frac         0.99999999        0.31249999        0.06431206  O
       atom_frac         0.12499999        0.31249999        0.06431206  O
       atom_frac         0.24999999        0.31249999        0.06431206  O
       atom_frac         0.37499999        0.31249999        0.06431206  O
       atom_frac         0.49999999        0.31249999        0.06431206  O
       atom_frac         0.62499999        0.31249999        0.06431206  O
       atom_frac         0.74999999        0.31249999        0.06431206  O
       atom_frac         0.87499999        0.31249999        0.06431206  O
       atom_frac         0.99999999        0.43749999        0.06431206  O
       atom_frac         0.12499999        0.43749999        0.06431206  O
       atom_frac         0.24999999        0.43749999        0.06431206  O
       atom_frac         0.37499999        0.43749999        0.06431206  O
       atom_frac         0.49999999        0.43749999        0.06431206  O
       atom_frac         0.62499999        0.43749999        0.06431206  O
       atom_frac         0.74999999        0.43749999        0.06431206  O
       atom_frac         0.87499999        0.43749999        0.06431206  O
       atom_frac         0.99999999        0.56249999        0.06431206  O
       atom_frac         0.12499999        0.56249999        0.06431206  O
       atom_frac         0.24999999        0.56249999        0.06431206  O
       atom_frac         0.37499999        0.56249999        0.06431206  O
       atom_frac         0.49999999        0.56249999        0.06431206  O
       atom_frac         0.62499999        0.56249999        0.06431206  O
       atom_frac         0.74999999        0.56249999        0.06431206  O
       atom_frac         0.87499999        0.56249999        0.06431206  O
       atom_frac         0.99999999        0.68749999        0.06431206  O
       atom_frac         0.12499999        0.68749999        0.06431206  O
       atom_frac         0.24999999        0.68749999        0.06431206  O
       atom_frac         0.37499999        0.68749999        0.06431206  O
       atom_frac         0.49999999        0.68749999        0.06431206  O
       atom_frac         0.62499999        0.68749999        0.06431206  O
       atom_frac         0.74999999        0.68749999        0.06431206  O
       atom_frac         0.87499999        0.68749999        0.06431206  O
       atom_frac         0.99999999        0.81249999        0.06431206  O
       atom_frac         0.12499999        0.81249999        0.06431206  O
       atom_frac         0.24999999        0.81249999        0.06431206  O
       atom_frac         0.37499999        0.81249999        0.06431206  O
       atom_frac         0.49999999        0.81249999        0.06431206  O
       atom_frac         0.62499999        0.81249999        0.06431206  O
       atom_frac         0.74999999        0.81249999        0.06431206  O
       atom_frac         0.87499999        0.81249999        0.06431206  O
       atom_frac         0.99999999        0.93749999        0.06431206  O
       atom_frac         0.12499999        0.93749999        0.06431206  O
       atom_frac         0.24999999        0.93749999        0.06431206  O
       atom_frac         0.37499999        0.93749999        0.06431206  O
       atom_frac         0.49999999        0.93749999        0.06431206  O
       atom_frac         0.62499999        0.93749999        0.06431206  O
       atom_frac         0.74999999        0.93749999        0.06431206  O
       atom_frac         0.87499999        0.93749999        0.06431206  O
       atom_frac         0.99999999        0.06249999        0.18931206  O
       atom_frac         0.12499999        0.06249999        0.18931206  O
       atom_frac         0.24999999        0.06249999        0.18931206  O
       atom_frac         0.37499999        0.06249999        0.18931206  O
       atom_frac         0.49999999        0.06249999        0.18931206  O
       atom_frac         0.62499999        0.06249999        0.18931206  O
       atom_frac         0.74999999        0.06249999        0.18931206  O
       atom_frac         0.87499999        0.06249999        0.18931206  O
       atom_frac         0.99999999        0.18749999        0.18931206  O
       atom_frac         0.12499999        0.18749999        0.18931206  O
       atom_frac         0.24999999        0.18749999        0.18931206  O
       atom_frac         0.37499999        0.18749999        0.18931206  O
       atom_frac         0.49999999        0.18749999        0.18931206  O
       atom_frac         0.62499999        0.18749999        0.18931206  O
       atom_frac         0.74999999        0.18749999        0.18931206  O
       atom_frac         0.87499999        0.18749999        0.18931206  O
       atom_frac         0.99999999        0.31249999        0.18931206  O
       atom_frac         0.12499999        0.31249999        0.18931206  O
       atom_frac         0.24999999        0.31249999        0.18931206  O
       atom_frac         0.37499999        0.31249999        0.18931206  O
       atom_frac         0.49999999        0.31249999        0.18931206  O
       atom_frac         0.62499999        0.31249999        0.18931206  O
       atom_frac         0.74999999        0.31249999        0.18931206  O
       atom_frac         0.87499999        0.31249999        0.18931206  O
       atom_frac         0.99999999        0.43749999        0.18931206  O
       atom_frac         0.12499999        0.43749999        0.18931206  O
       atom_frac         0.24999999        0.43749999        0.18931206  O
       atom_frac         0.37499999        0.43749999        0.18931206  O
       atom_frac         0.49999999        0.43749999        0.18931206  O
       atom_frac         0.62499999        0.43749999        0.18931206  O
       atom_frac         0.74999999        0.43749999        0.18931206  O
       atom_frac         0.87499999        0.43749999        0.18931206  O
       atom_frac         0.99999999        0.56249999        0.18931206  O
       atom_frac         0.12499999        0.56249999        0.18931206  O
       atom_frac         0.24999999        0.56249999        0.18931206  O
       atom_frac         0.37499999        0.56249999        0.18931206  O
       atom_frac         0.49999999        0.56249999        0.18931206  O
       atom_frac         0.62499999        0.56249999        0.18931206  O
       atom_frac         0.74999999        0.56249999        0.18931206  O
       atom_frac         0.87499999        0.56249999        0.18931206  O
       atom_frac         0.99999999        0.68749999        0.18931206  O
       atom_frac         0.12499999        0.68749999        0.18931206  O
       atom_frac         0.24999999        0.68749999        0.18931206  O
       atom_frac         0.37499999        0.68749999        0.18931206  O
       atom_frac         0.49999999        0.68749999        0.18931206  O
       atom_frac         0.62499999        0.68749999        0.18931206  O
       atom_frac         0.74999999        0.68749999        0.18931206  O
       atom_frac         0.87499999        0.68749999        0.18931206  O
       atom_frac         0.99999999        0.81249999        0.18931206  O
       atom_frac         0.12499999        0.81249999        0.18931206  O
       atom_frac         0.24999999        0.81249999        0.18931206  O
       atom_frac         0.37499999        0.81249999        0.18931206  O
       atom_frac         0.49999999        0.81249999        0.18931206  O
       atom_frac         0.62499999        0.81249999        0.18931206  O
       atom_frac         0.74999999        0.81249999        0.18931206  O
       atom_frac         0.87499999        0.81249999        0.18931206  O
       atom_frac         0.99999999        0.93749999        0.18931206  O
       atom_frac         0.12499999        0.93749999        0.18931206  O
       atom_frac         0.24999999        0.93749999        0.18931206  O
       atom_frac         0.37499999        0.93749999        0.18931206  O
       atom_frac         0.49999999        0.93749999        0.18931206  O
       atom_frac         0.62499999        0.93749999        0.18931206  O
       atom_frac         0.74999999        0.93749999        0.18931206  O
       atom_frac         0.87499999        0.93749999        0.18931206  O
       atom_frac         0.99999999        0.06249999        0.31431206  O
       atom_frac         0.12499999        0.06249999        0.31431206  O
       atom_frac         0.24999999        0.06249999        0.31431206  O
       atom_frac         0.37499999        0.06249999        0.31431206  O
       atom_frac         0.49999999        0.06249999        0.31431206  O
       atom_frac         0.62499999        0.06249999        0.31431206  O
       atom_frac         0.74999999        0.06249999        0.31431206  O
       atom_frac         0.87499999        0.06249999        0.31431206  O
       atom_frac         0.99999999        0.18749999        0.31431206  O
       atom_frac         0.12499999        0.18749999        0.31431206  O
       atom_frac         0.24999999        0.18749999        0.31431206  O
       atom_frac         0.37499999        0.18749999        0.31431206  O
       atom_frac         0.49999999        0.18749999        0.31431206  O
       atom_frac         0.62499999        0.18749999        0.31431206  O
       atom_frac         0.74999999        0.18749999        0.31431206  O
       atom_frac         0.87499999        0.18749999        0.31431206  O
       atom_frac         0.99999999        0.31249999        0.31431206  O
       atom_frac         0.12499999        0.31249999        0.31431206  O
       atom_frac         0.24999999        0.31249999        0.31431206  O
       atom_frac         0.37499999        0.31249999        0.31431206  O
       atom_frac         0.49999999        0.31249999        0.31431206  O
       atom_frac         0.62499999        0.31249999        0.31431206  O
       atom_frac         0.74999999        0.31249999        0.31431206  O
       atom_frac         0.87499999        0.31249999        0.31431206  O
       atom_frac         0.99999999        0.43749999        0.31431206  O
       atom_frac         0.12499999        0.43749999        0.31431206  O
       atom_frac         0.24999999        0.43749999        0.31431206  O
       atom_frac         0.37499999        0.43749999        0.31431206  O
       atom_frac         0.49999999        0.43749999        0.31431206  O
       atom_frac         0.62499999        0.43749999        0.31431206  O
       atom_frac         0.74999999        0.43749999        0.31431206  O
       atom_frac         0.87499999        0.43749999        0.31431206  O
       atom_frac         0.99999999        0.56249999        0.31431206  O
       atom_frac         0.12499999        0.56249999        0.31431206  O
       atom_frac         0.24999999        0.56249999        0.31431206  O
       atom_frac         0.37499999        0.56249999        0.31431206  O
       atom_frac         0.49999999        0.56249999        0.31431206  O
       atom_frac         0.62499999        0.56249999        0.31431206  O
       atom_frac         0.74999999        0.56249999        0.31431206  O
       atom_frac         0.87499999        0.56249999        0.31431206  O
       atom_frac         0.99999999        0.68749999        0.31431206  O
       atom_frac         0.12499999        0.68749999        0.31431206  O
       atom_frac         0.24999999        0.68749999        0.31431206  O
       atom_frac         0.37499999        0.68749999        0.31431206  O
       atom_frac         0.49999999        0.68749999        0.31431206  O
       atom_frac         0.62499999        0.68749999        0.31431206  O
       atom_frac         0.74999999        0.68749999        0.31431206  O
       atom_frac         0.87499999        0.68749999        0.31431206  O
       atom_frac         0.99999999        0.81249999        0.31431206  O
       atom_frac         0.12499999        0.81249999        0.31431206  O
       atom_frac         0.24999999        0.81249999        0.31431206  O
       atom_frac         0.37499999        0.81249999        0.31431206  O
       atom_frac         0.49999999        0.81249999        0.31431206  O
       atom_frac         0.62499999        0.81249999        0.31431206  O
       atom_frac         0.74999999        0.81249999        0.31431206  O
       atom_frac         0.87499999        0.81249999        0.31431206  O
       atom_frac         0.99999999        0.93749999        0.31431206  O
       atom_frac         0.12499999        0.93749999        0.31431206  O
       atom_frac         0.24999999        0.93749999        0.31431206  O
       atom_frac         0.37499999        0.93749999        0.31431206  O
       atom_frac         0.49999999        0.93749999        0.31431206  O
       atom_frac         0.62499999        0.93749999        0.31431206  O
       atom_frac         0.74999999        0.93749999        0.31431206  O
       atom_frac         0.87499999        0.93749999        0.31431206  O
       atom_frac         0.99999999        0.06249999        0.43931206  O
       atom_frac         0.12499999        0.06249999        0.43931206  O
       atom_frac         0.24999999        0.06249999        0.43931206  O
       atom_frac         0.37499999        0.06249999        0.43931206  O
       atom_frac         0.49999999        0.06249999        0.43931206  O
       atom_frac         0.62499999        0.06249999        0.43931206  O
       atom_frac         0.74999999        0.06249999        0.43931206  O
       atom_frac         0.87499999        0.06249999        0.43931206  O
       atom_frac         0.99999999        0.18749999        0.43931206  O
       atom_frac         0.12499999        0.18749999        0.43931206  O
       atom_frac         0.24999999        0.18749999        0.43931206  O
       atom_frac         0.37499999        0.18749999        0.43931206  O
       atom_frac         0.49999999        0.18749999        0.43931206  O
       atom_frac         0.62499999        0.18749999        0.43931206  O
       atom_frac         0.74999999        0.18749999        0.43931206  O
       atom_frac         0.87499999        0.18749999        0.43931206  O
       atom_frac         0.99999999        0.31249999        0.43931206  O
       atom_frac         0.12499999        0.31249999        0.43931206  O
       atom_frac         0.24999999        0.31249999        0.43931206  O
       atom_frac         0.37499999        0.31249999        0.43931206  O
       atom_frac         0.49999999        0.31249999        0.43931206  O
       atom_frac         0.62499999        0.31249999        0.43931206  O
       atom_frac         0.74999999        0.31249999        0.43931206  O
       atom_frac         0.87499999        0.31249999        0.43931206  O
       atom_frac         0.99999999        0.43749999        0.43931206  O
       atom_frac         0.12499999        0.43749999        0.43931206  O
       atom_frac         0.24999999        0.43749999        0.43931206  O
       atom_frac         0.37499999        0.43749999        0.43931206  O
       atom_frac         0.49999999        0.43749999        0.43931206  O
       atom_frac         0.62499999        0.43749999        0.43931206  O
       atom_frac         0.74999999        0.43749999        0.43931206  O
       atom_frac         0.87499999        0.43749999        0.43931206  O
       atom_frac         0.99999999        0.56249999        0.43931206  O
       atom_frac         0.12499999        0.56249999        0.43931206  O
       atom_frac         0.24999999        0.56249999        0.43931206  O
       atom_frac         0.37499999        0.56249999        0.43931206  O
       atom_frac         0.49999999        0.56249999        0.43931206  O
       atom_frac         0.62499999        0.56249999        0.43931206  O
       atom_frac         0.74999999        0.56249999        0.43931206  O
       atom_frac         0.87499999        0.56249999        0.43931206  O
       atom_frac         0.99999999        0.68749999        0.43931206  O
       atom_frac         0.12499999        0.68749999        0.43931206  O
       atom_frac         0.24999999        0.68749999        0.43931206  O
       atom_frac         0.37499999        0.68749999        0.43931206  O
       atom_frac         0.49999999        0.68749999        0.43931206  O
       atom_frac         0.62499999        0.68749999        0.43931206  O
       atom_frac         0.74999999        0.68749999        0.43931206  O
       atom_frac         0.87499999        0.68749999        0.43931206  O
       atom_frac         0.99999999        0.81249999        0.43931206  O
       atom_frac         0.12499999        0.81249999        0.43931206  O
       atom_frac         0.24999999        0.81249999        0.43931206  O
       atom_frac         0.37499999        0.81249999        0.43931206  O
       atom_frac         0.49999999        0.81249999        0.43931206  O
       atom_frac         0.62499999        0.81249999        0.43931206  O
       atom_frac         0.74999999        0.81249999        0.43931206  O
       atom_frac         0.87499999        0.81249999        0.43931206  O
       atom_frac         0.99999999        0.93749999        0.43931206  O
       atom_frac         0.12499999        0.93749999        0.43931206  O
       atom_frac         0.24999999        0.93749999        0.43931206  O
       atom_frac         0.37499999        0.93749999        0.43931206  O
       atom_frac         0.49999999        0.93749999        0.43931206  O
       atom_frac         0.62499999        0.93749999        0.43931206  O
       atom_frac         0.74999999        0.93749999        0.43931206  O
       atom_frac         0.87499999        0.93749999        0.43931206  O
       atom_frac         0.99999999        0.06249999        0.56431206  O
       atom_frac         0.12499999        0.06249999        0.56431206  O
       atom_frac         0.24999999        0.06249999        0.56431206  O
       atom_frac         0.37499999        0.06249999        0.56431206  O
       atom_frac         0.49999999        0.06249999        0.56431206  O
       atom_frac         0.62499999        0.06249999        0.56431206  O
       atom_frac         0.74999999        0.06249999        0.56431206  O
       atom_frac         0.87499999        0.06249999        0.56431206  O
       atom_frac         0.99999999        0.18749999        0.56431206  O
       atom_frac         0.12499999        0.18749999        0.56431206  O
       atom_frac         0.24999999        0.18749999        0.56431206  O
       atom_frac         0.37499999        0.18749999        0.56431206  O
       atom_frac         0.49999999        0.18749999        0.56431206  O
       atom_frac         0.62499999        0.18749999        0.56431206  O
       atom_frac         0.74999999        0.18749999        0.56431206  O
       atom_frac         0.87499999        0.18749999        0.56431206  O
       atom_frac         0.99999999        0.31249999        0.56431206  O
       atom_frac         0.12499999        0.31249999        0.56431206  O
       atom_frac         0.24999999        0.31249999        0.56431206  O
       atom_frac         0.37499999        0.31249999        0.56431206  O
       atom_frac         0.49999999        0.31249999        0.56431206  O
       atom_frac         0.62499999        0.31249999        0.56431206  O
       atom_frac         0.74999999        0.31249999        0.56431206  O
       atom_frac         0.87499999        0.31249999        0.56431206  O
       atom_frac         0.99999999        0.43749999        0.56431206  O
       atom_frac         0.12499999        0.43749999        0.56431206  O
       atom_frac         0.24999999        0.43749999        0.56431206  O
       atom_frac         0.37499999        0.43749999        0.56431206  O
       atom_frac         0.49999999        0.43749999        0.56431206  O
       atom_frac         0.62499999        0.43749999        0.56431206  O
       atom_frac         0.74999999        0.43749999        0.56431206  O
       atom_frac         0.87499999        0.43749999        0.56431206  O
       atom_frac         0.99999999        0.56249999        0.56431206  O
       atom_frac         0.12499999        0.56249999        0.56431206  O
       atom_frac         0.24999999        0.56249999        0.56431206  O
       atom_frac         0.37499999        0.56249999        0.56431206  O
       atom_frac         0.49999999        0.56249999        0.56431206  O
       atom_frac         0.62499999        0.56249999        0.56431206  O
       atom_frac         0.74999999        0.56249999        0.56431206  O
       atom_frac         0.87499999        0.56249999        0.56431206  O
       atom_frac         0.99999999        0.68749999        0.56431206  O
       atom_frac         0.12499999        0.68749999        0.56431206  O
       atom_frac         0.24999999        0.68749999        0.56431206  O
       atom_frac         0.37499999        0.68749999        0.56431206  O
       atom_frac         0.49999999        0.68749999        0.56431206  O
       atom_frac         0.62499999        0.68749999        0.56431206  O
       atom_frac         0.74999999        0.68749999        0.56431206  O
       atom_frac         0.87499999        0.68749999        0.56431206  O
       atom_frac         0.99999999        0.81249999        0.56431206  O
       atom_frac         0.12499999        0.81249999        0.56431206  O
       atom_frac         0.24999999        0.81249999        0.56431206  O
       atom_frac         0.37499999        0.81249999        0.56431206  O
       atom_frac         0.49999999        0.81249999        0.56431206  O
       atom_frac         0.62499999        0.81249999        0.56431206  O
       atom_frac         0.74999999        0.81249999        0.56431206  O
       atom_frac         0.87499999        0.81249999        0.56431206  O
       atom_frac         0.99999999        0.93749999        0.56431206  O
       atom_frac         0.12499999        0.93749999        0.56431206  O
       atom_frac         0.24999999        0.93749999        0.56431206  O
       atom_frac         0.37499999        0.93749999        0.56431206  O
       atom_frac         0.49999999        0.93749999        0.56431206  O
       atom_frac         0.62499999        0.93749999        0.56431206  O
       atom_frac         0.74999999        0.93749999        0.56431206  O
       atom_frac         0.87499999        0.93749999        0.56431206  O
       atom_frac         0.99999999        0.06249999        0.68931206  O
       atom_frac         0.12499999        0.06249999        0.68931206  O
       atom_frac         0.24999999        0.06249999        0.68931206  O
       atom_frac         0.37499999        0.06249999        0.68931206  O
       atom_frac         0.49999999        0.06249999        0.68931206  O
       atom_frac         0.62499999        0.06249999        0.68931206  O
       atom_frac         0.74999999        0.06249999        0.68931206  O
       atom_frac         0.87499999        0.06249999        0.68931206  O
       atom_frac         0.99999999        0.18749999        0.68931206  O
       atom_frac         0.12499999        0.18749999        0.68931206  O
       atom_frac         0.24999999        0.18749999        0.68931206  O
       atom_frac         0.37499999        0.18749999        0.68931206  O
       atom_frac         0.49999999        0.18749999        0.68931206  O
       atom_frac         0.62499999        0.18749999        0.68931206  O
       atom_frac         0.74999999        0.18749999        0.68931206  O
       atom_frac         0.87499999        0.18749999        0.68931206  O
       atom_frac         0.99999999        0.31249999        0.68931206  O
       atom_frac         0.12499999        0.31249999        0.68931206  O
       atom_frac         0.24999999        0.31249999        0.68931206  O
       atom_frac         0.37499999        0.31249999        0.68931206  O
       atom_frac         0.49999999        0.31249999        0.68931206  O
       atom_frac         0.62499999        0.31249999        0.68931206  O
       atom_frac         0.74999999        0.31249999        0.68931206  O
       atom_frac         0.87499999        0.31249999        0.68931206  O
       atom_frac         0.99999999        0.43749999        0.68931206  O
       atom_frac         0.12499999        0.43749999        0.68931206  O
       atom_frac         0.24999999        0.43749999        0.68931206  O
       atom_frac         0.37499999        0.43749999        0.68931206  O
       atom_frac         0.49999999        0.43749999        0.68931206  O
       atom_frac         0.62499999        0.43749999        0.68931206  O
       atom_frac         0.74999999        0.43749999        0.68931206  O
       atom_frac         0.87499999        0.43749999        0.68931206  O
       atom_frac         0.99999999        0.56249999        0.68931206  O
       atom_frac         0.12499999        0.56249999        0.68931206  O
       atom_frac         0.24999999        0.56249999        0.68931206  O
       atom_frac         0.37499999        0.56249999        0.68931206  O
       atom_frac         0.49999999        0.56249999        0.68931206  O
       atom_frac         0.62499999        0.56249999        0.68931206  O
       atom_frac         0.74999999        0.56249999        0.68931206  O
       atom_frac         0.87499999        0.56249999        0.68931206  O
       atom_frac         0.99999999        0.68749999        0.68931206  O
       atom_frac         0.12499999        0.68749999        0.68931206  O
       atom_frac         0.24999999        0.68749999        0.68931206  O
       atom_frac         0.37499999        0.68749999        0.68931206  O
       atom_frac         0.49999999        0.68749999        0.68931206  O
       atom_frac         0.62499999        0.68749999        0.68931206  O
       atom_frac         0.74999999        0.68749999        0.68931206  O
       atom_frac         0.87499999        0.68749999        0.68931206  O
       atom_frac         0.99999999        0.81249999        0.68931206  O
       atom_frac         0.12499999        0.81249999        0.68931206  O
       atom_frac         0.24999999        0.81249999        0.68931206  O
       atom_frac         0.37499999        0.81249999        0.68931206  O
       atom_frac         0.49999999        0.81249999        0.68931206  O
       atom_frac         0.62499999        0.81249999        0.68931206  O
       atom_frac         0.74999999        0.81249999        0.68931206  O
       atom_frac         0.87499999        0.81249999        0.68931206  O
       atom_frac         0.99999999        0.93749999        0.68931206  O
       atom_frac         0.12499999        0.93749999        0.68931206  O
       atom_frac         0.24999999        0.93749999        0.68931206  O
       atom_frac         0.37499999        0.93749999        0.68931206  O
       atom_frac         0.49999999        0.93749999        0.68931206  O
       atom_frac         0.62499999        0.93749999        0.68931206  O
       atom_frac         0.74999999        0.93749999        0.68931206  O
       atom_frac         0.87499999        0.93749999        0.68931206  O
       atom_frac         0.99999999        0.06249999        0.81431206  O
       atom_frac         0.12499999        0.06249999        0.81431206  O
       atom_frac         0.24999999        0.06249999        0.81431206  O
       atom_frac         0.37499999        0.06249999        0.81431206  O
       atom_frac         0.49999999        0.06249999        0.81431206  O
       atom_frac         0.62499999        0.06249999        0.81431206  O
       atom_frac         0.74999999        0.06249999        0.81431206  O
       atom_frac         0.87499999        0.06249999        0.81431206  O
       atom_frac         0.99999999        0.18749999        0.81431206  O
       atom_frac         0.12499999        0.18749999        0.81431206  O
       atom_frac         0.24999999        0.18749999        0.81431206  O
       atom_frac         0.37499999        0.18749999        0.81431206  O
       atom_frac         0.49999999        0.18749999        0.81431206  O
       atom_frac         0.62499999        0.18749999        0.81431206  O
       atom_frac         0.74999999        0.18749999        0.81431206  O
       atom_frac         0.87499999        0.18749999        0.81431206  O
       atom_frac         0.99999999        0.31249999        0.81431206  O
       atom_frac         0.12499999        0.31249999        0.81431206  O
       atom_frac         0.24999999        0.31249999        0.81431206  O
       atom_frac         0.37499999        0.31249999        0.81431206  O
       atom_frac         0.49999999        0.31249999        0.81431206  O
       atom_frac         0.62499999        0.31249999        0.81431206  O
       atom_frac         0.74999999        0.31249999        0.81431206  O
       atom_frac         0.87499999        0.31249999        0.81431206  O
       atom_frac         0.99999999        0.43749999        0.81431206  O
       atom_frac         0.12499999        0.43749999        0.81431206  O
       atom_frac         0.24999999        0.43749999        0.81431206  O
       atom_frac         0.37499999        0.43749999        0.81431206  O
       atom_frac         0.49999999        0.43749999        0.81431206  O
       atom_frac         0.62499999        0.43749999        0.81431206  O
       atom_frac         0.74999999        0.43749999        0.81431206  O
       atom_frac         0.87499999        0.43749999        0.81431206  O
       atom_frac         0.99999999        0.56249999        0.81431206  O
       atom_frac         0.12499999        0.56249999        0.81431206  O
       atom_frac         0.24999999        0.56249999        0.81431206  O
       atom_frac         0.37499999        0.56249999        0.81431206  O
       atom_frac         0.49999999        0.56249999        0.81431206  O
       atom_frac         0.62499999        0.56249999        0.81431206  O
       atom_frac         0.74999999        0.56249999        0.81431206  O
       atom_frac         0.87499999        0.56249999        0.81431206  O
       atom_frac         0.99999999        0.68749999        0.81431206  O
       atom_frac         0.12499999        0.68749999        0.81431206  O
       atom_frac         0.24999999        0.68749999        0.81431206  O
       atom_frac         0.37499999        0.68749999        0.81431206  O
       atom_frac         0.49999999        0.68749999        0.81431206  O
       atom_frac         0.62499999        0.68749999        0.81431206  O
       atom_frac         0.74999999        0.68749999        0.81431206  O
       atom_frac         0.87499999        0.68749999        0.81431206  O
       atom_frac         0.99999999        0.81249999        0.81431206  O
       atom_frac         0.12499999        0.81249999        0.81431206  O
       atom_frac         0.24999999        0.81249999        0.81431206  O
       atom_frac         0.37499999        0.81249999        0.81431206  O
       atom_frac         0.49999999        0.81249999        0.81431206  O
       atom_frac         0.62499999        0.81249999        0.81431206  O
       atom_frac         0.74999999        0.81249999        0.81431206  O
       atom_frac         0.87499999        0.81249999        0.81431206  O
       atom_frac         0.99999999        0.93749999        0.81431206  O
       atom_frac         0.12499999        0.93749999        0.81431206  O
       atom_frac         0.24999999        0.93749999        0.81431206  O
       atom_frac         0.37499999        0.93749999        0.81431206  O
       atom_frac         0.49999999        0.93749999        0.81431206  O
       atom_frac         0.62499999        0.93749999        0.81431206  O
       atom_frac         0.74999999        0.93749999        0.81431206  O
       atom_frac         0.87499999        0.93749999        0.81431206  O
       atom_frac         0.99999999        0.06249999        0.93931206  O
       atom_frac         0.12499999        0.06249999        0.93931206  O
       atom_frac         0.24999999        0.06249999        0.93931206  O
       atom_frac         0.37499999        0.06249999        0.93931206  O
       atom_frac         0.49999999        0.06249999        0.93931206  O
       atom_frac         0.62499999        0.06249999        0.93931206  O
       atom_frac         0.74999999        0.06249999        0.93931206  O
       atom_frac         0.87499999        0.06249999        0.93931206  O
       atom_frac         0.99999999        0.18749999        0.93931206  O
       atom_frac         0.12499999        0.18749999        0.93931206  O
       atom_frac         0.24999999        0.18749999        0.93931206  O
       atom_frac         0.37499999        0.18749999        0.93931206  O
       atom_frac         0.49999999        0.18749999        0.93931206  O
       atom_frac         0.62499999        0.18749999        0.93931206  O
       atom_frac         0.74999999        0.18749999        0.93931206  O
       atom_frac         0.87499999        0.18749999        0.93931206  O
       atom_frac         0.99999999        0.31249999        0.93931206  O
       atom_frac         0.12499999        0.31249999        0.93931206  O
       atom_frac         0.24999999        0.31249999        0.93931206  O
       atom_frac         0.37499999        0.31249999        0.93931206  O
       atom_frac         0.49999999        0.31249999        0.93931206  O
       atom_frac         0.62499999        0.31249999        0.93931206  O
       atom_frac         0.74999999        0.31249999        0.93931206  O
       atom_frac         0.87499999        0.31249999        0.93931206  O
       atom_frac         0.99999999        0.43749999        0.93931206  O
       atom_frac         0.12499999        0.43749999        0.93931206  O
       atom_frac         0.24999999        0.43749999        0.93931206  O
       atom_frac         0.37499999        0.43749999        0.93931206  O
       atom_frac         0.49999999        0.43749999        0.93931206  O
       atom_frac         0.62499999        0.43749999        0.93931206  O
       atom_frac         0.74999999        0.43749999        0.93931206  O
       atom_frac         0.87499999        0.43749999        0.93931206  O
       atom_frac         0.99999999        0.56249999        0.93931206  O
       atom_frac         0.12499999        0.56249999        0.93931206  O
       atom_frac         0.24999999        0.56249999        0.93931206  O
       atom_frac         0.37499999        0.56249999        0.93931206  O
       atom_frac         0.49999999        0.56249999        0.93931206  O
       atom_frac         0.62499999        0.56249999        0.93931206  O
       atom_frac         0.74999999        0.56249999        0.93931206  O
       atom_frac         0.87499999        0.56249999        0.93931206  O
       atom_frac         0.99999999        0.68749999        0.93931206  O
       atom_frac         0.12499999        0.68749999        0.93931206  O
       atom_frac         0.24999999        0.68749999        0.93931206  O
       atom_frac         0.37499999        0.68749999        0.93931206  O
       atom_frac         0.49999999        0.68749999        0.93931206  O
       atom_frac         0.62499999        0.68749999        0.93931206  O
       atom_frac         0.74999999        0.68749999        0.93931206  O
       atom_frac         0.87499999        0.68749999        0.93931206  O
       atom_frac         0.99999999        0.81249999        0.93931206  O
       atom_frac         0.12499999        0.81249999        0.93931206  O
       atom_frac         0.24999999        0.81249999        0.93931206  O
       atom_frac         0.37499999        0.81249999        0.93931206  O
       atom_frac         0.49999999        0.81249999        0.93931206  O
       atom_frac         0.62499999        0.81249999        0.93931206  O
       atom_frac         0.74999999        0.81249999        0.93931206  O
       atom_frac         0.87499999        0.81249999        0.93931206  O
       atom_frac         0.99999999        0.93749999        0.93931206  O
       atom_frac         0.12499999        0.93749999        0.93931206  O
       atom_frac         0.24999999        0.93749999        0.93931206  O
       atom_frac         0.37499999        0.93749999        0.93931206  O
       atom_frac         0.49999999        0.93749999        0.93931206  O
       atom_frac         0.62499999        0.93749999        0.93931206  O
       atom_frac         0.74999999        0.93749999        0.93931206  O
       atom_frac         0.87499999        0.93749999        0.93931206  O
       atom_frac         0.06250000        0.06250000        0.00271461  O
       atom_frac         0.18750000        0.06250000        0.00271461  O
       atom_frac         0.31250000        0.06250000        0.00271461  O
       atom_frac         0.43750000        0.06250000        0.00271461  O
       atom_frac         0.56250000        0.06250000        0.00271461  O
       atom_frac         0.68750000        0.06250000        0.00271461  O
       atom_frac         0.81250000        0.06250000        0.00271461  O
       atom_frac         0.93750000        0.06250000        0.00271461  O
       atom_frac         0.06250000        0.18750000        0.00271461  O
       atom_frac         0.18750000        0.18750000        0.00271461  O
       atom_frac         0.31250000        0.18750000        0.00271461  O
       atom_frac         0.43750000        0.18750000        0.00271461  O
       atom_frac         0.56250000        0.18750000        0.00271461  O
       atom_frac         0.68750000        0.18750000        0.00271461  O
       atom_frac         0.81250000        0.18750000        0.00271461  O
       atom_frac         0.93750000        0.18750000        0.00271461  O
       atom_frac         0.06250000        0.31250000        0.00271461  O
       atom_frac         0.18750000        0.31250000        0.00271461  O
       atom_frac         0.31250000        0.31250000        0.00271461  O
       atom_frac         0.43750000        0.31250000        0.00271461  O
       atom_frac         0.56250000        0.31250000        0.00271461  O
       atom_frac         0.68750000        0.31250000        0.00271461  O
       atom_frac         0.81250000        0.31250000        0.00271461  O
       atom_frac         0.93750000        0.31250000        0.00271461  O
       atom_frac         0.06250000        0.43750000        0.00271461  O
       atom_frac         0.18750000        0.43750000        0.00271461  O
       atom_frac         0.31250000        0.43750000        0.00271461  O
       atom_frac         0.43750000        0.43750000        0.00271461  O
       atom_frac         0.56250000        0.43750000        0.00271461  O
       atom_frac         0.68750000        0.43750000        0.00271461  O
       atom_frac         0.81250000        0.43750000        0.00271461  O
       atom_frac         0.93750000        0.43750000        0.00271461  O
       atom_frac         0.06250000        0.56250000        0.00271461  O
       atom_frac         0.18750000        0.56250000        0.00271461  O
       atom_frac         0.31250000        0.56250000        0.00271461  O
       atom_frac         0.43750000        0.56250000        0.00271461  O
       atom_frac         0.56250000        0.56250000        0.00271461  O
       atom_frac         0.68750000        0.56250000        0.00271461  O
       atom_frac         0.81250000        0.56250000        0.00271461  O
       atom_frac         0.93750000        0.56250000        0.00271461  O
       atom_frac         0.06250000        0.68750000        0.00271461  O
       atom_frac         0.18750000        0.68750000        0.00271461  O
       atom_frac         0.31250000        0.68750000        0.00271461  O
       atom_frac         0.43750000        0.68750000        0.00271461  O
       atom_frac         0.56250000        0.68750000        0.00271461  O
       atom_frac         0.68750000        0.68750000        0.00271461  O
       atom_frac         0.81250000        0.68750000        0.00271461  O
       atom_frac         0.93750000        0.68750000        0.00271461  O
       atom_frac         0.06250000        0.81250000        0.00271461  O
       atom_frac         0.18750000        0.81250000        0.00271461  O
       atom_frac         0.31250000        0.81250000        0.00271461  O
       atom_frac         0.43750000        0.81250000        0.00271461  O
       atom_frac         0.56250000        0.81250000        0.00271461  O
       atom_frac         0.68750000        0.81250000        0.00271461  O
       atom_frac         0.81250000        0.81250000        0.00271461  O
       atom_frac         0.93750000        0.81250000        0.00271461  O
       atom_frac         0.06250000        0.93750000        0.00271461  O
       atom_frac         0.18750000        0.93750000        0.00271461  O
       atom_frac         0.31250000        0.93750000        0.00271461  O
       atom_frac         0.43750000        0.93750000        0.00271461  O
       atom_frac         0.56250000        0.93750000        0.00271461  O
       atom_frac         0.68750000        0.93750000        0.00271461  O
       atom_frac         0.81250000        0.93750000        0.00271461  O
       atom_frac         0.93750000        0.93750000        0.00271461  O
       atom_frac         0.06250000        0.06250000        0.12771461  O
       atom_frac         0.18750000        0.06250000        0.12771461  O
       atom_frac         0.31250000        0.06250000        0.12771461  O
       atom_frac         0.43750000        0.06250000        0.12771461  O
       atom_frac         0.56250000        0.06250000        0.12771461  O
       atom_frac         0.68750000        0.06250000        0.12771461  O
       atom_frac         0.81250000        0.06250000        0.12771461  O
       atom_frac         0.93750000        0.06250000        0.12771461  O
       atom_frac         0.06250000        0.18750000        0.12771461  O
       atom_frac         0.18750000        0.18750000        0.12771461  O
       atom_frac         0.31250000        0.18750000        0.12771461  O
       atom_frac         0.43750000        0.18750000        0.12771461  O
       atom_frac         0.56250000        0.18750000        0.12771461  O
       atom_frac         0.68750000        0.18750000        0.12771461  O
       atom_frac         0.81250000        0.18750000        0.12771461  O
       atom_frac         0.93750000        0.18750000        0.12771461  O
       atom_frac         0.06250000        0.31250000        0.12771461  O
       atom_frac         0.18750000        0.31250000        0.12771461  O
       atom_frac         0.31250000        0.31250000        0.12771461  O
       atom_frac         0.43750000        0.31250000        0.12771461  O
       atom_frac         0.56250000        0.31250000        0.12771461  O
       atom_frac         0.68750000        0.31250000        0.12771461  O
       atom_frac         0.81250000        0.31250000        0.12771461  O
       atom_frac         0.93750000        0.31250000        0.12771461  O
       atom_frac         0.06250000        0.43750000        0.12771461  O
       atom_frac         0.18750000        0.43750000        0.12771461  O
       atom_frac         0.31250000        0.43750000        0.12771461  O
       atom_frac         0.43750000        0.43750000        0.12771461  O
       atom_frac         0.56250000        0.43750000        0.12771461  O
       atom_frac         0.68750000        0.43750000        0.12771461  O
       atom_frac         0.81250000        0.43750000        0.12771461  O
       atom_frac         0.93750000        0.43750000        0.12771461  O
       atom_frac         0.06250000        0.56250000        0.12771461  O
       atom_frac         0.18750000        0.56250000        0.12771461  O
       atom_frac         0.31250000        0.56250000        0.12771461  O
       atom_frac         0.43750000        0.56250000        0.12771461  O
       atom_frac         0.56250000        0.56250000        0.12771461  O
       atom_frac         0.68750000        0.56250000        0.12771461  O
       atom_frac         0.81250000        0.56250000        0.12771461  O
       atom_frac         0.93750000        0.56250000        0.12771461  O
       atom_frac         0.06250000        0.68750000        0.12771461  O
       atom_frac         0.18750000        0.68750000        0.12771461  O
       atom_frac         0.31250000        0.68750000        0.12771461  O
       atom_frac         0.43750000        0.68750000        0.12771461  O
       atom_frac         0.56250000        0.68750000        0.12771461  O
       atom_frac         0.68750000        0.68750000        0.12771461  O
       atom_frac         0.81250000        0.68750000        0.12771461  O
       atom_frac         0.93750000        0.68750000        0.12771461  O
       atom_frac         0.06250000        0.81250000        0.12771461  O
       atom_frac         0.18750000        0.81250000        0.12771461  O
       atom_frac         0.31250000        0.81250000        0.12771461  O
       atom_frac         0.43750000        0.81250000        0.12771461  O
       atom_frac         0.56250000        0.81250000        0.12771461  O
       atom_frac         0.68750000        0.81250000        0.12771461  O
       atom_frac         0.81250000        0.81250000        0.12771461  O
       atom_frac         0.93750000        0.81250000        0.12771461  O
       atom_frac         0.06250000        0.93750000        0.12771461  O
       atom_frac         0.18750000        0.93750000        0.12771461  O
       atom_frac         0.31250000        0.93750000        0.12771461  O
       atom_frac         0.43750000        0.93750000        0.12771461  O
       atom_frac         0.56250000        0.93750000        0.12771461  O
       atom_frac         0.68750000        0.93750000        0.12771461  O
       atom_frac         0.81250000        0.93750000        0.12771461  O
       atom_frac         0.93750000        0.93750000        0.12771461  O
       atom_frac         0.06250000        0.06250000        0.25271461  O
       atom_frac         0.18750000        0.06250000        0.25271461  O
       atom_frac         0.31250000        0.06250000        0.25271461  O
       atom_frac         0.43750000        0.06250000        0.25271461  O
       atom_frac         0.56250000        0.06250000        0.25271461  O
       atom_frac         0.68750000        0.06250000        0.25271461  O
       atom_frac         0.81250000        0.06250000        0.25271461  O
       atom_frac         0.93750000        0.06250000        0.25271461  O
       atom_frac         0.06250000        0.18750000        0.25271461  O
       atom_frac         0.18750000        0.18750000        0.25271461  O
       atom_frac         0.31250000        0.18750000        0.25271461  O
       atom_frac         0.43750000        0.18750000        0.25271461  O
       atom_frac         0.56250000        0.18750000        0.25271461  O
       atom_frac         0.68750000        0.18750000        0.25271461  O
       atom_frac         0.81250000        0.18750000        0.25271461  O
       atom_frac         0.93750000        0.18750000        0.25271461  O
       atom_frac         0.06250000        0.31250000        0.25271461  O
       atom_frac         0.18750000        0.31250000        0.25271461  O
       atom_frac         0.31250000        0.31250000        0.25271461  O
       atom_frac         0.43750000        0.31250000        0.25271461  O
       atom_frac         0.56250000        0.31250000        0.25271461  O
       atom_frac         0.68750000        0.31250000        0.25271461  O
       atom_frac         0.81250000        0.31250000        0.25271461  O
       atom_frac         0.93750000        0.31250000        0.25271461  O
       atom_frac         0.06250000        0.43750000        0.25271461  O
       atom_frac         0.18750000        0.43750000        0.25271461  O
       atom_frac         0.31250000        0.43750000        0.25271461  O
       atom_frac         0.43750000        0.43750000        0.25271461  O
       atom_frac         0.56250000        0.43750000        0.25271461  O
       atom_frac         0.68750000        0.43750000        0.25271461  O
       atom_frac         0.81250000        0.43750000        0.25271461  O
       atom_frac         0.93750000        0.43750000        0.25271461  O
       atom_frac         0.06250000        0.56250000        0.25271461  O
       atom_frac         0.18750000        0.56250000        0.25271461  O
       atom_frac         0.31250000        0.56250000        0.25271461  O
       atom_frac         0.43750000        0.56250000        0.25271461  O
       atom_frac         0.56250000        0.56250000        0.25271461  O
       atom_frac         0.68750000        0.56250000        0.25271461  O
       atom_frac         0.81250000        0.56250000        0.25271461  O
       atom_frac         0.93750000        0.56250000        0.25271461  O
       atom_frac         0.06250000        0.68750000        0.25271461  O
       atom_frac         0.18750000        0.68750000        0.25271461  O
       atom_frac         0.31250000        0.68750000        0.25271461  O
       atom_frac         0.43750000        0.68750000        0.25271461  O
       atom_frac         0.56250000        0.68750000        0.25271461  O
       atom_frac         0.68750000        0.68750000        0.25271461  O
       atom_frac         0.81250000        0.68750000        0.25271461  O
       atom_frac         0.93750000        0.68750000        0.25271461  O
       atom_frac         0.06250000        0.81250000        0.25271461  O
       atom_frac         0.18750000        0.81250000        0.25271461  O
       atom_frac         0.31250000        0.81250000        0.25271461  O
       atom_frac         0.43750000        0.81250000        0.25271461  O
       atom_frac         0.56250000        0.81250000        0.25271461  O
       atom_frac         0.68750000        0.81250000        0.25271461  O
       atom_frac         0.81250000        0.81250000        0.25271461  O
       atom_frac         0.93750000        0.81250000        0.25271461  O
       atom_frac         0.06250000        0.93750000        0.25271461  O
       atom_frac         0.18750000        0.93750000        0.25271461  O
       atom_frac         0.31250000        0.93750000        0.25271461  O
       atom_frac         0.43750000        0.93750000        0.25271461  O
       atom_frac         0.56250000        0.93750000        0.25271461  O
       atom_frac         0.68750000        0.93750000        0.25271461  O
       atom_frac         0.81250000        0.93750000        0.25271461  O
       atom_frac         0.93750000        0.93750000        0.25271461  O
       atom_frac         0.06250000        0.06250000        0.37771461  O
       atom_frac         0.18750000        0.06250000        0.37771461  O
       atom_frac         0.31250000        0.06250000        0.37771461  O
       atom_frac         0.43750000        0.06250000        0.37771461  O
       atom_frac         0.56250000        0.06250000        0.37771461  O
       atom_frac         0.68750000        0.06250000        0.37771461  O
       atom_frac         0.81250000        0.06250000        0.37771461  O
       atom_frac         0.93750000        0.06250000        0.37771461  O
       atom_frac         0.06250000        0.18750000        0.37771461  O
       atom_frac         0.18750000        0.18750000        0.37771461  O
       atom_frac         0.31250000        0.18750000        0.37771461  O
       atom_frac         0.43750000        0.18750000        0.37771461  O
       atom_frac         0.56250000        0.18750000        0.37771461  O
       atom_frac         0.68750000        0.18750000        0.37771461  O
       atom_frac         0.81250000        0.18750000        0.37771461  O
       atom_frac         0.93750000        0.18750000        0.37771461  O
       atom_frac         0.06250000        0.31250000        0.37771461  O
       atom_frac         0.18750000        0.31250000        0.37771461  O
       atom_frac         0.31250000        0.31250000        0.37771461  O
       atom_frac         0.43750000        0.31250000        0.37771461  O
       atom_frac         0.56250000        0.31250000        0.37771461  O
       atom_frac         0.68750000        0.31250000        0.37771461  O
       atom_frac         0.81250000        0.31250000        0.37771461  O
       atom_frac         0.93750000        0.31250000        0.37771461  O
       atom_frac         0.06250000        0.43750000        0.37771461  O
       atom_frac         0.18750000        0.43750000        0.37771461  O
       atom_frac         0.31250000        0.43750000        0.37771461  O
       atom_frac         0.43750000        0.43750000        0.37771461  O
       atom_frac         0.56250000        0.43750000        0.37771461  O
       atom_frac         0.68750000        0.43750000        0.37771461  O
       atom_frac         0.81250000        0.43750000        0.37771461  O
       atom_frac         0.93750000        0.43750000        0.37771461  O
       atom_frac         0.06250000        0.56250000        0.37771461  O
       atom_frac         0.18750000        0.56250000        0.37771461  O
       atom_frac         0.31250000        0.56250000        0.37771461  O
       atom_frac         0.43750000        0.56250000        0.37771461  O
       atom_frac         0.56250000        0.56250000        0.37771461  O
       atom_frac         0.68750000        0.56250000        0.37771461  O
       atom_frac         0.81250000        0.56250000        0.37771461  O
       atom_frac         0.93750000        0.56250000        0.37771461  O
       atom_frac         0.06250000        0.68750000        0.37771461  O
       atom_frac         0.18750000        0.68750000        0.37771461  O
       atom_frac         0.31250000        0.68750000        0.37771461  O
       atom_frac         0.43750000        0.68750000        0.37771461  O
       atom_frac         0.56250000        0.68750000        0.37771461  O
       atom_frac         0.68750000        0.68750000        0.37771461  O
       atom_frac         0.81250000        0.68750000        0.37771461  O
       atom_frac         0.93750000        0.68750000        0.37771461  O
       atom_frac         0.06250000        0.81250000        0.37771461  O
       atom_frac         0.18750000        0.81250000        0.37771461  O
       atom_frac         0.31250000        0.81250000        0.37771461  O
       atom_frac         0.43750000        0.81250000        0.37771461  O
       atom_frac         0.56250000        0.81250000        0.37771461  O
       atom_frac         0.68750000        0.81250000        0.37771461  O
       atom_frac         0.81250000        0.81250000        0.37771461  O
       atom_frac         0.93750000        0.81250000        0.37771461  O
       atom_frac         0.06250000        0.93750000        0.37771461  O
       atom_frac         0.18750000        0.93750000        0.37771461  O
       atom_frac         0.31250000        0.93750000        0.37771461  O
       atom_frac         0.43750000        0.93750000        0.37771461  O
       atom_frac         0.56250000        0.93750000        0.37771461  O
       atom_frac         0.68750000        0.93750000        0.37771461  O
       atom_frac         0.81250000        0.93750000        0.37771461  O
       atom_frac         0.93750000        0.93750000        0.37771461  O
       atom_frac         0.06250000        0.06250000        0.50271461  O
       atom_frac         0.18750000        0.06250000        0.50271461  O
       atom_frac         0.31250000        0.06250000        0.50271461  O
       atom_frac         0.43750000        0.06250000        0.50271461  O
       atom_frac         0.56250000        0.06250000        0.50271461  O
       atom_frac         0.68750000        0.06250000        0.50271461  O
       atom_frac         0.81250000        0.06250000        0.50271461  O
       atom_frac         0.93750000        0.06250000        0.50271461  O
       atom_frac         0.06250000        0.18750000        0.50271461  O
       atom_frac         0.18750000        0.18750000        0.50271461  O
       atom_frac         0.31250000        0.18750000        0.50271461  O
       atom_frac         0.43750000        0.18750000        0.50271461  O
       atom_frac         0.56250000        0.18750000        0.50271461  O
       atom_frac         0.68750000        0.18750000        0.50271461  O
       atom_frac         0.81250000        0.18750000        0.50271461  O
       atom_frac         0.93750000        0.18750000        0.50271461  O
       atom_frac         0.06250000        0.31250000        0.50271461  O
       atom_frac         0.18750000        0.31250000        0.50271461  O
       atom_frac         0.31250000        0.31250000        0.50271461  O
       atom_frac         0.43750000        0.31250000        0.50271461  O
       atom_frac         0.56250000        0.31250000        0.50271461  O
       atom_frac         0.68750000        0.31250000        0.50271461  O
       atom_frac         0.81250000        0.31250000        0.50271461  O
       atom_frac         0.93750000        0.31250000        0.50271461  O
       atom_frac         0.06250000        0.43750000        0.50271461  O
       atom_frac         0.18750000        0.43750000        0.50271461  O
       atom_frac         0.31250000        0.43750000        0.50271461  O
       atom_frac         0.43750000        0.43750000        0.50271461  O
       atom_frac         0.56250000        0.43750000        0.50271461  O
       atom_frac         0.68750000        0.43750000        0.50271461  O
       atom_frac         0.81250000        0.43750000        0.50271461  O
       atom_frac         0.93750000        0.43750000        0.50271461  O
       atom_frac         0.06250000        0.56250000        0.50271461  O
       atom_frac         0.18750000        0.56250000        0.50271461  O
       atom_frac         0.31250000        0.56250000        0.50271461  O
       atom_frac         0.43750000        0.56250000        0.50271461  O
       atom_frac         0.56250000        0.56250000        0.50271461  O
       atom_frac         0.68750000        0.56250000        0.50271461  O
       atom_frac         0.81250000        0.56250000        0.50271461  O
       atom_frac         0.93750000        0.56250000        0.50271461  O
       atom_frac         0.06250000        0.68750000        0.50271461  O
       atom_frac         0.18750000        0.68750000        0.50271461  O
       atom_frac         0.31250000        0.68750000        0.50271461  O
       atom_frac         0.43750000        0.68750000        0.50271461  O
       atom_frac         0.56250000        0.68750000        0.50271461  O
       atom_frac         0.68750000        0.68750000        0.50271461  O
       atom_frac         0.81250000        0.68750000        0.50271461  O
       atom_frac         0.93750000        0.68750000        0.50271461  O
       atom_frac         0.06250000        0.81250000        0.50271461  O
       atom_frac         0.18750000        0.81250000        0.50271461  O
       atom_frac         0.31250000        0.81250000        0.50271461  O
       atom_frac         0.43750000        0.81250000        0.50271461  O
       atom_frac         0.56250000        0.81250000        0.50271461  O
       atom_frac         0.68750000        0.81250000        0.50271461  O
       atom_frac         0.81250000        0.81250000        0.50271461  O
       atom_frac         0.93750000        0.81250000        0.50271461  O
       atom_frac         0.06250000        0.93750000        0.50271461  O
       atom_frac         0.18750000        0.93750000        0.50271461  O
       atom_frac         0.31250000        0.93750000        0.50271461  O
       atom_frac         0.43750000        0.93750000        0.50271461  O
       atom_frac         0.56250000        0.93750000        0.50271461  O
       atom_frac         0.68750000        0.93750000        0.50271461  O
       atom_frac         0.81250000        0.93750000        0.50271461  O
       atom_frac         0.93750000        0.93750000        0.50271461  O
       atom_frac         0.06250000        0.06250000        0.62771461  O
       atom_frac         0.18750000        0.06250000        0.62771461  O
       atom_frac         0.31250000        0.06250000        0.62771461  O
       atom_frac         0.43750000        0.06250000        0.62771461  O
       atom_frac         0.56250000        0.06250000        0.62771461  O
       atom_frac         0.68750000        0.06250000        0.62771461  O
       atom_frac         0.81250000        0.06250000        0.62771461  O
       atom_frac         0.93750000        0.06250000        0.62771461  O
       atom_frac         0.06250000        0.18750000        0.62771461  O
       atom_frac         0.18750000        0.18750000        0.62771461  O
       atom_frac         0.31250000        0.18750000        0.62771461  O
       atom_frac         0.43750000        0.18750000        0.62771461  O
       atom_frac         0.56250000        0.18750000        0.62771461  O
       atom_frac         0.68750000        0.18750000        0.62771461  O
       atom_frac         0.81250000        0.18750000        0.62771461  O
       atom_frac         0.93750000        0.18750000        0.62771461  O
       atom_frac         0.06250000        0.31250000        0.62771461  O
       atom_frac         0.18750000        0.31250000        0.62771461  O
       atom_frac         0.31250000        0.31250000        0.62771461  O
       atom_frac         0.43750000        0.31250000        0.62771461  O
       atom_frac         0.56250000        0.31250000        0.62771461  O
       atom_frac         0.68750000        0.31250000        0.62771461  O
       atom_frac         0.81250000        0.31250000        0.62771461  O
       atom_frac         0.93750000        0.31250000        0.62771461  O
       atom_frac         0.06250000        0.43750000        0.62771461  O
       atom_frac         0.18750000        0.43750000        0.62771461  O
       atom_frac         0.31250000        0.43750000        0.62771461  O
       atom_frac         0.43750000        0.43750000        0.62771461  O
       atom_frac         0.56250000        0.43750000        0.62771461  O
       atom_frac         0.68750000        0.43750000        0.62771461  O
       atom_frac         0.81250000        0.43750000        0.62771461  O
       atom_frac         0.93750000        0.43750000        0.62771461  O
       atom_frac         0.06250000        0.56250000        0.62771461  O
       atom_frac         0.18750000        0.56250000        0.62771461  O
       atom_frac         0.31250000        0.56250000        0.62771461  O
       atom_frac         0.43750000        0.56250000        0.62771461  O
       atom_frac         0.56250000        0.56250000        0.62771461  O
       atom_frac         0.68750000        0.56250000        0.62771461  O
       atom_frac         0.81250000        0.56250000        0.62771461  O
       atom_frac         0.93750000        0.56250000        0.62771461  O
       atom_frac         0.06250000        0.68750000        0.62771461  O
       atom_frac         0.18750000        0.68750000        0.62771461  O
       atom_frac         0.31250000        0.68750000        0.62771461  O
       atom_frac         0.43750000        0.68750000        0.62771461  O
       atom_frac         0.56250000        0.68750000        0.62771461  O
       atom_frac         0.68750000        0.68750000        0.62771461  O
       atom_frac         0.81250000        0.68750000        0.62771461  O
       atom_frac         0.93750000        0.68750000        0.62771461  O
       atom_frac         0.06250000        0.81250000        0.62771461  O
       atom_frac         0.18750000        0.81250000        0.62771461  O
       atom_frac         0.31250000        0.81250000        0.62771461  O
       atom_frac         0.43750000        0.81250000        0.62771461  O
       atom_frac         0.56250000        0.81250000        0.62771461  O
       atom_frac         0.68750000        0.81250000        0.62771461  O
       atom_frac         0.81250000        0.81250000        0.62771461  O
       atom_frac         0.93750000        0.81250000        0.62771461  O
       atom_frac         0.06250000        0.93750000        0.62771461  O
       atom_frac         0.18750000        0.93750000        0.62771461  O
       atom_frac         0.31250000        0.93750000        0.62771461  O
       atom_frac         0.43750000        0.93750000        0.62771461  O
       atom_frac         0.56250000        0.93750000        0.62771461  O
       atom_frac         0.68750000        0.93750000        0.62771461  O
       atom_frac         0.81250000        0.93750000        0.62771461  O
       atom_frac         0.93750000        0.93750000        0.62771461  O
       atom_frac         0.06250000        0.06250000        0.75271461  O
       atom_frac         0.18750000        0.06250000        0.75271461  O
       atom_frac         0.31250000        0.06250000        0.75271461  O
       atom_frac         0.43750000        0.06250000        0.75271461  O
       atom_frac         0.56250000        0.06250000        0.75271461  O
       atom_frac         0.68750000        0.06250000        0.75271461  O
       atom_frac         0.81250000        0.06250000        0.75271461  O
       atom_frac         0.93750000        0.06250000        0.75271461  O
       atom_frac         0.06250000        0.18750000        0.75271461  O
       atom_frac         0.18750000        0.18750000        0.75271461  O
       atom_frac         0.31250000        0.18750000        0.75271461  O
       atom_frac         0.43750000        0.18750000        0.75271461  O
       atom_frac         0.56250000        0.18750000        0.75271461  O
       atom_frac         0.68750000        0.18750000        0.75271461  O
       atom_frac         0.81250000        0.18750000        0.75271461  O
       atom_frac         0.93750000        0.18750000        0.75271461  O
       atom_frac         0.06250000        0.31250000        0.75271461  O
       atom_frac         0.18750000        0.31250000        0.75271461  O
       atom_frac         0.31250000        0.31250000        0.75271461  O
       atom_frac         0.43750000        0.31250000        0.75271461  O
       atom_frac         0.56250000        0.31250000        0.75271461  O
       atom_frac         0.68750000        0.31250000        0.75271461  O
       atom_frac         0.81250000        0.31250000        0.75271461  O
       atom_frac         0.93750000        0.31250000        0.75271461  O
       atom_frac         0.06250000        0.43750000        0.75271461  O
       atom_frac         0.18750000        0.43750000        0.75271461  O
       atom_frac         0.31250000        0.43750000        0.75271461  O
       atom_frac         0.43750000        0.43750000        0.75271461  O
       atom_frac         0.56250000        0.43750000        0.75271461  O
       atom_frac         0.68750000        0.43750000        0.75271461  O
       atom_frac         0.81250000        0.43750000        0.75271461  O
       atom_frac         0.93750000        0.43750000        0.75271461  O
       atom_frac         0.06250000        0.56250000        0.75271461  O
       atom_frac         0.18750000        0.56250000        0.75271461  O
       atom_frac         0.31250000        0.56250000        0.75271461  O
       atom_frac         0.43750000        0.56250000        0.75271461  O
       atom_frac         0.56250000        0.56250000        0.75271461  O
       atom_frac         0.68750000        0.56250000        0.75271461  O
       atom_frac         0.81250000        0.56250000        0.75271461  O
       atom_frac         0.93750000        0.56250000        0.75271461  O
       atom_frac         0.06250000        0.68750000        0.75271461  O
       atom_frac         0.18750000        0.68750000        0.75271461  O
       atom_frac         0.31250000        0.68750000        0.75271461  O
       atom_frac         0.43750000        0.68750000        0.75271461  O
       atom_frac         0.56250000        0.68750000        0.75271461  O
       atom_frac         0.68750000        0.68750000        0.75271461  O
       atom_frac         0.81250000        0.68750000        0.75271461  O
       atom_frac         0.93750000        0.68750000        0.75271461  O
       atom_frac         0.06250000        0.81250000        0.75271461  O
       atom_frac         0.18750000        0.81250000        0.75271461  O
       atom_frac         0.31250000        0.81250000        0.75271461  O
       atom_frac         0.43750000        0.81250000        0.75271461  O
       atom_frac         0.56250000        0.81250000        0.75271461  O
       atom_frac         0.68750000        0.81250000        0.75271461  O
       atom_frac         0.81250000        0.81250000        0.75271461  O
       atom_frac         0.93750000        0.81250000        0.75271461  O
       atom_frac         0.06250000        0.93750000        0.75271461  O
       atom_frac         0.18750000        0.93750000        0.75271461  O
       atom_frac         0.31250000        0.93750000        0.75271461  O
       atom_frac         0.43750000        0.93750000        0.75271461  O
       atom_frac         0.56250000        0.93750000        0.75271461  O
       atom_frac         0.68750000        0.93750000        0.75271461  O
       atom_frac         0.81250000        0.93750000        0.75271461  O
       atom_frac         0.93750000        0.93750000        0.75271461  O
       atom_frac         0.06250000        0.06250000        0.87771461  O
       atom_frac         0.18750000        0.06250000        0.87771461  O
       atom_frac         0.31250000        0.06250000        0.87771461  O
       atom_frac         0.43750000        0.06250000        0.87771461  O
       atom_frac         0.56250000        0.06250000        0.87771461  O
       atom_frac         0.68750000        0.06250000        0.87771461  O
       atom_frac         0.81250000        0.06250000        0.87771461  O
       atom_frac         0.93750000        0.06250000        0.87771461  O
       atom_frac         0.06250000        0.18750000        0.87771461  O
       atom_frac         0.18750000        0.18750000        0.87771461  O
       atom_frac         0.31250000        0.18750000        0.87771461  O
       atom_frac         0.43750000        0.18750000        0.87771461  O
       atom_frac         0.56250000        0.18750000        0.87771461  O
       atom_frac         0.68750000        0.18750000        0.87771461  O
       atom_frac         0.81250000        0.18750000        0.87771461  O
       atom_frac         0.93750000        0.18750000        0.87771461  O
       atom_frac         0.06250000        0.31250000        0.87771461  O
       atom_frac         0.18750000        0.31250000        0.87771461  O
       atom_frac         0.31250000        0.31250000        0.87771461  O
       atom_frac         0.43750000        0.31250000        0.87771461  O
       atom_frac         0.56250000        0.31250000        0.87771461  O
       atom_frac         0.68750000        0.31250000        0.87771461  O
       atom_frac         0.81250000        0.31250000        0.87771461  O
       atom_frac         0.93750000        0.31250000        0.87771461  O
       atom_frac         0.06250000        0.43750000        0.87771461  O
       atom_frac         0.18750000        0.43750000        0.87771461  O
       atom_frac         0.31250000        0.43750000        0.87771461  O
       atom_frac         0.43750000        0.43750000        0.87771461  O
       atom_frac         0.56250000        0.43750000        0.87771461  O
       atom_frac         0.68750000        0.43750000        0.87771461  O
       atom_frac         0.81250000        0.43750000        0.87771461  O
       atom_frac         0.93750000        0.43750000        0.87771461  O
       atom_frac         0.06250000        0.56250000        0.87771461  O
       atom_frac         0.18750000        0.56250000        0.87771461  O
       atom_frac         0.31250000        0.56250000        0.87771461  O
       atom_frac         0.43750000        0.56250000        0.87771461  O
       atom_frac         0.56250000        0.56250000        0.87771461  O
       atom_frac         0.68750000        0.56250000        0.87771461  O
       atom_frac         0.81250000        0.56250000        0.87771461  O
       atom_frac         0.93750000        0.56250000        0.87771461  O
       atom_frac         0.06250000        0.68750000        0.87771461  O
       atom_frac         0.18750000        0.68750000        0.87771461  O
       atom_frac         0.31250000        0.68750000        0.87771461  O
       atom_frac         0.43750000        0.68750000        0.87771461  O
       atom_frac         0.56250000        0.68750000        0.87771461  O
       atom_frac         0.68750000        0.68750000        0.87771461  O
       atom_frac         0.81250000        0.68750000        0.87771461  O
       atom_frac         0.93750000        0.68750000        0.87771461  O
       atom_frac         0.06250000        0.81250000        0.87771461  O
       atom_frac         0.18750000        0.81250000        0.87771461  O
       atom_frac         0.31250000        0.81250000        0.87771461  O
       atom_frac         0.43750000        0.81250000        0.87771461  O
       atom_frac         0.56250000        0.81250000        0.87771461  O
       atom_frac         0.68750000        0.81250000        0.87771461  O
       atom_frac         0.81250000        0.81250000        0.87771461  O
       atom_frac         0.93750000        0.81250000        0.87771461  O
       atom_frac         0.06250000        0.93750000        0.87771461  O
       atom_frac         0.18750000        0.93750000        0.87771461  O
       atom_frac         0.31250000        0.93750000        0.87771461  O
       atom_frac         0.43750000        0.93750000        0.87771461  O
       atom_frac         0.56250000        0.93750000        0.87771461  O
       atom_frac         0.68750000        0.93750000        0.87771461  O
       atom_frac         0.81250000        0.93750000        0.87771461  O
       atom_frac         0.93750000        0.93750000        0.87771461  O
       atom_frac         0.06249999        0.06249999        0.06089026  Ti
       atom_frac         0.18749999        0.06249999        0.06089026  Ti
       atom_frac         0.31249999        0.06249999        0.06089026  Ti
       atom_frac         0.43749999        0.06249999        0.06089026  Ti
       atom_frac         0.56249999        0.06249999        0.06089026  Ti
       atom_frac         0.68749999        0.06249999        0.06089026  Ti
       atom_frac         0.81249999        0.06249999        0.06089026  Ti
       atom_frac         0.93749999        0.06249999        0.06089026  Ti
       atom_frac         0.06249999        0.18749999        0.06089026  Ti
       atom_frac         0.18749999        0.18749999        0.06089026  Ti
       atom_frac         0.31249999        0.18749999        0.06089026  Ti
       atom_frac         0.43749999        0.18749999        0.06089026  Ti
       atom_frac         0.56249999        0.18749999        0.06089026  Ti
       atom_frac         0.68749999        0.18749999        0.06089026  Ti
       atom_frac         0.81249999        0.18749999        0.06089026  Ti
       atom_frac         0.93749999        0.18749999        0.06089026  Ti
       atom_frac         0.06249999        0.31249999        0.06089026  Ti
       atom_frac         0.18749999        0.31249999        0.06089026  Ti
       atom_frac         0.31249999        0.31249999        0.06089026  Ti
       atom_frac         0.43749999        0.31249999        0.06089026  Ti
       atom_frac         0.56249999        0.31249999        0.06089026  Ti
       atom_frac         0.68749999        0.31249999        0.06089026  Ti
       atom_frac         0.81249999        0.31249999        0.06089026  Ti
       atom_frac         0.93749999        0.31249999        0.06089026  Ti
       atom_frac         0.06249999        0.43749999        0.06089026  Ti
       atom_frac         0.18749999        0.43749999        0.06089026  Ti
       atom_frac         0.31249999        0.43749999        0.06089026  Ti
       atom_frac         0.43749999        0.43749999        0.06089026  Ti
       atom_frac         0.56249999        0.43749999        0.06089026  Ti
       atom_frac         0.68749999        0.43749999        0.06089026  Ti
       atom_frac         0.81249999        0.43749999        0.06089026  Ti
       atom_frac         0.93749999        0.43749999        0.06089026  Ti
       atom_frac         0.06249999        0.56249999        0.06089026  Ti
       atom_frac         0.18749999        0.56249999        0.06089026  Ti
       atom_frac         0.31249999        0.56249999        0.06089026  Ti
       atom_frac         0.43749999        0.56249999        0.06089026  Ti
       atom_frac         0.56249999        0.56249999        0.06089026  Ti
       atom_frac         0.68749999        0.56249999        0.06089026  Ti
       atom_frac         0.81249999        0.56249999        0.06089026  Ti
       atom_frac         0.93749999        0.56249999        0.06089026  Ti
       atom_frac         0.06249999        0.68749999        0.06089026  Ti
       atom_frac         0.18749999        0.68749999        0.06089026  Ti
       atom_frac         0.31249999        0.68749999        0.06089026  Ti
       atom_frac         0.43749999        0.68749999        0.06089026  Ti
       atom_frac         0.56249999        0.68749999        0.06089026  Ti
       atom_frac         0.68749999        0.68749999        0.06089026  Ti
       atom_frac         0.81249999        0.68749999        0.06089026  Ti
       atom_frac         0.93749999        0.68749999        0.06089026  Ti
       atom_frac         0.06249999        0.81249999        0.06089026  Ti
       atom_frac         0.18749999        0.81249999        0.06089026  Ti
       atom_frac         0.31249999        0.81249999        0.06089026  Ti
       atom_frac         0.43749999        0.81249999        0.06089026  Ti
       atom_frac         0.56249999        0.81249999        0.06089026  Ti
       atom_frac         0.68749999        0.81249999        0.06089026  Ti
       atom_frac         0.81249999        0.81249999        0.06089026  Ti
       atom_frac         0.93749999        0.81249999        0.06089026  Ti
       atom_frac         0.06249999        0.93749999        0.06089026  Ti
       atom_frac         0.18749999        0.93749999        0.06089026  Ti
       atom_frac         0.31249999        0.93749999        0.06089026  Ti
       atom_frac         0.43749999        0.93749999        0.06089026  Ti
       atom_frac         0.56249999        0.93749999        0.06089026  Ti
       atom_frac         0.68749999        0.93749999        0.06089026  Ti
       atom_frac         0.81249999        0.93749999        0.06089026  Ti
       atom_frac         0.93749999        0.93749999        0.06089026  Ti
       atom_frac         0.06249999        0.06249999        0.18589026  Ti
       atom_frac         0.18749999        0.06249999        0.18589026  Ti
       atom_frac         0.31249999        0.06249999        0.18589026  Ti
       atom_frac         0.43749999        0.06249999        0.18589026  Ti
       atom_frac         0.56249999        0.06249999        0.18589026  Ti
       atom_frac         0.68749999        0.06249999        0.18589026  Ti
       atom_frac         0.81249999        0.06249999        0.18589026  Ti
       atom_frac         0.93749999        0.06249999        0.18589026  Ti
       atom_frac         0.06249999        0.18749999        0.18589026  Ti
       atom_frac         0.18749999        0.18749999        0.18589026  Ti
       atom_frac         0.31249999        0.18749999        0.18589026  Ti
       atom_frac         0.43749999        0.18749999        0.18589026  Ti
       atom_frac         0.56249999        0.18749999        0.18589026  Ti
       atom_frac         0.68749999        0.18749999        0.18589026  Ti
       atom_frac         0.81249999        0.18749999        0.18589026  Ti
       atom_frac         0.93749999        0.18749999        0.18589026  Ti
       atom_frac         0.06249999        0.31249999        0.18589026  Ti
       atom_frac         0.18749999        0.31249999        0.18589026  Ti
       atom_frac         0.31249999        0.31249999        0.18589026  Ti
       atom_frac         0.43749999        0.31249999        0.18589026  Ti
       atom_frac         0.56249999        0.31249999        0.18589026  Ti
       atom_frac         0.68749999        0.31249999        0.18589026  Ti
       atom_frac         0.81249999        0.31249999        0.18589026  Ti
       atom_frac         0.93749999        0.31249999        0.18589026  Ti
       atom_frac         0.06249999        0.43749999        0.18589026  Ti
       atom_frac         0.18749999        0.43749999        0.18589026  Ti
       atom_frac         0.31249999        0.43749999        0.18589026  Ti
       atom_frac         0.43749999        0.43749999        0.18589026  Ti
       atom_frac         0.56249999        0.43749999        0.18589026  Ti
       atom_frac         0.68749999        0.43749999        0.18589026  Ti
       atom_frac         0.81249999        0.43749999        0.18589026  Ti
       atom_frac         0.93749999        0.43749999        0.18589026  Ti
       atom_frac         0.06249999        0.56249999        0.18589026  Ti
       atom_frac         0.18749999        0.56249999        0.18589026  Ti
       atom_frac         0.31249999        0.56249999        0.18589026  Ti
       atom_frac         0.43749999        0.56249999        0.18589026  Ti
       atom_frac         0.56249999        0.56249999        0.18589026  Ti
       atom_frac         0.68749999        0.56249999        0.18589026  Ti
       atom_frac         0.81249999        0.56249999        0.18589026  Ti
       atom_frac         0.93749999        0.56249999        0.18589026  Ti
       atom_frac         0.06249999        0.68749999        0.18589026  Ti
       atom_frac         0.18749999        0.68749999        0.18589026  Ti
       atom_frac         0.31249999        0.68749999        0.18589026  Ti
       atom_frac         0.43749999        0.68749999        0.18589026  Ti
       atom_frac         0.56249999        0.68749999        0.18589026  Ti
       atom_frac         0.68749999        0.68749999        0.18589026  Ti
       atom_frac         0.81249999        0.68749999        0.18589026  Ti
       atom_frac         0.93749999        0.68749999        0.18589026  Ti
       atom_frac         0.06249999        0.81249999        0.18589026  Ti
       atom_frac         0.18749999        0.81249999        0.18589026  Ti
       atom_frac         0.31249999        0.81249999        0.18589026  Ti
       atom_frac         0.43749999        0.81249999        0.18589026  Ti
       atom_frac         0.56249999        0.81249999        0.18589026  Ti
       atom_frac         0.68749999        0.81249999        0.18589026  Ti
       atom_frac         0.81249999        0.81249999        0.18589026  Ti
       atom_frac         0.93749999        0.81249999        0.18589026  Ti
       atom_frac         0.06249999        0.93749999        0.18589026  Ti
       atom_frac         0.18749999        0.93749999        0.18589026  Ti
       atom_frac         0.31249999        0.93749999        0.18589026  Ti
       atom_frac         0.43749999        0.93749999        0.18589026  Ti
       atom_frac         0.56249999        0.93749999        0.18589026  Ti
       atom_frac         0.68749999        0.93749999        0.18589026  Ti
       atom_frac         0.81249999        0.93749999        0.18589026  Ti
       atom_frac         0.93749999        0.93749999        0.18589026  Ti
       atom_frac         0.06249999        0.06249999        0.31089026  Ti
       atom_frac         0.18749999        0.06249999        0.31089026  Ti
       atom_frac         0.31249999        0.06249999        0.31089026  Ti
       atom_frac         0.43749999        0.06249999        0.31089026  Ti
       atom_frac         0.56249999        0.06249999        0.31089026  Ti
       atom_frac         0.68749999        0.06249999        0.31089026  Ti
       atom_frac         0.81249999        0.06249999        0.31089026  Ti
       atom_frac         0.93749999        0.06249999        0.31089026  Ti
       atom_frac         0.06249999        0.18749999        0.31089026  Ti
       atom_frac         0.18749999        0.18749999        0.31089026  Ti
       atom_frac         0.31249999        0.18749999        0.31089026  Ti
       atom_frac         0.43749999        0.18749999        0.31089026  Ti
       atom_frac         0.56249999        0.18749999        0.31089026  Ti
       atom_frac         0.68749999        0.18749999        0.31089026  Ti
       atom_frac         0.81249999        0.18749999        0.31089026  Ti
       atom_frac         0.93749999        0.18749999        0.31089026  Ti
       atom_frac         0.06249999        0.31249999        0.31089026  Ti
       atom_frac         0.18749999        0.31249999        0.31089026  Ti
       atom_frac         0.31249999        0.31249999        0.31089026  Ti
       atom_frac         0.43749999        0.31249999        0.31089026  Ti
       atom_frac         0.56249999        0.31249999        0.31089026  Ti
       atom_frac         0.68749999        0.31249999        0.31089026  Ti
       atom_frac         0.81249999        0.31249999        0.31089026  Ti
       atom_frac         0.93749999        0.31249999        0.31089026  Ti
       atom_frac         0.06249999        0.43749999        0.31089026  Ti
       atom_frac         0.18749999        0.43749999        0.31089026  Ti
       atom_frac         0.31249999        0.43749999        0.31089026  Ti
       atom_frac         0.43749999        0.43749999        0.31089026  Ti
       atom_frac         0.56249999        0.43749999        0.31089026  Ti
       atom_frac         0.68749999        0.43749999        0.31089026  Ti
       atom_frac         0.81249999        0.43749999        0.31089026  Ti
       atom_frac         0.93749999        0.43749999        0.31089026  Ti
       atom_frac         0.06249999        0.56249999        0.31089026  Ti
       atom_frac         0.18749999        0.56249999        0.31089026  Ti
       atom_frac         0.31249999        0.56249999        0.31089026  Ti
       atom_frac         0.43749999        0.56249999        0.31089026  Ti
       atom_frac         0.56249999        0.56249999        0.31089026  Ti
       atom_frac         0.68749999        0.56249999        0.31089026  Ti
       atom_frac         0.81249999        0.56249999        0.31089026  Ti
       atom_frac         0.93749999        0.56249999        0.31089026  Ti
       atom_frac         0.06249999        0.68749999        0.31089026  Ti
       atom_frac         0.18749999        0.68749999        0.31089026  Ti
       atom_frac         0.31249999        0.68749999        0.31089026  Ti
       atom_frac         0.43749999        0.68749999        0.31089026  Ti
       atom_frac         0.56249999        0.68749999        0.31089026  Ti
       atom_frac         0.68749999        0.68749999        0.31089026  Ti
       atom_frac         0.81249999        0.68749999        0.31089026  Ti
       atom_frac         0.93749999        0.68749999        0.31089026  Ti
       atom_frac         0.06249999        0.81249999        0.31089026  Ti
       atom_frac         0.18749999        0.81249999        0.31089026  Ti
       atom_frac         0.31249999        0.81249999        0.31089026  Ti
       atom_frac         0.43749999        0.81249999        0.31089026  Ti
       atom_frac         0.56249999        0.81249999        0.31089026  Ti
       atom_frac         0.68749999        0.81249999        0.31089026  Ti
       atom_frac         0.81249999        0.81249999        0.31089026  Ti
       atom_frac         0.93749999        0.81249999        0.31089026  Ti
       atom_frac         0.06249999        0.93749999        0.31089026  Ti
       atom_frac         0.18749999        0.93749999        0.31089026  Ti
       atom_frac         0.31249999        0.93749999        0.31089026  Ti
       atom_frac         0.43749999        0.93749999        0.31089026  Ti
       atom_frac         0.56249999        0.93749999        0.31089026  Ti
       atom_frac         0.68749999        0.93749999        0.31089026  Ti
       atom_frac         0.81249999        0.93749999        0.31089026  Ti
       atom_frac         0.93749999        0.93749999        0.31089026  Ti
       atom_frac         0.06249999        0.06249999        0.43589026  Ti
       atom_frac         0.18749999        0.06249999        0.43589026  Ti
       atom_frac         0.31249999        0.06249999        0.43589026  Ti
       atom_frac         0.43749999        0.06249999        0.43589026  Ti
       atom_frac         0.56249999        0.06249999        0.43589026  Ti
       atom_frac         0.68749999        0.06249999        0.43589026  Ti
       atom_frac         0.81249999        0.06249999        0.43589026  Ti
       atom_frac         0.93749999        0.06249999        0.43589026  Ti
       atom_frac         0.06249999        0.18749999        0.43589026  Ti
       atom_frac         0.18749999        0.18749999        0.43589026  Ti
       atom_frac         0.31249999        0.18749999        0.43589026  Ti
       atom_frac         0.43749999        0.18749999        0.43589026  Ti
       atom_frac         0.56249999        0.18749999        0.43589026  Ti
       atom_frac         0.68749999        0.18749999        0.43589026  Ti
       atom_frac         0.81249999        0.18749999        0.43589026  Ti
       atom_frac         0.93749999        0.18749999        0.43589026  Ti
       atom_frac         0.06249999        0.31249999        0.43589026  Ti
       atom_frac         0.18749999        0.31249999        0.43589026  Ti
       atom_frac         0.31249999        0.31249999        0.43589026  Ti
       atom_frac         0.43749999        0.31249999        0.43589026  Ti
       atom_frac         0.56249999        0.31249999        0.43589026  Ti
       atom_frac         0.68749999        0.31249999        0.43589026  Ti
       atom_frac         0.81249999        0.31249999        0.43589026  Ti
       atom_frac         0.93749999        0.31249999        0.43589026  Ti
       atom_frac         0.06249999        0.43749999        0.43589026  Ti
       atom_frac         0.18749999        0.43749999        0.43589026  Ti
       atom_frac         0.31249999        0.43749999        0.43589026  Ti
       atom_frac         0.43749999        0.43749999        0.43589026  Ti
       atom_frac         0.56249999        0.43749999        0.43589026  Ti
       atom_frac         0.68749999        0.43749999        0.43589026  Ti
       atom_frac         0.81249999        0.43749999        0.43589026  Ti
       atom_frac         0.93749999        0.43749999        0.43589026  Ti
       atom_frac         0.06249999        0.56249999        0.43589026  Ti
       atom_frac         0.18749999        0.56249999        0.43589026  Ti
       atom_frac         0.31249999        0.56249999        0.43589026  Ti
       atom_frac         0.43749999        0.56249999        0.43589026  Ti
       atom_frac         0.56249999        0.56249999        0.43589026  Ti
       atom_frac         0.68749999        0.56249999        0.43589026  Ti
       atom_frac         0.81249999        0.56249999        0.43589026  Ti
       atom_frac         0.93749999        0.56249999        0.43589026  Ti
       atom_frac         0.06249999        0.68749999        0.43589026  Ti
       atom_frac         0.18749999        0.68749999        0.43589026  Ti
       atom_frac         0.31249999        0.68749999        0.43589026  Ti
       atom_frac         0.43749999        0.68749999        0.43589026  Ti
       atom_frac         0.56249999        0.68749999        0.43589026  Ti
       atom_frac         0.68749999        0.68749999        0.43589026  Ti
       atom_frac         0.81249999        0.68749999        0.43589026  Ti
       atom_frac         0.93749999        0.68749999        0.43589026  Ti
       atom_frac         0.06249999        0.81249999        0.43589026  Ti
       atom_frac         0.18749999        0.81249999        0.43589026  Ti
       atom_frac         0.31249999        0.81249999        0.43589026  Ti
       atom_frac         0.43749999        0.81249999        0.43589026  Ti
       atom_frac         0.56249999        0.81249999        0.43589026  Ti
       atom_frac         0.68749999        0.81249999        0.43589026  Ti
       atom_frac         0.81249999        0.81249999        0.43589026  Ti
       atom_frac         0.93749999        0.81249999        0.43589026  Ti
       atom_frac         0.06249999        0.93749999        0.43589026  Ti
       atom_frac         0.18749999        0.93749999        0.43589026  Ti
       atom_frac         0.31249999        0.93749999        0.43589026  Ti
       atom_frac         0.43749999        0.93749999        0.43589026  Ti
       atom_frac         0.56249999        0.93749999        0.43589026  Ti
       atom_frac         0.68749999        0.93749999        0.43589026  Ti
       atom_frac         0.81249999        0.93749999        0.43589026  Ti
       atom_frac         0.93749999        0.93749999        0.43589026  Ti
       atom_frac         0.06249999        0.06249999        0.56089026  Ti
       atom_frac         0.18749999        0.06249999        0.56089026  Ti
       atom_frac         0.31249999        0.06249999        0.56089026  Ti
       atom_frac         0.43749999        0.06249999        0.56089026  Ti
       atom_frac         0.56249999        0.06249999        0.56089026  Ti
       atom_frac         0.68749999        0.06249999        0.56089026  Ti
       atom_frac         0.81249999        0.06249999        0.56089026  Ti
       atom_frac         0.93749999        0.06249999        0.56089026  Ti
       atom_frac         0.06249999        0.18749999        0.56089026  Ti
       atom_frac         0.18749999        0.18749999        0.56089026  Ti
       atom_frac         0.31249999        0.18749999        0.56089026  Ti
       atom_frac         0.43749999        0.18749999        0.56089026  Ti
       atom_frac         0.56249999        0.18749999        0.56089026  Ti
       atom_frac         0.68749999        0.18749999        0.56089026  Ti
       atom_frac         0.81249999        0.18749999        0.56089026  Ti
       atom_frac         0.93749999        0.18749999        0.56089026  Ti
       atom_frac         0.06249999        0.31249999        0.56089026  Ti
       atom_frac         0.18749999        0.31249999        0.56089026  Ti
       atom_frac         0.31249999        0.31249999        0.56089026  Ti
       atom_frac         0.43749999        0.31249999        0.56089026  Ti
       atom_frac         0.56249999        0.31249999        0.56089026  Ti
       atom_frac         0.68749999        0.31249999        0.56089026  Ti
       atom_frac         0.81249999        0.31249999        0.56089026  Ti
       atom_frac         0.93749999        0.31249999        0.56089026  Ti
       atom_frac         0.06249999        0.43749999        0.56089026  Ti
       atom_frac         0.18749999        0.43749999        0.56089026  Ti
       atom_frac         0.31249999        0.43749999        0.56089026  Ti
       atom_frac         0.43749999        0.43749999        0.56089026  Ti
       atom_frac         0.56249999        0.43749999        0.56089026  Ti
       atom_frac         0.68749999        0.43749999        0.56089026  Ti
       atom_frac         0.81249999        0.43749999        0.56089026  Ti
       atom_frac         0.93749999        0.43749999        0.56089026  Ti
       atom_frac         0.06249999        0.56249999        0.56089026  Ti
       atom_frac         0.18749999        0.56249999        0.56089026  Ti
       atom_frac         0.31249999        0.56249999        0.56089026  Ti
       atom_frac         0.43749999        0.56249999        0.56089026  Ti
       atom_frac         0.56249999        0.56249999        0.56089026  Ti
       atom_frac         0.68749999        0.56249999        0.56089026  Ti
       atom_frac         0.81249999        0.56249999        0.56089026  Ti
       atom_frac         0.93749999        0.56249999        0.56089026  Ti
       atom_frac         0.06249999        0.68749999        0.56089026  Ti
       atom_frac         0.18749999        0.68749999        0.56089026  Ti
       atom_frac         0.31249999        0.68749999        0.56089026  Ti
       atom_frac         0.43749999        0.68749999        0.56089026  Ti
       atom_frac         0.56249999        0.68749999        0.56089026  Ti
       atom_frac         0.68749999        0.68749999        0.56089026  Ti
       atom_frac         0.81249999        0.68749999        0.56089026  Ti
       atom_frac         0.93749999        0.68749999        0.56089026  Ti
       atom_frac         0.06249999        0.81249999        0.56089026  Ti
       atom_frac         0.18749999        0.81249999        0.56089026  Ti
       atom_frac         0.31249999        0.81249999        0.56089026  Ti
       atom_frac         0.43749999        0.81249999        0.56089026  Ti
       atom_frac         0.56249999        0.81249999        0.56089026  Ti
       atom_frac         0.68749999        0.81249999        0.56089026  Ti
       atom_frac         0.81249999        0.81249999        0.56089026  Ti
       atom_frac         0.93749999        0.81249999        0.56089026  Ti
       atom_frac         0.06249999        0.93749999        0.56089026  Ti
       atom_frac         0.18749999        0.93749999        0.56089026  Ti
       atom_frac         0.31249999        0.93749999        0.56089026  Ti
       atom_frac         0.43749999        0.93749999        0.56089026  Ti
       atom_frac         0.56249999        0.93749999        0.56089026  Ti
       atom_frac         0.68749999        0.93749999        0.56089026  Ti
       atom_frac         0.81249999        0.93749999        0.56089026  Ti
       atom_frac         0.93749999        0.93749999        0.56089026  Ti
       atom_frac         0.06249999        0.06249999        0.68589026  Ti
       atom_frac         0.18749999        0.06249999        0.68589026  Ti
       atom_frac         0.31249999        0.06249999        0.68589026  Ti
       atom_frac         0.43749999        0.06249999        0.68589026  Ti
       atom_frac         0.56249999        0.06249999        0.68589026  Ti
       atom_frac         0.68749999        0.06249999        0.68589026  Ti
       atom_frac         0.81249999        0.06249999        0.68589026  Ti
       atom_frac         0.93749999        0.06249999        0.68589026  Ti
       atom_frac         0.06249999        0.18749999        0.68589026  Ti
       atom_frac         0.18749999        0.18749999        0.68589026  Ti
       atom_frac         0.31249999        0.18749999        0.68589026  Ti
       atom_frac         0.43749999        0.18749999        0.68589026  Ti
       atom_frac         0.56249999        0.18749999        0.68589026  Ti
       atom_frac         0.68749999        0.18749999        0.68589026  Ti
       atom_frac         0.81249999        0.18749999        0.68589026  Ti
       atom_frac         0.93749999        0.18749999        0.68589026  Ti
       atom_frac         0.06249999        0.31249999        0.68589026  Ti
       atom_frac         0.18749999        0.31249999        0.68589026  Ti
       atom_frac         0.31249999        0.31249999        0.68589026  Ti
       atom_frac         0.43749999        0.31249999        0.68589026  Ti
       atom_frac         0.56249999        0.31249999        0.68589026  Ti
       atom_frac         0.68749999        0.31249999        0.68589026  Ti
       atom_frac         0.81249999        0.31249999        0.68589026  Ti
       atom_frac         0.93749999        0.31249999        0.68589026  Ti
       atom_frac         0.06249999        0.43749999        0.68589026  Ti
       atom_frac         0.18749999        0.43749999        0.68589026  Ti
       atom_frac         0.31249999        0.43749999        0.68589026  Ti
       atom_frac         0.43749999        0.43749999        0.68589026  Ti
       atom_frac         0.56249999        0.43749999        0.68589026  Ti
       atom_frac         0.68749999        0.43749999        0.68589026  Ti
       atom_frac         0.81249999        0.43749999        0.68589026  Ti
       atom_frac         0.93749999        0.43749999        0.68589026  Ti
       atom_frac         0.06249999        0.56249999        0.68589026  Ti
       atom_frac         0.18749999        0.56249999        0.68589026  Ti
       atom_frac         0.31249999        0.56249999        0.68589026  Ti
       atom_frac         0.43749999        0.56249999        0.68589026  Ti
       atom_frac         0.56249999        0.56249999        0.68589026  Ti
       atom_frac         0.68749999        0.56249999        0.68589026  Ti
       atom_frac         0.81249999        0.56249999        0.68589026  Ti
       atom_frac         0.93749999        0.56249999        0.68589026  Ti
       atom_frac         0.06249999        0.68749999        0.68589026  Ti
       atom_frac         0.18749999        0.68749999        0.68589026  Ti
       atom_frac         0.31249999        0.68749999        0.68589026  Ti
       atom_frac         0.43749999        0.68749999        0.68589026  Ti
       atom_frac         0.56249999        0.68749999        0.68589026  Ti
       atom_frac         0.68749999        0.68749999        0.68589026  Ti
       atom_frac         0.81249999        0.68749999        0.68589026  Ti
       atom_frac         0.93749999        0.68749999        0.68589026  Ti
       atom_frac         0.06249999        0.81249999        0.68589026  Ti
       atom_frac         0.18749999        0.81249999        0.68589026  Ti
       atom_frac         0.31249999        0.81249999        0.68589026  Ti
       atom_frac         0.43749999        0.81249999        0.68589026  Ti
       atom_frac         0.56249999        0.81249999        0.68589026  Ti
       atom_frac         0.68749999        0.81249999        0.68589026  Ti
       atom_frac         0.81249999        0.81249999        0.68589026  Ti
       atom_frac         0.93749999        0.81249999        0.68589026  Ti
       atom_frac         0.06249999        0.93749999        0.68589026  Ti
       atom_frac         0.18749999        0.93749999        0.68589026  Ti
       atom_frac         0.31249999        0.93749999        0.68589026  Ti
       atom_frac         0.43749999        0.93749999        0.68589026  Ti
       atom_frac         0.56249999        0.93749999        0.68589026  Ti
       atom_frac         0.68749999        0.93749999        0.68589026  Ti
       atom_frac         0.81249999        0.93749999        0.68589026  Ti
       atom_frac         0.93749999        0.93749999        0.68589026  Ti
       atom_frac         0.06249999        0.06249999        0.81089026  Ti
       atom_frac         0.18749999        0.06249999        0.81089026  Ti
       atom_frac         0.31249999        0.06249999        0.81089026  Ti
       atom_frac         0.43749999        0.06249999        0.81089026  Ti
       atom_frac         0.56249999        0.06249999        0.81089026  Ti
       atom_frac         0.68749999        0.06249999        0.81089026  Ti
       atom_frac         0.81249999        0.06249999        0.81089026  Ti
       atom_frac         0.93749999        0.06249999        0.81089026  Ti
       atom_frac         0.06249999        0.18749999        0.81089026  Ti
       atom_frac         0.18749999        0.18749999        0.81089026  Ti
       atom_frac         0.31249999        0.18749999        0.81089026  Ti
       atom_frac         0.43749999        0.18749999        0.81089026  Ti
       atom_frac         0.56249999        0.18749999        0.81089026  Ti
       atom_frac         0.68749999        0.18749999        0.81089026  Ti
       atom_frac         0.81249999        0.18749999        0.81089026  Ti
       atom_frac         0.93749999        0.18749999        0.81089026  Ti
       atom_frac         0.06249999        0.31249999        0.81089026  Ti
       atom_frac         0.18749999        0.31249999        0.81089026  Ti
       atom_frac         0.31249999        0.31249999        0.81089026  Ti
       atom_frac         0.43749999        0.31249999        0.81089026  Ti
       atom_frac         0.56249999        0.31249999        0.81089026  Ti
       atom_frac         0.68749999        0.31249999        0.81089026  Ti
       atom_frac         0.81249999        0.31249999        0.81089026  Ti
       atom_frac         0.93749999        0.31249999        0.81089026  Ti
       atom_frac         0.06249999        0.43749999        0.81089026  Ti
       atom_frac         0.18749999        0.43749999        0.81089026  Ti
       atom_frac         0.31249999        0.43749999        0.81089026  Ti
       atom_frac         0.43749999        0.43749999        0.81089026  Ti
       atom_frac         0.56249999        0.43749999        0.81089026  Ti
       atom_frac         0.68749999        0.43749999        0.81089026  Ti
       atom_frac         0.81249999        0.43749999        0.81089026  Ti
       atom_frac         0.93749999        0.43749999        0.81089026  Ti
       atom_frac         0.06249999        0.56249999        0.81089026  Ti
       atom_frac         0.18749999        0.56249999        0.81089026  Ti
       atom_frac         0.31249999        0.56249999        0.81089026  Ti
       atom_frac         0.43749999        0.56249999        0.81089026  Ti
       atom_frac         0.56249999        0.56249999        0.81089026  Ti
       atom_frac         0.68749999        0.56249999        0.81089026  Ti
       atom_frac         0.81249999        0.56249999        0.81089026  Ti
       atom_frac         0.93749999        0.56249999        0.81089026  Ti
       atom_frac         0.06249999        0.68749999        0.81089026  Ti
       atom_frac         0.18749999        0.68749999        0.81089026  Ti
       atom_frac         0.31249999        0.68749999        0.81089026  Ti
       atom_frac         0.43749999        0.68749999        0.81089026  Ti
       atom_frac         0.56249999        0.68749999        0.81089026  Ti
       atom_frac         0.68749999        0.68749999        0.81089026  Ti
       atom_frac         0.81249999        0.68749999        0.81089026  Ti
       atom_frac         0.93749999        0.68749999        0.81089026  Ti
       atom_frac         0.06249999        0.81249999        0.81089026  Ti
       atom_frac         0.18749999        0.81249999        0.81089026  Ti
       atom_frac         0.31249999        0.81249999        0.81089026  Ti
       atom_frac         0.43749999        0.81249999        0.81089026  Ti
       atom_frac         0.56249999        0.81249999        0.81089026  Ti
       atom_frac         0.68749999        0.81249999        0.81089026  Ti
       atom_frac         0.81249999        0.81249999        0.81089026  Ti
       atom_frac         0.93749999        0.81249999        0.81089026  Ti
       atom_frac         0.06249999        0.93749999        0.81089026  Ti
       atom_frac         0.18749999        0.93749999        0.81089026  Ti
       atom_frac         0.31249999        0.93749999        0.81089026  Ti
       atom_frac         0.43749999        0.93749999        0.81089026  Ti
       atom_frac         0.56249999        0.93749999        0.81089026  Ti
       atom_frac         0.68749999        0.93749999        0.81089026  Ti
       atom_frac         0.81249999        0.93749999        0.81089026  Ti
       atom_frac         0.93749999        0.93749999        0.81089026  Ti
       atom_frac         0.06249999        0.06249999        0.93589026  Ti
       atom_frac         0.18749999        0.06249999        0.93589026  Ti
       atom_frac         0.31249999        0.06249999        0.93589026  Ti
       atom_frac         0.43749999        0.06249999        0.93589026  Ti
       atom_frac         0.56249999        0.06249999        0.93589026  Ti
       atom_frac         0.68749999        0.06249999        0.93589026  Ti
       atom_frac         0.81249999        0.06249999        0.93589026  Ti
       atom_frac         0.93749999        0.06249999        0.93589026  Ti
       atom_frac         0.06249999        0.18749999        0.93589026  Ti
       atom_frac         0.18749999        0.18749999        0.93589026  Ti
       atom_frac         0.31249999        0.18749999        0.93589026  Ti
       atom_frac         0.43749999        0.18749999        0.93589026  Ti
       atom_frac         0.56249999        0.18749999        0.93589026  Ti
       atom_frac         0.68749999        0.18749999        0.93589026  Ti
       atom_frac         0.81249999        0.18749999        0.93589026  Ti
       atom_frac         0.93749999        0.18749999        0.93589026  Ti
       atom_frac         0.06249999        0.31249999        0.93589026  Ti
       atom_frac         0.18749999        0.31249999        0.93589026  Ti
       atom_frac         0.31249999        0.31249999        0.93589026  Ti
       atom_frac         0.43749999        0.31249999        0.93589026  Ti
       atom_frac         0.56249999        0.31249999        0.93589026  Ti
       atom_frac         0.68749999        0.31249999        0.93589026  Ti
       atom_frac         0.81249999        0.31249999        0.93589026  Ti
       atom_frac         0.93749999        0.31249999        0.93589026  Ti
       atom_frac         0.06249999        0.43749999        0.93589026  Ti
       atom_frac         0.18749999        0.43749999        0.93589026  Ti
       atom_frac         0.31249999        0.43749999        0.93589026  Ti
       atom_frac         0.43749999        0.43749999        0.93589026  Ti
       atom_frac         0.56249999        0.43749999        0.93589026  Ti
       atom_frac         0.68749999        0.43749999        0.93589026  Ti
       atom_frac         0.81249999        0.43749999        0.93589026  Ti
       atom_frac         0.93749999        0.43749999        0.93589026  Ti
       atom_frac         0.06249999        0.56249999        0.93589026  Ti
       atom_frac         0.18749999        0.56249999        0.93589026  Ti
       atom_frac         0.31249999        0.56249999        0.93589026  Ti
       atom_frac         0.43749999        0.56249999        0.93589026  Ti
       atom_frac         0.56249999        0.56249999        0.93589026  Ti
       atom_frac         0.68749999        0.56249999        0.93589026  Ti
       atom_frac         0.81249999        0.56249999        0.93589026  Ti
       atom_frac         0.93749999        0.56249999        0.93589026  Ti
       atom_frac         0.06249999        0.68749999        0.93589026  Ti
       atom_frac         0.18749999        0.68749999        0.93589026  Ti
       atom_frac         0.31249999        0.68749999        0.93589026  Ti
       atom_frac         0.43749999        0.68749999        0.93589026  Ti
       atom_frac         0.56249999        0.68749999        0.93589026  Ti
       atom_frac         0.68749999        0.68749999        0.93589026  Ti
       atom_frac         0.81249999        0.68749999        0.93589026  Ti
       atom_frac         0.93749999        0.68749999        0.93589026  Ti
       atom_frac         0.06249999        0.81249999        0.93589026  Ti
       atom_frac         0.18749999        0.81249999        0.93589026  Ti
       atom_frac         0.31249999        0.81249999        0.93589026  Ti
       atom_frac         0.43749999        0.81249999        0.93589026  Ti
       atom_frac         0.56249999        0.81249999        0.93589026  Ti
       atom_frac         0.68749999        0.81249999        0.93589026  Ti
       atom_frac         0.81249999        0.81249999        0.93589026  Ti
       atom_frac         0.93749999        0.81249999        0.93589026  Ti
       atom_frac         0.06249999        0.93749999        0.93589026  Ti
       atom_frac         0.18749999        0.93749999        0.93589026  Ti
       atom_frac         0.31249999        0.93749999        0.93589026  Ti
       atom_frac         0.43749999        0.93749999        0.93589026  Ti
       atom_frac         0.56249999        0.93749999        0.93589026  Ti
       atom_frac         0.68749999        0.93749999        0.93589026  Ti
       atom_frac         0.81249999        0.93749999        0.93589026  Ti
       atom_frac         0.93749999        0.93749999        0.93589026  Ti

  Slab Identifier: This seems to be a bulk system.
 
  Finished reading input file 'geometry.in'.
 

 
  Consistency checks for stacksize environment parameter are next.
 
  | Maximum stacksize for task 0: unlimited
  | Maximum stacksize for task 1: unlimited
  | Maximum stacksize for task 2: unlimited
  | Maximum stacksize for task 3: unlimited
  | Maximum stacksize for task 4: unlimited
  | Maximum stacksize for task 5: unlimited
  | Maximum stacksize for task 6: unlimited
  | Maximum stacksize for task 7: unlimited
  | Maximum stacksize for task 8: unlimited
  | Maximum stacksize for task 9: unlimited
  | Maximum stacksize for task 10: unlimited
  | Maximum stacksize for task 11: unlimited
  | Maximum stacksize for task 12: unlimited
  | Maximum stacksize for task 13: unlimited
  | Maximum stacksize for task 14: unlimited
  | Maximum stacksize for task 15: unlimited
  | Maximum stacksize for task 16: unlimited
  | Maximum stacksize for task 17: unlimited
  | Maximum stacksize for task 18: unlimited
  | Maximum stacksize for task 19: unlimited
  | Maximum stacksize for task 20: unlimited
  | Maximum stacksize for task 21: unlimited
  | Maximum stacksize for task 22: unlimited
  | Maximum stacksize for task 23: unlimited
  | Maximum stacksize for task 24: unlimited
  | Maximum stacksize for task 25: unlimited
  | Maximum stacksize for task 26: unlimited
  | Maximum stacksize for task 27: unlimited
  | Maximum stacksize for task 28: unlimited
  | Maximum stacksize for task 29: unlimited
  | Maximum stacksize for task 30: unlimited
  | Maximum stacksize for task 31: unlimited
  | Maximum stacksize for task 32: unlimited
  | Maximum stacksize for task 33: unlimited
  | Maximum stacksize for task 34: unlimited
  | Maximum stacksize for task 35: unlimited
  | Maximum stacksize for task 36: unlimited
  | Maximum stacksize for task 37: unlimited
  | Maximum stacksize for task 38: unlimited
  | Maximum stacksize for task 39: unlimited
  | Maximum stacksize for task 40: unlimited
  | Maximum stacksize for task 41: unlimited
  | Maximum stacksize for task 42: unlimited
  | Maximum stacksize for task 43: unlimited
  | Maximum stacksize for task 44: unlimited
  | Maximum stacksize for task 45: unlimited
  | Maximum stacksize for task 46: unlimited
  | Maximum stacksize for task 47: unlimited
  | Maximum stacksize for task 48: unlimited
  | Maximum stacksize for task 49: unlimited
  | Maximum stacksize for task 50: unlimited
  | Maximum stacksize for task 51: unlimited
  | Maximum stacksize for task 52: unlimited
  | Maximum stacksize for task 53: unlimited
  | Maximum stacksize for task 54: unlimited
  | Maximum stacksize for task 55: unlimited
  | Maximum stacksize for task 56: unlimited
  | Maximum stacksize for task 57: unlimited
  | Maximum stacksize for task 58: unlimited
  | Maximum stacksize for task 59: unlimited
  | Maximum stacksize for task 60: unlimited
  | Maximum stacksize for task 61: unlimited
  | Maximum stacksize for task 62: unlimited
  | Maximum stacksize for task 63: unlimited
  | Maximum stacksize for task 64: unlimited
  | Maximum stacksize for task 65: unlimited
  | Maximum stacksize for task 66: unlimited
  | Maximum stacksize for task 67: unlimited
  | Maximum stacksize for task 68: unlimited
  | Maximum stacksize for task 69: unlimited
  | Maximum stacksize for task 70: unlimited
  | Maximum stacksize for task 71: unlimited
  | Maximum stacksize for task 72: unlimited
  | Maximum stacksize for task 73: unlimited
  | Maximum stacksize for task 74: unlimited
  | Maximum stacksize for task 75: unlimited
  | Maximum stacksize for task 76: unlimited
  | Maximum stacksize for task 77: unlimited
  | Maximum stacksize for task 78: unlimited
  | Maximum stacksize for task 79: unlimited
  | Maximum stacksize for task 80: unlimited
  | Maximum stacksize for task 81: unlimited
  | Maximum stacksize for task 82: unlimited
  | Maximum stacksize for task 83: unlimited
  | Maximum stacksize for task 84: unlimited
  | Maximum stacksize for task 85: unlimited
  | Maximum stacksize for task 86: unlimited
  | Maximum stacksize for task 87: unlimited
  | Maximum stacksize for task 88: unlimited
  | Maximum stacksize for task 89: unlimited
  | Maximum stacksize for task 90: unlimited
  | Maximum stacksize for task 91: unlimited
  | Maximum stacksize for task 92: unlimited
  | Maximum stacksize for task 93: unlimited
  | Maximum stacksize for task 94: unlimited
  | Maximum stacksize for task 95: unlimited
  | Maximum stacksize for task 96: unlimited
  | Maximum stacksize for task 97: unlimited
  | Maximum stacksize for task 98: unlimited
  | Maximum stacksize for task 99: unlimited
  | Maximum stacksize for task 100: unlimited
  | Maximum stacksize for task 101: unlimited
  | Maximum stacksize for task 102: unlimited
  | Maximum stacksize for task 103: unlimited
  | Maximum stacksize for task 104: unlimited
  | Maximum stacksize for task 105: unlimited
  | Maximum stacksize for task 106: unlimited
  | Maximum stacksize for task 107: unlimited
  | Maximum stacksize for task 108: unlimited
  | Maximum stacksize for task 109: unlimited
  | Maximum stacksize for task 110: unlimited
  | Maximum stacksize for task 111: unlimited
  | Maximum stacksize for task 112: unlimited
  | Maximum stacksize for task 113: unlimited
  | Maximum stacksize for task 114: unlimited
  | Maximum stacksize for task 115: unlimited
  | Maximum stacksize for task 116: unlimited
  | Maximum stacksize for task 117: unlimited
  | Maximum stacksize for task 118: unlimited
  | Maximum stacksize for task 119: unlimited
  | Maximum stacksize for task 120: unlimited
  | Maximum stacksize for task 121: unlimited
  | Maximum stacksize for task 122: unlimited
  | Maximum stacksize for task 123: unlimited
  | Maximum stacksize for task 124: unlimited
  | Maximum stacksize for task 125: unlimited
  | Maximum stacksize for task 126: unlimited
  | Maximum stacksize for task 127: unlimited
  | Maximum stacksize for task 128: unlimited
  | Maximum stacksize for task 129: unlimited
  | Maximum stacksize for task 130: unlimited
  | Maximum stacksize for task 131: unlimited
  | Maximum stacksize for task 132: unlimited
  | Maximum stacksize for task 133: unlimited
  | Maximum stacksize for task 134: unlimited
  | Maximum stacksize for task 135: unlimited
  | Maximum stacksize for task 136: unlimited
  | Maximum stacksize for task 137: unlimited
  | Maximum stacksize for task 138: unlimited
  | Maximum stacksize for task 139: unlimited
  | Maximum stacksize for task 140: unlimited
  | Maximum stacksize for task 141: unlimited
  | Maximum stacksize for task 142: unlimited
  | Maximum stacksize for task 143: unlimited
  | Maximum stacksize for task 144: unlimited
  | Maximum stacksize for task 145: unlimited
  | Maximum stacksize for task 146: unlimited
  | Maximum stacksize for task 147: unlimited
  | Maximum stacksize for task 148: unlimited
  | Maximum stacksize for task 149: unlimited
  | Maximum stacksize for task 150: unlimited
  | Maximum stacksize for task 151: unlimited
  | Maximum stacksize for task 152: unlimited
  | Maximum stacksize for task 153: unlimited
  | Maximum stacksize for task 154: unlimited
  | Maximum stacksize for task 155: unlimited
  | Maximum stacksize for task 156: unlimited
  | Maximum stacksize for task 157: unlimited
  | Maximum stacksize for task 158: unlimited
  | Maximum stacksize for task 159: unlimited
  | Maximum stacksize for task 160: unlimited
  | Maximum stacksize for task 161: unlimited
  | Maximum stacksize for task 162: unlimited
  | Maximum stacksize for task 163: unlimited
  | Maximum stacksize for task 164: unlimited
  | Maximum stacksize for task 165: unlimited
  | Maximum stacksize for task 166: unlimited
  | Maximum stacksize for task 167: unlimited
  | Maximum stacksize for task 168: unlimited
  | Maximum stacksize for task 169: unlimited
  | Maximum stacksize for task 170: unlimited
  | Maximum stacksize for task 171: unlimited
  | Maximum stacksize for task 172: unlimited
  | Maximum stacksize for task 173: unlimited
  | Maximum stacksize for task 174: unlimited
  | Maximum stacksize for task 175: unlimited
  | Maximum stacksize for task 176: unlimited
  | Maximum stacksize for task 177: unlimited
  | Maximum stacksize for task 178: unlimited
  | Maximum stacksize for task 179: unlimited
  | Maximum stacksize for task 180: unlimited
  | Maximum stacksize for task 181: unlimited
  | Maximum stacksize for task 182: unlimited
  | Maximum stacksize for task 183: unlimited
  | Maximum stacksize for task 184: unlimited
  | Maximum stacksize for task 185: unlimited
  | Maximum stacksize for task 186: unlimited
  | Maximum stacksize for task 187: unlimited
  | Maximum stacksize for task 188: unlimited
  | Maximum stacksize for task 189: unlimited
  | Maximum stacksize for task 190: unlimited
  | Maximum stacksize for task 191: unlimited
  | Maximum stacksize for task 192: unlimited
  | Maximum stacksize for task 193: unlimited
  | Maximum stacksize for task 194: unlimited
  | Maximum stacksize for task 195: unlimited
  | Maximum stacksize for task 196: unlimited
  | Maximum stacksize for task 197: unlimited
  | Maximum stacksize for task 198: unlimited
  | Maximum stacksize for task 199: unlimited
  | Maximum stacksize for task 200: unlimited
  | Maximum stacksize for task 201: unlimited
  | Maximum stacksize for task 202: unlimited
  | Maximum stacksize for task 203: unlimited
  | Maximum stacksize for task 204: unlimited
  | Maximum stacksize for task 205: unlimited
  | Maximum stacksize for task 206: unlimited
  | Maximum stacksize for task 207: unlimited
  | Maximum stacksize for task 208: unlimited
  | Maximum stacksize for task 209: unlimited
  | Maximum stacksize for task 210: unlimited
  | Maximum stacksize for task 211: unlimited
  | Maximum stacksize for task 212: unlimited
  | Maximum stacksize for task 213: unlimited
  | Maximum stacksize for task 214: unlimited
  | Maximum stacksize for task 215: unlimited
  | Maximum stacksize for task 216: unlimited
  | Maximum stacksize for task 217: unlimited
  | Maximum stacksize for task 218: unlimited
  | Maximum stacksize for task 219: unlimited
  | Maximum stacksize for task 220: unlimited
  | Maximum stacksize for task 221: unlimited
  | Maximum stacksize for task 222: unlimited
  | Maximum stacksize for task 223: unlimited
  | Maximum stacksize for task 224: unlimited
  | Maximum stacksize for task 225: unlimited
  | Maximum stacksize for task 226: unlimited
  | Maximum stacksize for task 227: unlimited
  | Maximum stacksize for task 228: unlimited
  | Maximum stacksize for task 229: unlimited
  | Maximum stacksize for task 230: unlimited
  | Maximum stacksize for task 231: unlimited
  | Maximum stacksize for task 232: unlimited
  | Maximum stacksize for task 233: unlimited
  | Maximum stacksize for task 234: unlimited
  | Maximum stacksize for task 235: unlimited
  | Maximum stacksize for task 236: unlimited
  | Maximum stacksize for task 237: unlimited
  | Maximum stacksize for task 238: unlimited
  | Maximum stacksize for task 239: unlimited
  | Maximum stacksize for task 240: unlimited
  | Maximum stacksize for task 241: unlimited
  | Maximum stacksize for task 242: unlimited
  | Maximum stacksize for task 243: unlimited
  | Maximum stacksize for task 244: unlimited
  | Maximum stacksize for task 245: unlimited
  | Maximum stacksize for task 246: unlimited
  | Maximum stacksize for task 247: unlimited
  | Maximum stacksize for task 248: unlimited
  | Maximum stacksize for task 249: unlimited
  | Maximum stacksize for task 250: unlimited
  | Maximum stacksize for task 251: unlimited
  | Maximum stacksize for task 252: unlimited
  | Maximum stacksize for task 253: unlimited
  | Maximum stacksize for task 254: unlimited
  | Maximum stacksize for task 255: unlimited
  | Maximum stacksize for task 256: unlimited
  | Maximum stacksize for task 257: unlimited
  | Maximum stacksize for task 258: unlimited
  | Maximum stacksize for task 259: unlimited
  | Maximum stacksize for task 260: unlimited
  | Maximum stacksize for task 261: unlimited
  | Maximum stacksize for task 262: unlimited
  | Maximum stacksize for task 263: unlimited
  | Maximum stacksize for task 264: unlimited
  | Maximum stacksize for task 265: unlimited
  | Maximum stacksize for task 266: unlimited
  | Maximum stacksize for task 267: unlimited
  | Maximum stacksize for task 268: unlimited
  | Maximum stacksize for task 269: unlimited
  | Maximum stacksize for task 270: unlimited
  | Maximum stacksize for task 271: unlimited
  | Maximum stacksize for task 272: unlimited
  | Maximum stacksize for task 273: unlimited
  | Maximum stacksize for task 274: unlimited
  | Maximum stacksize for task 275: unlimited
  | Maximum stacksize for task 276: unlimited
  | Maximum stacksize for task 277: unlimited
  | Maximum stacksize for task 278: unlimited
  | Maximum stacksize for task 279: unlimited
  | Maximum stacksize for task 280: unlimited
  | Maximum stacksize for task 281: unlimited
  | Maximum stacksize for task 282: unlimited
  | Maximum stacksize for task 283: unlimited
  | Maximum stacksize for task 284: unlimited
  | Maximum stacksize for task 285: unlimited
  | Maximum stacksize for task 286: unlimited
  | Maximum stacksize for task 287: unlimited
  | Maximum stacksize for task 288: unlimited
  | Maximum stacksize for task 289: unlimited
  | Maximum stacksize for task 290: unlimited
  | Maximum stacksize for task 291: unlimited
  | Maximum stacksize for task 292: unlimited
  | Maximum stacksize for task 293: unlimited
  | Maximum stacksize for task 294: unlimited
  | Maximum stacksize for task 295: unlimited
  | Maximum stacksize for task 296: unlimited
  | Maximum stacksize for task 297: unlimited
  | Maximum stacksize for task 298: unlimited
  | Maximum stacksize for task 299: unlimited
  | Maximum stacksize for task 300: unlimited
  | Maximum stacksize for task 301: unlimited
  | Maximum stacksize for task 302: unlimited
  | Maximum stacksize for task 303: unlimited
  | Maximum stacksize for task 304: unlimited
  | Maximum stacksize for task 305: unlimited
  | Maximum stacksize for task 306: unlimited
  | Maximum stacksize for task 307: unlimited
  | Maximum stacksize for task 308: unlimited
  | Maximum stacksize for task 309: unlimited
  | Maximum stacksize for task 310: unlimited
  | Maximum stacksize for task 311: unlimited
  | Maximum stacksize for task 312: unlimited
  | Maximum stacksize for task 313: unlimited
  | Maximum stacksize for task 314: unlimited
  | Maximum stacksize for task 315: unlimited
  | Maximum stacksize for task 316: unlimited
  | Maximum stacksize for task 317: unlimited
  | Maximum stacksize for task 318: unlimited
  | Maximum stacksize for task 319: unlimited
  | Maximum stacksize for task 320: unlimited
  | Maximum stacksize for task 321: unlimited
  | Maximum stacksize for task 322: unlimited
  | Maximum stacksize for task 323: unlimited
  | Maximum stacksize for task 324: unlimited
  | Maximum stacksize for task 325: unlimited
  | Maximum stacksize for task 326: unlimited
  | Maximum stacksize for task 327: unlimited
  | Maximum stacksize for task 328: unlimited
  | Maximum stacksize for task 329: unlimited
  | Maximum stacksize for task 330: unlimited
  | Maximum stacksize for task 331: unlimited
  | Maximum stacksize for task 332: unlimited
  | Maximum stacksize for task 333: unlimited
  | Maximum stacksize for task 334: unlimited
  | Maximum stacksize for task 335: unlimited
  | Maximum stacksize for task 336: unlimited
  | Maximum stacksize for task 337: unlimited
  | Maximum stacksize for task 338: unlimited
  | Maximum stacksize for task 339: unlimited
  | Maximum stacksize for task 340: unlimited
  | Maximum stacksize for task 341: unlimited
  | Maximum stacksize for task 342: unlimited
  | Maximum stacksize for task 343: unlimited
  | Maximum stacksize for task 344: unlimited
  | Maximum stacksize for task 345: unlimited
  | Maximum stacksize for task 346: unlimited
  | Maximum stacksize for task 347: unlimited
  | Maximum stacksize for task 348: unlimited
  | Maximum stacksize for task 349: unlimited
  | Maximum stacksize for task 350: unlimited
  | Maximum stacksize for task 351: unlimited
  | Maximum stacksize for task 352: unlimited
  | Maximum stacksize for task 353: unlimited
  | Maximum stacksize for task 354: unlimited
  | Maximum stacksize for task 355: unlimited
  | Maximum stacksize for task 356: unlimited
  | Maximum stacksize for task 357: unlimited
  | Maximum stacksize for task 358: unlimited
  | Maximum stacksize for task 359: unlimited
  | Maximum stacksize for task 360: unlimited
  | Maximum stacksize for task 361: unlimited
  | Maximum stacksize for task 362: unlimited
  | Maximum stacksize for task 363: unlimited
  | Maximum stacksize for task 364: unlimited
  | Maximum stacksize for task 365: unlimited
  | Maximum stacksize for task 366: unlimited
  | Maximum stacksize for task 367: unlimited
  | Maximum stacksize for task 368: unlimited
  | Maximum stacksize for task 369: unlimited
  | Maximum stacksize for task 370: unlimited
  | Maximum stacksize for task 371: unlimited
  | Maximum stacksize for task 372: unlimited
  | Maximum stacksize for task 373: unlimited
  | Maximum stacksize for task 374: unlimited
  | Maximum stacksize for task 375: unlimited
  | Maximum stacksize for task 376: unlimited
  | Maximum stacksize for task 377: unlimited
  | Maximum stacksize for task 378: unlimited
  | Maximum stacksize for task 379: unlimited
  | Maximum stacksize for task 380: unlimited
  | Maximum stacksize for task 381: unlimited
  | Maximum stacksize for task 382: unlimited
  | Maximum stacksize for task 383: unlimited
  | Maximum stacksize for task 384: unlimited
  | Maximum stacksize for task 385: unlimited
  | Maximum stacksize for task 386: unlimited
  | Maximum stacksize for task 387: unlimited
  | Maximum stacksize for task 388: unlimited
  | Maximum stacksize for task 389: unlimited
  | Maximum stacksize for task 390: unlimited
  | Maximum stacksize for task 391: unlimited
  | Maximum stacksize for task 392: unlimited
  | Maximum stacksize for task 393: unlimited
  | Maximum stacksize for task 394: unlimited
  | Maximum stacksize for task 395: unlimited
  | Maximum stacksize for task 396: unlimited
  | Maximum stacksize for task 397: unlimited
  | Maximum stacksize for task 398: unlimited
  | Maximum stacksize for task 399: unlimited
  | Maximum stacksize for task 400: unlimited
  | Maximum stacksize for task 401: unlimited
  | Maximum stacksize for task 402: unlimited
  | Maximum stacksize for task 403: unlimited
  | Maximum stacksize for task 404: unlimited
  | Maximum stacksize for task 405: unlimited
  | Maximum stacksize for task 406: unlimited
  | Maximum stacksize for task 407: unlimited
  | Maximum stacksize for task 408: unlimited
  | Maximum stacksize for task 409: unlimited
  | Maximum stacksize for task 410: unlimited
  | Maximum stacksize for task 411: unlimited
  | Maximum stacksize for task 412: unlimited
  | Maximum stacksize for task 413: unlimited
  | Maximum stacksize for task 414: unlimited
  | Maximum stacksize for task 415: unlimited
  | Maximum stacksize for task 416: unlimited
  | Maximum stacksize for task 417: unlimited
  | Maximum stacksize for task 418: unlimited
  | Maximum stacksize for task 419: unlimited
  | Maximum stacksize for task 420: unlimited
  | Maximum stacksize for task 421: unlimited
  | Maximum stacksize for task 422: unlimited
  | Maximum stacksize for task 423: unlimited
  | Maximum stacksize for task 424: unlimited
  | Maximum stacksize for task 425: unlimited
  | Maximum stacksize for task 426: unlimited
  | Maximum stacksize for task 427: unlimited
  | Maximum stacksize for task 428: unlimited
  | Maximum stacksize for task 429: unlimited
  | Maximum stacksize for task 430: unlimited
  | Maximum stacksize for task 431: unlimited
  | Maximum stacksize for task 432: unlimited
  | Maximum stacksize for task 433: unlimited
  | Maximum stacksize for task 434: unlimited
  | Maximum stacksize for task 435: unlimited
  | Maximum stacksize for task 436: unlimited
  | Maximum stacksize for task 437: unlimited
  | Maximum stacksize for task 438: unlimited
  | Maximum stacksize for task 439: unlimited
  | Maximum stacksize for task 440: unlimited
  | Maximum stacksize for task 441: unlimited
  | Maximum stacksize for task 442: unlimited
  | Maximum stacksize for task 443: unlimited
  | Maximum stacksize for task 444: unlimited
  | Maximum stacksize for task 445: unlimited
  | Maximum stacksize for task 446: unlimited
  | Maximum stacksize for task 447: unlimited
  | Maximum stacksize for task 448: unlimited
  | Maximum stacksize for task 449: unlimited
  | Maximum stacksize for task 450: unlimited
  | Maximum stacksize for task 451: unlimited
  | Maximum stacksize for task 452: unlimited
  | Maximum stacksize for task 453: unlimited
  | Maximum stacksize for task 454: unlimited
  | Maximum stacksize for task 455: unlimited
  | Maximum stacksize for task 456: unlimited
  | Maximum stacksize for task 457: unlimited
  | Maximum stacksize for task 458: unlimited
  | Maximum stacksize for task 459: unlimited
  | Maximum stacksize for task 460: unlimited
  | Maximum stacksize for task 461: unlimited
  | Maximum stacksize for task 462: unlimited
  | Maximum stacksize for task 463: unlimited
  | Maximum stacksize for task 464: unlimited
  | Maximum stacksize for task 465: unlimited
  | Maximum stacksize for task 466: unlimited
  | Maximum stacksize for task 467: unlimited
  | Maximum stacksize for task 468: unlimited
  | Maximum stacksize for task 469: unlimited
  | Maximum stacksize for task 470: unlimited
  | Maximum stacksize for task 471: unlimited
  | Maximum stacksize for task 472: unlimited
  | Maximum stacksize for task 473: unlimited
  | Maximum stacksize for task 474: unlimited
  | Maximum stacksize for task 475: unlimited
  | Maximum stacksize for task 476: unlimited
  | Maximum stacksize for task 477: unlimited
  | Maximum stacksize for task 478: unlimited
  | Maximum stacksize for task 479: unlimited
  | Maximum stacksize for task 480: unlimited
  | Maximum stacksize for task 481: unlimited
  | Maximum stacksize for task 482: unlimited
  | Maximum stacksize for task 483: unlimited
  | Maximum stacksize for task 484: unlimited
  | Maximum stacksize for task 485: unlimited
  | Maximum stacksize for task 486: unlimited
  | Maximum stacksize for task 487: unlimited
  | Maximum stacksize for task 488: unlimited
  | Maximum stacksize for task 489: unlimited
  | Maximum stacksize for task 490: unlimited
  | Maximum stacksize for task 491: unlimited
  | Maximum stacksize for task 492: unlimited
  | Maximum stacksize for task 493: unlimited
  | Maximum stacksize for task 494: unlimited
  | Maximum stacksize for task 495: unlimited
  | Maximum stacksize for task 496: unlimited
  | Maximum stacksize for task 497: unlimited
  | Maximum stacksize for task 498: unlimited
  | Maximum stacksize for task 499: unlimited
  | Maximum stacksize for task 500: unlimited
  | Maximum stacksize for task 501: unlimited
  | Maximum stacksize for task 502: unlimited
  | Maximum stacksize for task 503: unlimited
  | Maximum stacksize for task 504: unlimited
  | Maximum stacksize for task 505: unlimited
  | Maximum stacksize for task 506: unlimited
  | Maximum stacksize for task 507: unlimited
  | Maximum stacksize for task 508: unlimited
  | Maximum stacksize for task 509: unlimited
  | Maximum stacksize for task 510: unlimited
  | Maximum stacksize for task 511: unlimited
  | Maximum stacksize for task 512: unlimited
  | Maximum stacksize for task 513: unlimited
  | Maximum stacksize for task 514: unlimited
  | Maximum stacksize for task 515: unlimited
  | Maximum stacksize for task 516: unlimited
  | Maximum stacksize for task 517: unlimited
  | Maximum stacksize for task 518: unlimited
  | Maximum stacksize for task 519: unlimited
  | Maximum stacksize for task 520: unlimited
  | Maximum stacksize for task 521: unlimited
  | Maximum stacksize for task 522: unlimited
  | Maximum stacksize for task 523: unlimited
  | Maximum stacksize for task 524: unlimited
  | Maximum stacksize for task 525: unlimited
  | Maximum stacksize for task 526: unlimited
  | Maximum stacksize for task 527: unlimited
  | Maximum stacksize for task 528: unlimited
  | Maximum stacksize for task 529: unlimited
  | Maximum stacksize for task 530: unlimited
  | Maximum stacksize for task 531: unlimited
  | Maximum stacksize for task 532: unlimited
  | Maximum stacksize for task 533: unlimited
  | Maximum stacksize for task 534: unlimited
  | Maximum stacksize for task 535: unlimited
  | Maximum stacksize for task 536: unlimited
  | Maximum stacksize for task 537: unlimited
  | Maximum stacksize for task 538: unlimited
  | Maximum stacksize for task 539: unlimited
  | Maximum stacksize for task 540: unlimited
  | Maximum stacksize for task 541: unlimited
  | Maximum stacksize for task 542: unlimited
  | Maximum stacksize for task 543: unlimited
  | Maximum stacksize for task 544: unlimited
  | Maximum stacksize for task 545: unlimited
  | Maximum stacksize for task 546: unlimited
  | Maximum stacksize for task 547: unlimited
  | Maximum stacksize for task 548: unlimited
  | Maximum stacksize for task 549: unlimited
  | Maximum stacksize for task 550: unlimited
  | Maximum stacksize for task 551: unlimited
  | Maximum stacksize for task 552: unlimited
  | Maximum stacksize for task 553: unlimited
  | Maximum stacksize for task 554: unlimited
  | Maximum stacksize for task 555: unlimited
  | Maximum stacksize for task 556: unlimited
  | Maximum stacksize for task 557: unlimited
  | Maximum stacksize for task 558: unlimited
  | Maximum stacksize for task 559: unlimited
  | Maximum stacksize for task 560: unlimited
  | Maximum stacksize for task 561: unlimited
  | Maximum stacksize for task 562: unlimited
  | Maximum stacksize for task 563: unlimited
  | Maximum stacksize for task 564: unlimited
  | Maximum stacksize for task 565: unlimited
  | Maximum stacksize for task 566: unlimited
  | Maximum stacksize for task 567: unlimited
  | Maximum stacksize for task 568: unlimited
  | Maximum stacksize for task 569: unlimited
  | Maximum stacksize for task 570: unlimited
  | Maximum stacksize for task 571: unlimited
  | Maximum stacksize for task 572: unlimited
  | Maximum stacksize for task 573: unlimited
  | Maximum stacksize for task 574: unlimited
  | Maximum stacksize for task 575: unlimited
  | Maximum stacksize for task 576: unlimited
  | Maximum stacksize for task 577: unlimited
  | Maximum stacksize for task 578: unlimited
  | Maximum stacksize for task 579: unlimited
  | Maximum stacksize for task 580: unlimited
  | Maximum stacksize for task 581: unlimited
  | Maximum stacksize for task 582: unlimited
  | Maximum stacksize for task 583: unlimited
  | Maximum stacksize for task 584: unlimited
  | Maximum stacksize for task 585: unlimited
  | Maximum stacksize for task 586: unlimited
  | Maximum stacksize for task 587: unlimited
  | Maximum stacksize for task 588: unlimited
  | Maximum stacksize for task 589: unlimited
  | Maximum stacksize for task 590: unlimited
  | Maximum stacksize for task 591: unlimited
  | Maximum stacksize for task 592: unlimited
  | Maximum stacksize for task 593: unlimited
  | Maximum stacksize for task 594: unlimited
  | Maximum stacksize for task 595: unlimited
  | Maximum stacksize for task 596: unlimited
  | Maximum stacksize for task 597: unlimited
  | Maximum stacksize for task 598: unlimited
  | Maximum stacksize for task 599: unlimited
  | Maximum stacksize for task 600: unlimited
  | Maximum stacksize for task 601: unlimited
  | Maximum stacksize for task 602: unlimited
  | Maximum stacksize for task 603: unlimited
  | Maximum stacksize for task 604: unlimited
  | Maximum stacksize for task 605: unlimited
  | Maximum stacksize for task 606: unlimited
  | Maximum stacksize for task 607: unlimited
  | Maximum stacksize for task 608: unlimited
  | Maximum stacksize for task 609: unlimited
  | Maximum stacksize for task 610: unlimited
  | Maximum stacksize for task 611: unlimited
  | Maximum stacksize for task 612: unlimited
  | Maximum stacksize for task 613: unlimited
  | Maximum stacksize for task 614: unlimited
  | Maximum stacksize for task 615: unlimited
  | Maximum stacksize for task 616: unlimited
  | Maximum stacksize for task 617: unlimited
  | Maximum stacksize for task 618: unlimited
  | Maximum stacksize for task 619: unlimited
  | Maximum stacksize for task 620: unlimited
  | Maximum stacksize for task 621: unlimited
  | Maximum stacksize for task 622: unlimited
  | Maximum stacksize for task 623: unlimited
  | Maximum stacksize for task 624: unlimited
  | Maximum stacksize for task 625: unlimited
  | Maximum stacksize for task 626: unlimited
  | Maximum stacksize for task 627: unlimited
  | Maximum stacksize for task 628: unlimited
  | Maximum stacksize for task 629: unlimited
  | Maximum stacksize for task 630: unlimited
  | Maximum stacksize for task 631: unlimited
  | Maximum stacksize for task 632: unlimited
  | Maximum stacksize for task 633: unlimited
  | Maximum stacksize for task 634: unlimited
  | Maximum stacksize for task 635: unlimited
  | Maximum stacksize for task 636: unlimited
  | Maximum stacksize for task 637: unlimited
  | Maximum stacksize for task 638: unlimited
  | Maximum stacksize for task 639: unlimited
  | Maximum stacksize for task 640: unlimited
  | Maximum stacksize for task 641: unlimited
  | Maximum stacksize for task 642: unlimited
  | Maximum stacksize for task 643: unlimited
  | Maximum stacksize for task 644: unlimited
  | Maximum stacksize for task 645: unlimited
  | Maximum stacksize for task 646: unlimited
  | Maximum stacksize for task 647: unlimited
  | Maximum stacksize for task 648: unlimited
  | Maximum stacksize for task 649: unlimited
  | Maximum stacksize for task 650: unlimited
  | Maximum stacksize for task 651: unlimited
  | Maximum stacksize for task 652: unlimited
  | Maximum stacksize for task 653: unlimited
  | Maximum stacksize for task 654: unlimited
  | Maximum stacksize for task 655: unlimited
  | Maximum stacksize for task 656: unlimited
  | Maximum stacksize for task 657: unlimited
  | Maximum stacksize for task 658: unlimited
  | Maximum stacksize for task 659: unlimited
  | Maximum stacksize for task 660: unlimited
  | Maximum stacksize for task 661: unlimited
  | Maximum stacksize for task 662: unlimited
  | Maximum stacksize for task 663: unlimited
  | Maximum stacksize for task 664: unlimited
  | Maximum stacksize for task 665: unlimited
  | Maximum stacksize for task 666: unlimited
  | Maximum stacksize for task 667: unlimited
  | Maximum stacksize for task 668: unlimited
  | Maximum stacksize for task 669: unlimited
  | Maximum stacksize for task 670: unlimited
  | Maximum stacksize for task 671: unlimited
  | Maximum stacksize for task 672: unlimited
  | Maximum stacksize for task 673: unlimited
  | Maximum stacksize for task 674: unlimited
  | Maximum stacksize for task 675: unlimited
  | Maximum stacksize for task 676: unlimited
  | Maximum stacksize for task 677: unlimited
  | Maximum stacksize for task 678: unlimited
  | Maximum stacksize for task 679: unlimited
  | Maximum stacksize for task 680: unlimited
  | Maximum stacksize for task 681: unlimited
  | Maximum stacksize for task 682: unlimited
  | Maximum stacksize for task 683: unlimited
  | Maximum stacksize for task 684: unlimited
  | Maximum stacksize for task 685: unlimited
  | Maximum stacksize for task 686: unlimited
  | Maximum stacksize for task 687: unlimited
  | Maximum stacksize for task 688: unlimited
  | Maximum stacksize for task 689: unlimited
  | Maximum stacksize for task 690: unlimited
  | Maximum stacksize for task 691: unlimited
  | Maximum stacksize for task 692: unlimited
  | Maximum stacksize for task 693: unlimited
  | Maximum stacksize for task 694: unlimited
  | Maximum stacksize for task 695: unlimited
  | Maximum stacksize for task 696: unlimited
  | Maximum stacksize for task 697: unlimited
  | Maximum stacksize for task 698: unlimited
  | Maximum stacksize for task 699: unlimited
  | Maximum stacksize for task 700: unlimited
  | Maximum stacksize for task 701: unlimited
  | Maximum stacksize for task 702: unlimited
  | Maximum stacksize for task 703: unlimited
  | Maximum stacksize for task 704: unlimited
  | Maximum stacksize for task 705: unlimited
  | Maximum stacksize for task 706: unlimited
  | Maximum stacksize for task 707: unlimited
  | Maximum stacksize for task 708: unlimited
  | Maximum stacksize for task 709: unlimited
  | Maximum stacksize for task 710: unlimited
  | Maximum stacksize for task 711: unlimited
  | Maximum stacksize for task 712: unlimited
  | Maximum stacksize for task 713: unlimited
  | Maximum stacksize for task 714: unlimited
  | Maximum stacksize for task 715: unlimited
  | Maximum stacksize for task 716: unlimited
  | Maximum stacksize for task 717: unlimited
  | Maximum stacksize for task 718: unlimited
  | Maximum stacksize for task 719: unlimited
  | Maximum stacksize for task 720: unlimited
  | Maximum stacksize for task 721: unlimited
  | Maximum stacksize for task 722: unlimited
  | Maximum stacksize for task 723: unlimited
  | Maximum stacksize for task 724: unlimited
  | Maximum stacksize for task 725: unlimited
  | Maximum stacksize for task 726: unlimited
  | Maximum stacksize for task 727: unlimited
  | Maximum stacksize for task 728: unlimited
  | Maximum stacksize for task 729: unlimited
  | Maximum stacksize for task 730: unlimited
  | Maximum stacksize for task 731: unlimited
  | Maximum stacksize for task 732: unlimited
  | Maximum stacksize for task 733: unlimited
  | Maximum stacksize for task 734: unlimited
  | Maximum stacksize for task 735: unlimited
  | Maximum stacksize for task 736: unlimited
  | Maximum stacksize for task 737: unlimited
  | Maximum stacksize for task 738: unlimited
  | Maximum stacksize for task 739: unlimited
  | Maximum stacksize for task 740: unlimited
  | Maximum stacksize for task 741: unlimited
  | Maximum stacksize for task 742: unlimited
  | Maximum stacksize for task 743: unlimited
  | Maximum stacksize for task 744: unlimited
  | Maximum stacksize for task 745: unlimited
  | Maximum stacksize for task 746: unlimited
  | Maximum stacksize for task 747: unlimited
  | Maximum stacksize for task 748: unlimited
  | Maximum stacksize for task 749: unlimited
  | Maximum stacksize for task 750: unlimited
  | Maximum stacksize for task 751: unlimited
  | Maximum stacksize for task 752: unlimited
  | Maximum stacksize for task 753: unlimited
  | Maximum stacksize for task 754: unlimited
  | Maximum stacksize for task 755: unlimited
  | Maximum stacksize for task 756: unlimited
  | Maximum stacksize for task 757: unlimited
  | Maximum stacksize for task 758: unlimited
  | Maximum stacksize for task 759: unlimited
  | Maximum stacksize for task 760: unlimited
  | Maximum stacksize for task 761: unlimited
  | Maximum stacksize for task 762: unlimited
  | Maximum stacksize for task 763: unlimited
  | Maximum stacksize for task 764: unlimited
  | Maximum stacksize for task 765: unlimited
  | Maximum stacksize for task 766: unlimited
  | Maximum stacksize for task 767: unlimited
  | Maximum stacksize for task 768: unlimited
  | Maximum stacksize for task 769: unlimited
  | Maximum stacksize for task 770: unlimited
  | Maximum stacksize for task 771: unlimited
  | Maximum stacksize for task 772: unlimited
  | Maximum stacksize for task 773: unlimited
  | Maximum stacksize for task 774: unlimited
  | Maximum stacksize for task 775: unlimited
  | Maximum stacksize for task 776: unlimited
  | Maximum stacksize for task 777: unlimited
  | Maximum stacksize for task 778: unlimited
  | Maximum stacksize for task 779: unlimited
  | Maximum stacksize for task 780: unlimited
  | Maximum stacksize for task 781: unlimited
  | Maximum stacksize for task 782: unlimited
  | Maximum stacksize for task 783: unlimited
  | Maximum stacksize for task 784: unlimited
  | Maximum stacksize for task 785: unlimited
  | Maximum stacksize for task 786: unlimited
  | Maximum stacksize for task 787: unlimited
  | Maximum stacksize for task 788: unlimited
  | Maximum stacksize for task 789: unlimited
  | Maximum stacksize for task 790: unlimited
  | Maximum stacksize for task 791: unlimited
  | Maximum stacksize for task 792: unlimited
  | Maximum stacksize for task 793: unlimited
  | Maximum stacksize for task 794: unlimited
  | Maximum stacksize for task 795: unlimited
  | Maximum stacksize for task 796: unlimited
  | Maximum stacksize for task 797: unlimited
  | Maximum stacksize for task 798: unlimited
  | Maximum stacksize for task 799: unlimited
  | Current stacksize for task 0: unlimited
  | Current stacksize for task 1: unlimited
  | Current stacksize for task 2: unlimited
  | Current stacksize for task 3: unlimited
  | Current stacksize for task 4: unlimited
  | Current stacksize for task 5: unlimited
  | Current stacksize for task 6: unlimited
  | Current stacksize for task 7: unlimited
  | Current stacksize for task 8: unlimited
  | Current stacksize for task 9: unlimited
  | Current stacksize for task 10: unlimited
  | Current stacksize for task 11: unlimited
  | Current stacksize for task 12: unlimited
  | Current stacksize for task 13: unlimited
  | Current stacksize for task 14: unlimited
  | Current stacksize for task 15: unlimited
  | Current stacksize for task 16: unlimited
  | Current stacksize for task 17: unlimited
  | Current stacksize for task 18: unlimited
  | Current stacksize for task 19: unlimited
  | Current stacksize for task 20: unlimited
  | Current stacksize for task 21: unlimited
  | Current stacksize for task 22: unlimited
  | Current stacksize for task 23: unlimited
  | Current stacksize for task 24: unlimited
  | Current stacksize for task 25: unlimited
  | Current stacksize for task 26: unlimited
  | Current stacksize for task 27: unlimited
  | Current stacksize for task 28: unlimited
  | Current stacksize for task 29: unlimited
  | Current stacksize for task 30: unlimited
  | Current stacksize for task 31: unlimited
  | Current stacksize for task 32: unlimited
  | Current stacksize for task 33: unlimited
  | Current stacksize for task 34: unlimited
  | Current stacksize for task 35: unlimited
  | Current stacksize for task 36: unlimited
  | Current stacksize for task 37: unlimited
  | Current stacksize for task 38: unlimited
  | Current stacksize for task 39: unlimited
  | Current stacksize for task 40: unlimited
  | Current stacksize for task 41: unlimited
  | Current stacksize for task 42: unlimited
  | Current stacksize for task 43: unlimited
  | Current stacksize for task 44: unlimited
  | Current stacksize for task 45: unlimited
  | Current stacksize for task 46: unlimited
  | Current stacksize for task 47: unlimited
  | Current stacksize for task 48: unlimited
  | Current stacksize for task 49: unlimited
  | Current stacksize for task 50: unlimited
  | Current stacksize for task 51: unlimited
  | Current stacksize for task 52: unlimited
  | Current stacksize for task 53: unlimited
  | Current stacksize for task 54: unlimited
  | Current stacksize for task 55: unlimited
  | Current stacksize for task 56: unlimited
  | Current stacksize for task 57: unlimited
  | Current stacksize for task 58: unlimited
  | Current stacksize for task 59: unlimited
  | Current stacksize for task 60: unlimited
  | Current stacksize for task 61: unlimited
  | Current stacksize for task 62: unlimited
  | Current stacksize for task 63: unlimited
  | Current stacksize for task 64: unlimited
  | Current stacksize for task 65: unlimited
  | Current stacksize for task 66: unlimited
  | Current stacksize for task 67: unlimited
  | Current stacksize for task 68: unlimited
  | Current stacksize for task 69: unlimited
  | Current stacksize for task 70: unlimited
  | Current stacksize for task 71: unlimited
  | Current stacksize for task 72: unlimited
  | Current stacksize for task 73: unlimited
  | Current stacksize for task 74: unlimited
  | Current stacksize for task 75: unlimited
  | Current stacksize for task 76: unlimited
  | Current stacksize for task 77: unlimited
  | Current stacksize for task 78: unlimited
  | Current stacksize for task 79: unlimited
  | Current stacksize for task 80: unlimited
  | Current stacksize for task 81: unlimited
  | Current stacksize for task 82: unlimited
  | Current stacksize for task 83: unlimited
  | Current stacksize for task 84: unlimited
  | Current stacksize for task 85: unlimited
  | Current stacksize for task 86: unlimited
  | Current stacksize for task 87: unlimited
  | Current stacksize for task 88: unlimited
  | Current stacksize for task 89: unlimited
  | Current stacksize for task 90: unlimited
  | Current stacksize for task 91: unlimited
  | Current stacksize for task 92: unlimited
  | Current stacksize for task 93: unlimited
  | Current stacksize for task 94: unlimited
  | Current stacksize for task 95: unlimited
  | Current stacksize for task 96: unlimited
  | Current stacksize for task 97: unlimited
  | Current stacksize for task 98: unlimited
  | Current stacksize for task 99: unlimited
  | Current stacksize for task 100: unlimited
  | Current stacksize for task 101: unlimited
  | Current stacksize for task 102: unlimited
  | Current stacksize for task 103: unlimited
  | Current stacksize for task 104: unlimited
  | Current stacksize for task 105: unlimited
  | Current stacksize for task 106: unlimited
  | Current stacksize for task 107: unlimited
  | Current stacksize for task 108: unlimited
  | Current stacksize for task 109: unlimited
  | Current stacksize for task 110: unlimited
  | Current stacksize for task 111: unlimited
  | Current stacksize for task 112: unlimited
  | Current stacksize for task 113: unlimited
  | Current stacksize for task 114: unlimited
  | Current stacksize for task 115: unlimited
  | Current stacksize for task 116: unlimited
  | Current stacksize for task 117: unlimited
  | Current stacksize for task 118: unlimited
  | Current stacksize for task 119: unlimited
  | Current stacksize for task 120: unlimited
  | Current stacksize for task 121: unlimited
  | Current stacksize for task 122: unlimited
  | Current stacksize for task 123: unlimited
  | Current stacksize for task 124: unlimited
  | Current stacksize for task 125: unlimited
  | Current stacksize for task 126: unlimited
  | Current stacksize for task 127: unlimited
  | Current stacksize for task 128: unlimited
  | Current stacksize for task 129: unlimited
  | Current stacksize for task 130: unlimited
  | Current stacksize for task 131: unlimited
  | Current stacksize for task 132: unlimited
  | Current stacksize for task 133: unlimited
  | Current stacksize for task 134: unlimited
  | Current stacksize for task 135: unlimited
  | Current stacksize for task 136: unlimited
  | Current stacksize for task 137: unlimited
  | Current stacksize for task 138: unlimited
  | Current stacksize for task 139: unlimited
  | Current stacksize for task 140: unlimited
  | Current stacksize for task 141: unlimited
  | Current stacksize for task 142: unlimited
  | Current stacksize for task 143: unlimited
  | Current stacksize for task 144: unlimited
  | Current stacksize for task 145: unlimited
  | Current stacksize for task 146: unlimited
  | Current stacksize for task 147: unlimited
  | Current stacksize for task 148: unlimited
  | Current stacksize for task 149: unlimited
  | Current stacksize for task 150: unlimited
  | Current stacksize for task 151: unlimited
  | Current stacksize for task 152: unlimited
  | Current stacksize for task 153: unlimited
  | Current stacksize for task 154: unlimited
  | Current stacksize for task 155: unlimited
  | Current stacksize for task 156: unlimited
  | Current stacksize for task 157: unlimited
  | Current stacksize for task 158: unlimited
  | Current stacksize for task 159: unlimited
  | Current stacksize for task 160: unlimited
  | Current stacksize for task 161: unlimited
  | Current stacksize for task 162: unlimited
  | Current stacksize for task 163: unlimited
  | Current stacksize for task 164: unlimited
  | Current stacksize for task 165: unlimited
  | Current stacksize for task 166: unlimited
  | Current stacksize for task 167: unlimited
  | Current stacksize for task 168: unlimited
  | Current stacksize for task 169: unlimited
  | Current stacksize for task 170: unlimited
  | Current stacksize for task 171: unlimited
  | Current stacksize for task 172: unlimited
  | Current stacksize for task 173: unlimited
  | Current stacksize for task 174: unlimited
  | Current stacksize for task 175: unlimited
  | Current stacksize for task 176: unlimited
  | Current stacksize for task 177: unlimited
  | Current stacksize for task 178: unlimited
  | Current stacksize for task 179: unlimited
  | Current stacksize for task 180: unlimited
  | Current stacksize for task 181: unlimited
  | Current stacksize for task 182: unlimited
  | Current stacksize for task 183: unlimited
  | Current stacksize for task 184: unlimited
  | Current stacksize for task 185: unlimited
  | Current stacksize for task 186: unlimited
  | Current stacksize for task 187: unlimited
  | Current stacksize for task 188: unlimited
  | Current stacksize for task 189: unlimited
  | Current stacksize for task 190: unlimited
  | Current stacksize for task 191: unlimited
  | Current stacksize for task 192: unlimited
  | Current stacksize for task 193: unlimited
  | Current stacksize for task 194: unlimited
  | Current stacksize for task 195: unlimited
  | Current stacksize for task 196: unlimited
  | Current stacksize for task 197: unlimited
  | Current stacksize for task 198: unlimited
  | Current stacksize for task 199: unlimited
  | Current stacksize for task 200: unlimited
  | Current stacksize for task 201: unlimited
  | Current stacksize for task 202: unlimited
  | Current stacksize for task 203: unlimited
  | Current stacksize for task 204: unlimited
  | Current stacksize for task 205: unlimited
  | Current stacksize for task 206: unlimited
  | Current stacksize for task 207: unlimited
  | Current stacksize for task 208: unlimited
  | Current stacksize for task 209: unlimited
  | Current stacksize for task 210: unlimited
  | Current stacksize for task 211: unlimited
  | Current stacksize for task 212: unlimited
  | Current stacksize for task 213: unlimited
  | Current stacksize for task 214: unlimited
  | Current stacksize for task 215: unlimited
  | Current stacksize for task 216: unlimited
  | Current stacksize for task 217: unlimited
  | Current stacksize for task 218: unlimited
  | Current stacksize for task 219: unlimited
  | Current stacksize for task 220: unlimited
  | Current stacksize for task 221: unlimited
  | Current stacksize for task 222: unlimited
  | Current stacksize for task 223: unlimited
  | Current stacksize for task 224: unlimited
  | Current stacksize for task 225: unlimited
  | Current stacksize for task 226: unlimited
  | Current stacksize for task 227: unlimited
  | Current stacksize for task 228: unlimited
  | Current stacksize for task 229: unlimited
  | Current stacksize for task 230: unlimited
  | Current stacksize for task 231: unlimited
  | Current stacksize for task 232: unlimited
  | Current stacksize for task 233: unlimited
  | Current stacksize for task 234: unlimited
  | Current stacksize for task 235: unlimited
  | Current stacksize for task 236: unlimited
  | Current stacksize for task 237: unlimited
  | Current stacksize for task 238: unlimited
  | Current stacksize for task 239: unlimited
  | Current stacksize for task 240: unlimited
  | Current stacksize for task 241: unlimited
  | Current stacksize for task 242: unlimited
  | Current stacksize for task 243: unlimited
  | Current stacksize for task 244: unlimited
  | Current stacksize for task 245: unlimited
  | Current stacksize for task 246: unlimited
  | Current stacksize for task 247: unlimited
  | Current stacksize for task 248: unlimited
  | Current stacksize for task 249: unlimited
  | Current stacksize for task 250: unlimited
  | Current stacksize for task 251: unlimited
  | Current stacksize for task 252: unlimited
  | Current stacksize for task 253: unlimited
  | Current stacksize for task 254: unlimited
  | Current stacksize for task 255: unlimited
  | Current stacksize for task 256: unlimited
  | Current stacksize for task 257: unlimited
  | Current stacksize for task 258: unlimited
  | Current stacksize for task 259: unlimited
  | Current stacksize for task 260: unlimited
  | Current stacksize for task 261: unlimited
  | Current stacksize for task 262: unlimited
  | Current stacksize for task 263: unlimited
  | Current stacksize for task 264: unlimited
  | Current stacksize for task 265: unlimited
  | Current stacksize for task 266: unlimited
  | Current stacksize for task 267: unlimited
  | Current stacksize for task 268: unlimited
  | Current stacksize for task 269: unlimited
  | Current stacksize for task 270: unlimited
  | Current stacksize for task 271: unlimited
  | Current stacksize for task 272: unlimited
  | Current stacksize for task 273: unlimited
  | Current stacksize for task 274: unlimited
  | Current stacksize for task 275: unlimited
  | Current stacksize for task 276: unlimited
  | Current stacksize for task 277: unlimited
  | Current stacksize for task 278: unlimited
  | Current stacksize for task 279: unlimited
  | Current stacksize for task 280: unlimited
  | Current stacksize for task 281: unlimited
  | Current stacksize for task 282: unlimited
  | Current stacksize for task 283: unlimited
  | Current stacksize for task 284: unlimited
  | Current stacksize for task 285: unlimited
  | Current stacksize for task 286: unlimited
  | Current stacksize for task 287: unlimited
  | Current stacksize for task 288: unlimited
  | Current stacksize for task 289: unlimited
  | Current stacksize for task 290: unlimited
  | Current stacksize for task 291: unlimited
  | Current stacksize for task 292: unlimited
  | Current stacksize for task 293: unlimited
  | Current stacksize for task 294: unlimited
  | Current stacksize for task 295: unlimited
  | Current stacksize for task 296: unlimited
  | Current stacksize for task 297: unlimited
  | Current stacksize for task 298: unlimited
  | Current stacksize for task 299: unlimited
  | Current stacksize for task 300: unlimited
  | Current stacksize for task 301: unlimited
  | Current stacksize for task 302: unlimited
  | Current stacksize for task 303: unlimited
  | Current stacksize for task 304: unlimited
  | Current stacksize for task 305: unlimited
  | Current stacksize for task 306: unlimited
  | Current stacksize for task 307: unlimited
  | Current stacksize for task 308: unlimited
  | Current stacksize for task 309: unlimited
  | Current stacksize for task 310: unlimited
  | Current stacksize for task 311: unlimited
  | Current stacksize for task 312: unlimited
  | Current stacksize for task 313: unlimited
  | Current stacksize for task 314: unlimited
  | Current stacksize for task 315: unlimited
  | Current stacksize for task 316: unlimited
  | Current stacksize for task 317: unlimited
  | Current stacksize for task 318: unlimited
  | Current stacksize for task 319: unlimited
  | Current stacksize for task 320: unlimited
  | Current stacksize for task 321: unlimited
  | Current stacksize for task 322: unlimited
  | Current stacksize for task 323: unlimited
  | Current stacksize for task 324: unlimited
  | Current stacksize for task 325: unlimited
  | Current stacksize for task 326: unlimited
  | Current stacksize for task 327: unlimited
  | Current stacksize for task 328: unlimited
  | Current stacksize for task 329: unlimited
  | Current stacksize for task 330: unlimited
  | Current stacksize for task 331: unlimited
  | Current stacksize for task 332: unlimited
  | Current stacksize for task 333: unlimited
  | Current stacksize for task 334: unlimited
  | Current stacksize for task 335: unlimited
  | Current stacksize for task 336: unlimited
  | Current stacksize for task 337: unlimited
  | Current stacksize for task 338: unlimited
  | Current stacksize for task 339: unlimited
  | Current stacksize for task 340: unlimited
  | Current stacksize for task 341: unlimited
  | Current stacksize for task 342: unlimited
  | Current stacksize for task 343: unlimited
  | Current stacksize for task 344: unlimited
  | Current stacksize for task 345: unlimited
  | Current stacksize for task 346: unlimited
  | Current stacksize for task 347: unlimited
  | Current stacksize for task 348: unlimited
  | Current stacksize for task 349: unlimited
  | Current stacksize for task 350: unlimited
  | Current stacksize for task 351: unlimited
  | Current stacksize for task 352: unlimited
  | Current stacksize for task 353: unlimited
  | Current stacksize for task 354: unlimited
  | Current stacksize for task 355: unlimited
  | Current stacksize for task 356: unlimited
  | Current stacksize for task 357: unlimited
  | Current stacksize for task 358: unlimited
  | Current stacksize for task 359: unlimited
  | Current stacksize for task 360: unlimited
  | Current stacksize for task 361: unlimited
  | Current stacksize for task 362: unlimited
  | Current stacksize for task 363: unlimited
  | Current stacksize for task 364: unlimited
  | Current stacksize for task 365: unlimited
  | Current stacksize for task 366: unlimited
  | Current stacksize for task 367: unlimited
  | Current stacksize for task 368: unlimited
  | Current stacksize for task 369: unlimited
  | Current stacksize for task 370: unlimited
  | Current stacksize for task 371: unlimited
  | Current stacksize for task 372: unlimited
  | Current stacksize for task 373: unlimited
  | Current stacksize for task 374: unlimited
  | Current stacksize for task 375: unlimited
  | Current stacksize for task 376: unlimited
  | Current stacksize for task 377: unlimited
  | Current stacksize for task 378: unlimited
  | Current stacksize for task 379: unlimited
  | Current stacksize for task 380: unlimited
  | Current stacksize for task 381: unlimited
  | Current stacksize for task 382: unlimited
  | Current stacksize for task 383: unlimited
  | Current stacksize for task 384: unlimited
  | Current stacksize for task 385: unlimited
  | Current stacksize for task 386: unlimited
  | Current stacksize for task 387: unlimited
  | Current stacksize for task 388: unlimited
  | Current stacksize for task 389: unlimited
  | Current stacksize for task 390: unlimited
  | Current stacksize for task 391: unlimited
  | Current stacksize for task 392: unlimited
  | Current stacksize for task 393: unlimited
  | Current stacksize for task 394: unlimited
  | Current stacksize for task 395: unlimited
  | Current stacksize for task 396: unlimited
  | Current stacksize for task 397: unlimited
  | Current stacksize for task 398: unlimited
  | Current stacksize for task 399: unlimited
  | Current stacksize for task 400: unlimited
  | Current stacksize for task 401: unlimited
  | Current stacksize for task 402: unlimited
  | Current stacksize for task 403: unlimited
  | Current stacksize for task 404: unlimited
  | Current stacksize for task 405: unlimited
  | Current stacksize for task 406: unlimited
  | Current stacksize for task 407: unlimited
  | Current stacksize for task 408: unlimited
  | Current stacksize for task 409: unlimited
  | Current stacksize for task 410: unlimited
  | Current stacksize for task 411: unlimited
  | Current stacksize for task 412: unlimited
  | Current stacksize for task 413: unlimited
  | Current stacksize for task 414: unlimited
  | Current stacksize for task 415: unlimited
  | Current stacksize for task 416: unlimited
  | Current stacksize for task 417: unlimited
  | Current stacksize for task 418: unlimited
  | Current stacksize for task 419: unlimited
  | Current stacksize for task 420: unlimited
  | Current stacksize for task 421: unlimited
  | Current stacksize for task 422: unlimited
  | Current stacksize for task 423: unlimited
  | Current stacksize for task 424: unlimited
  | Current stacksize for task 425: unlimited
  | Current stacksize for task 426: unlimited
  | Current stacksize for task 427: unlimited
  | Current stacksize for task 428: unlimited
  | Current stacksize for task 429: unlimited
  | Current stacksize for task 430: unlimited
  | Current stacksize for task 431: unlimited
  | Current stacksize for task 432: unlimited
  | Current stacksize for task 433: unlimited
  | Current stacksize for task 434: unlimited
  | Current stacksize for task 435: unlimited
  | Current stacksize for task 436: unlimited
  | Current stacksize for task 437: unlimited
  | Current stacksize for task 438: unlimited
  | Current stacksize for task 439: unlimited
  | Current stacksize for task 440: unlimited
  | Current stacksize for task 441: unlimited
  | Current stacksize for task 442: unlimited
  | Current stacksize for task 443: unlimited
  | Current stacksize for task 444: unlimited
  | Current stacksize for task 445: unlimited
  | Current stacksize for task 446: unlimited
  | Current stacksize for task 447: unlimited
  | Current stacksize for task 448: unlimited
  | Current stacksize for task 449: unlimited
  | Current stacksize for task 450: unlimited
  | Current stacksize for task 451: unlimited
  | Current stacksize for task 452: unlimited
  | Current stacksize for task 453: unlimited
  | Current stacksize for task 454: unlimited
  | Current stacksize for task 455: unlimited
  | Current stacksize for task 456: unlimited
  | Current stacksize for task 457: unlimited
  | Current stacksize for task 458: unlimited
  | Current stacksize for task 459: unlimited
  | Current stacksize for task 460: unlimited
  | Current stacksize for task 461: unlimited
  | Current stacksize for task 462: unlimited
  | Current stacksize for task 463: unlimited
  | Current stacksize for task 464: unlimited
  | Current stacksize for task 465: unlimited
  | Current stacksize for task 466: unlimited
  | Current stacksize for task 467: unlimited
  | Current stacksize for task 468: unlimited
  | Current stacksize for task 469: unlimited
  | Current stacksize for task 470: unlimited
  | Current stacksize for task 471: unlimited
  | Current stacksize for task 472: unlimited
  | Current stacksize for task 473: unlimited
  | Current stacksize for task 474: unlimited
  | Current stacksize for task 475: unlimited
  | Current stacksize for task 476: unlimited
  | Current stacksize for task 477: unlimited
  | Current stacksize for task 478: unlimited
  | Current stacksize for task 479: unlimited
  | Current stacksize for task 480: unlimited
  | Current stacksize for task 481: unlimited
  | Current stacksize for task 482: unlimited
  | Current stacksize for task 483: unlimited
  | Current stacksize for task 484: unlimited
  | Current stacksize for task 485: unlimited
  | Current stacksize for task 486: unlimited
  | Current stacksize for task 487: unlimited
  | Current stacksize for task 488: unlimited
  | Current stacksize for task 489: unlimited
  | Current stacksize for task 490: unlimited
  | Current stacksize for task 491: unlimited
  | Current stacksize for task 492: unlimited
  | Current stacksize for task 493: unlimited
  | Current stacksize for task 494: unlimited
  | Current stacksize for task 495: unlimited
  | Current stacksize for task 496: unlimited
  | Current stacksize for task 497: unlimited
  | Current stacksize for task 498: unlimited
  | Current stacksize for task 499: unlimited
  | Current stacksize for task 500: unlimited
  | Current stacksize for task 501: unlimited
  | Current stacksize for task 502: unlimited
  | Current stacksize for task 503: unlimited
  | Current stacksize for task 504: unlimited
  | Current stacksize for task 505: unlimited
  | Current stacksize for task 506: unlimited
  | Current stacksize for task 507: unlimited
  | Current stacksize for task 508: unlimited
  | Current stacksize for task 509: unlimited
  | Current stacksize for task 510: unlimited
  | Current stacksize for task 511: unlimited
  | Current stacksize for task 512: unlimited
  | Current stacksize for task 513: unlimited
  | Current stacksize for task 514: unlimited
  | Current stacksize for task 515: unlimited
  | Current stacksize for task 516: unlimited
  | Current stacksize for task 517: unlimited
  | Current stacksize for task 518: unlimited
  | Current stacksize for task 519: unlimited
  | Current stacksize for task 520: unlimited
  | Current stacksize for task 521: unlimited
  | Current stacksize for task 522: unlimited
  | Current stacksize for task 523: unlimited
  | Current stacksize for task 524: unlimited
  | Current stacksize for task 525: unlimited
  | Current stacksize for task 526: unlimited
  | Current stacksize for task 527: unlimited
  | Current stacksize for task 528: unlimited
  | Current stacksize for task 529: unlimited
  | Current stacksize for task 530: unlimited
  | Current stacksize for task 531: unlimited
  | Current stacksize for task 532: unlimited
  | Current stacksize for task 533: unlimited
  | Current stacksize for task 534: unlimited
  | Current stacksize for task 535: unlimited
  | Current stacksize for task 536: unlimited
  | Current stacksize for task 537: unlimited
  | Current stacksize for task 538: unlimited
  | Current stacksize for task 539: unlimited
  | Current stacksize for task 540: unlimited
  | Current stacksize for task 541: unlimited
  | Current stacksize for task 542: unlimited
  | Current stacksize for task 543: unlimited
  | Current stacksize for task 544: unlimited
  | Current stacksize for task 545: unlimited
  | Current stacksize for task 546: unlimited
  | Current stacksize for task 547: unlimited
  | Current stacksize for task 548: unlimited
  | Current stacksize for task 549: unlimited
  | Current stacksize for task 550: unlimited
  | Current stacksize for task 551: unlimited
  | Current stacksize for task 552: unlimited
  | Current stacksize for task 553: unlimited
  | Current stacksize for task 554: unlimited
  | Current stacksize for task 555: unlimited
  | Current stacksize for task 556: unlimited
  | Current stacksize for task 557: unlimited
  | Current stacksize for task 558: unlimited
  | Current stacksize for task 559: unlimited
  | Current stacksize for task 560: unlimited
  | Current stacksize for task 561: unlimited
  | Current stacksize for task 562: unlimited
  | Current stacksize for task 563: unlimited
  | Current stacksize for task 564: unlimited
  | Current stacksize for task 565: unlimited
  | Current stacksize for task 566: unlimited
  | Current stacksize for task 567: unlimited
  | Current stacksize for task 568: unlimited
  | Current stacksize for task 569: unlimited
  | Current stacksize for task 570: unlimited
  | Current stacksize for task 571: unlimited
  | Current stacksize for task 572: unlimited
  | Current stacksize for task 573: unlimited
  | Current stacksize for task 574: unlimited
  | Current stacksize for task 575: unlimited
  | Current stacksize for task 576: unlimited
  | Current stacksize for task 577: unlimited
  | Current stacksize for task 578: unlimited
  | Current stacksize for task 579: unlimited
  | Current stacksize for task 580: unlimited
  | Current stacksize for task 581: unlimited
  | Current stacksize for task 582: unlimited
  | Current stacksize for task 583: unlimited
  | Current stacksize for task 584: unlimited
  | Current stacksize for task 585: unlimited
  | Current stacksize for task 586: unlimited
  | Current stacksize for task 587: unlimited
  | Current stacksize for task 588: unlimited
  | Current stacksize for task 589: unlimited
  | Current stacksize for task 590: unlimited
  | Current stacksize for task 591: unlimited
  | Current stacksize for task 592: unlimited
  | Current stacksize for task 593: unlimited
  | Current stacksize for task 594: unlimited
  | Current stacksize for task 595: unlimited
  | Current stacksize for task 596: unlimited
  | Current stacksize for task 597: unlimited
  | Current stacksize for task 598: unlimited
  | Current stacksize for task 599: unlimited
  | Current stacksize for task 600: unlimited
  | Current stacksize for task 601: unlimited
  | Current stacksize for task 602: unlimited
  | Current stacksize for task 603: unlimited
  | Current stacksize for task 604: unlimited
  | Current stacksize for task 605: unlimited
  | Current stacksize for task 606: unlimited
  | Current stacksize for task 607: unlimited
  | Current stacksize for task 608: unlimited
  | Current stacksize for task 609: unlimited
  | Current stacksize for task 610: unlimited
  | Current stacksize for task 611: unlimited
  | Current stacksize for task 612: unlimited
  | Current stacksize for task 613: unlimited
  | Current stacksize for task 614: unlimited
  | Current stacksize for task 615: unlimited
  | Current stacksize for task 616: unlimited
  | Current stacksize for task 617: unlimited
  | Current stacksize for task 618: unlimited
  | Current stacksize for task 619: unlimited
  | Current stacksize for task 620: unlimited
  | Current stacksize for task 621: unlimited
  | Current stacksize for task 622: unlimited
  | Current stacksize for task 623: unlimited
  | Current stacksize for task 624: unlimited
  | Current stacksize for task 625: unlimited
  | Current stacksize for task 626: unlimited
  | Current stacksize for task 627: unlimited
  | Current stacksize for task 628: unlimited
  | Current stacksize for task 629: unlimited
  | Current stacksize for task 630: unlimited
  | Current stacksize for task 631: unlimited
  | Current stacksize for task 632: unlimited
  | Current stacksize for task 633: unlimited
  | Current stacksize for task 634: unlimited
  | Current stacksize for task 635: unlimited
  | Current stacksize for task 636: unlimited
  | Current stacksize for task 637: unlimited
  | Current stacksize for task 638: unlimited
  | Current stacksize for task 639: unlimited
  | Current stacksize for task 640: unlimited
  | Current stacksize for task 641: unlimited
  | Current stacksize for task 642: unlimited
  | Current stacksize for task 643: unlimited
  | Current stacksize for task 644: unlimited
  | Current stacksize for task 645: unlimited
  | Current stacksize for task 646: unlimited
  | Current stacksize for task 647: unlimited
  | Current stacksize for task 648: unlimited
  | Current stacksize for task 649: unlimited
  | Current stacksize for task 650: unlimited
  | Current stacksize for task 651: unlimited
  | Current stacksize for task 652: unlimited
  | Current stacksize for task 653: unlimited
  | Current stacksize for task 654: unlimited
  | Current stacksize for task 655: unlimited
  | Current stacksize for task 656: unlimited
  | Current stacksize for task 657: unlimited
  | Current stacksize for task 658: unlimited
  | Current stacksize for task 659: unlimited
  | Current stacksize for task 660: unlimited
  | Current stacksize for task 661: unlimited
  | Current stacksize for task 662: unlimited
  | Current stacksize for task 663: unlimited
  | Current stacksize for task 664: unlimited
  | Current stacksize for task 665: unlimited
  | Current stacksize for task 666: unlimited
  | Current stacksize for task 667: unlimited
  | Current stacksize for task 668: unlimited
  | Current stacksize for task 669: unlimited
  | Current stacksize for task 670: unlimited
  | Current stacksize for task 671: unlimited
  | Current stacksize for task 672: unlimited
  | Current stacksize for task 673: unlimited
  | Current stacksize for task 674: unlimited
  | Current stacksize for task 675: unlimited
  | Current stacksize for task 676: unlimited
  | Current stacksize for task 677: unlimited
  | Current stacksize for task 678: unlimited
  | Current stacksize for task 679: unlimited
  | Current stacksize for task 680: unlimited
  | Current stacksize for task 681: unlimited
  | Current stacksize for task 682: unlimited
  | Current stacksize for task 683: unlimited
  | Current stacksize for task 684: unlimited
  | Current stacksize for task 685: unlimited
  | Current stacksize for task 686: unlimited
  | Current stacksize for task 687: unlimited
  | Current stacksize for task 688: unlimited
  | Current stacksize for task 689: unlimited
  | Current stacksize for task 690: unlimited
  | Current stacksize for task 691: unlimited
  | Current stacksize for task 692: unlimited
  | Current stacksize for task 693: unlimited
  | Current stacksize for task 694: unlimited
  | Current stacksize for task 695: unlimited
  | Current stacksize for task 696: unlimited
  | Current stacksize for task 697: unlimited
  | Current stacksize for task 698: unlimited
  | Current stacksize for task 699: unlimited
  | Current stacksize for task 700: unlimited
  | Current stacksize for task 701: unlimited
  | Current stacksize for task 702: unlimited
  | Current stacksize for task 703: unlimited
  | Current stacksize for task 704: unlimited
  | Current stacksize for task 705: unlimited
  | Current stacksize for task 706: unlimited
  | Current stacksize for task 707: unlimited
  | Current stacksize for task 708: unlimited
  | Current stacksize for task 709: unlimited
  | Current stacksize for task 710: unlimited
  | Current stacksize for task 711: unlimited
  | Current stacksize for task 712: unlimited
  | Current stacksize for task 713: unlimited
  | Current stacksize for task 714: unlimited
  | Current stacksize for task 715: unlimited
  | Current stacksize for task 716: unlimited
  | Current stacksize for task 717: unlimited
  | Current stacksize for task 718: unlimited
  | Current stacksize for task 719: unlimited
  | Current stacksize for task 720: unlimited
  | Current stacksize for task 721: unlimited
  | Current stacksize for task 722: unlimited
  | Current stacksize for task 723: unlimited
  | Current stacksize for task 724: unlimited
  | Current stacksize for task 725: unlimited
  | Current stacksize for task 726: unlimited
  | Current stacksize for task 727: unlimited
  | Current stacksize for task 728: unlimited
  | Current stacksize for task 729: unlimited
  | Current stacksize for task 730: unlimited
  | Current stacksize for task 731: unlimited
  | Current stacksize for task 732: unlimited
  | Current stacksize for task 733: unlimited
  | Current stacksize for task 734: unlimited
  | Current stacksize for task 735: unlimited
  | Current stacksize for task 736: unlimited
  | Current stacksize for task 737: unlimited
  | Current stacksize for task 738: unlimited
  | Current stacksize for task 739: unlimited
  | Current stacksize for task 740: unlimited
  | Current stacksize for task 741: unlimited
  | Current stacksize for task 742: unlimited
  | Current stacksize for task 743: unlimited
  | Current stacksize for task 744: unlimited
  | Current stacksize for task 745: unlimited
  | Current stacksize for task 746: unlimited
  | Current stacksize for task 747: unlimited
  | Current stacksize for task 748: unlimited
  | Current stacksize for task 749: unlimited
  | Current stacksize for task 750: unlimited
  | Current stacksize for task 751: unlimited
  | Current stacksize for task 752: unlimited
  | Current stacksize for task 753: unlimited
  | Current stacksize for task 754: unlimited
  | Current stacksize for task 755: unlimited
  | Current stacksize for task 756: unlimited
  | Current stacksize for task 757: unlimited
  | Current stacksize for task 758: unlimited
  | Current stacksize for task 759: unlimited
  | Current stacksize for task 760: unlimited
  | Current stacksize for task 761: unlimited
  | Current stacksize for task 762: unlimited
  | Current stacksize for task 763: unlimited
  | Current stacksize for task 764: unlimited
  | Current stacksize for task 765: unlimited
  | Current stacksize for task 766: unlimited
  | Current stacksize for task 767: unlimited
  | Current stacksize for task 768: unlimited
  | Current stacksize for task 769: unlimited
  | Current stacksize for task 770: unlimited
  | Current stacksize for task 771: unlimited
  | Current stacksize for task 772: unlimited
  | Current stacksize for task 773: unlimited
  | Current stacksize for task 774: unlimited
  | Current stacksize for task 775: unlimited
  | Current stacksize for task 776: unlimited
  | Current stacksize for task 777: unlimited
  | Current stacksize for task 778: unlimited
  | Current stacksize for task 779: unlimited
  | Current stacksize for task 780: unlimited
  | Current stacksize for task 781: unlimited
  | Current stacksize for task 782: unlimited
  | Current stacksize for task 783: unlimited
  | Current stacksize for task 784: unlimited
  | Current stacksize for task 785: unlimited
  | Current stacksize for task 786: unlimited
  | Current stacksize for task 787: unlimited
  | Current stacksize for task 788: unlimited
  | Current stacksize for task 789: unlimited
  | Current stacksize for task 790: unlimited
  | Current stacksize for task 791: unlimited
  | Current stacksize for task 792: unlimited
  | Current stacksize for task 793: unlimited
  | Current stacksize for task 794: unlimited
  | Current stacksize for task 795: unlimited
  | Current stacksize for task 796: unlimited
  | Current stacksize for task 797: unlimited
  | Current stacksize for task 798: unlimited
  | Current stacksize for task 799: unlimited
 
  Consistency checks for the contents of control.in are next.
 
  MPI_IN_PLACE appears to work with this MPI implementation.
  | Keeping use_mpi_in_place .true. (see manual).
  Target number of points in a grid batch is not set. Defaulting to  100
  Method for grid partitioning is not set. Defaulting to parallel hash+maxmin partitioning.
  Batch size limit is not set. Defaulting to    200
  By default, will store active basis functions for each batch.
  If in need of memory, prune_basis_once .false. can be used to disable this option.
  communication_type for Hartree potential was not specified.
  Defaulting to calc_hartree .
  Defaulting to Pulay charge density mixer.
  Pulay mixer: Number of relevant iterations not set.
  Defaulting to    8 iterations.
  Pulay mixer: Number of initial linear mixing iterations not set.
  Defaulting to    0 iterations.
  Work space size for distributed Hartree potential not set.
  Defaulting to   0.200000E+03 MB.
  Mixing parameter for charge density mixing has not been set.
  Using default: charge_mix_param =     0.0500.
  The mixing parameter will be adjusted in iteration number     2 of each s.c.f. cycle (i.e., each geometry step).
  Algorithm-dependent basis array size parameters:
  | n_max_pulay                         :        8
  Presetting      1001 iterations before the initial mixing cycle
  is restarted anyway using the sc_init_iter criterion / keyword.
  Presetting a factor      1.000 between actual scf density residual
  and density convergence criterion sc_accuracy_rho below which sc_init_iter
  takes no effect.
  Calculation of forces was not defined in control.in. No forces will be calculated.
  Geometry relaxation not requested: no relaxation will be performed.
  No accuracy limit for integral partition fn. given. Defaulting to  0.1000E-14.
  No threshold value for u(r) in integrations given. Defaulting to  0.1000E-05.
  No occupation type (smearing scheme) given. Defaulting to Gaussian broadening, width =  0.1000E-01 eV.
  The width will be adjusted in iteration number     2 of each s.c.f. cycle (i.e., each geometry step).
  No accuracy for occupation numbers given. Defaulting to  0.1000E-12.
  No threshold value for occupation numbers given. Defaulting to  0.0000E+00.
  No accuracy for fermi level given. Defaulting to  0.1000E-19.
  Maximum # of iterations to find E_F not set. Defaulting to  200.
  Preferred method for the eigenvalue solver ('KS_method') not specified in 'control.in'.
  Calling BLACS routine to test compilation state
  Since ScaLAPACK support is enabled, defaulting to ELPA (via ELSI).
  Threshold for basis singularities not set.
  Default threshold for basis singularities:  0.1000E-04
  partition_type (choice of integration weights) for integrals was not specified.
  | Using a version of the partition function of Stratmann and coworkers ('stratmann_sparse').
  | At each grid point, the set of atoms used to build the partition table is smoothly restricted to
  | only those atoms whose free-atom density would be non-zero at that grid point.
  Partitioning for Hartree potential was not defined. Using partition_type for integrals.
  | Adjusted default value of keyword multip_moments_threshold to:       0.10000000E-11
  | This value may affect high angular momentum components of the Hartree potential in periodic systems.
  Using 2025 definition of centers list for evaluation of the Stratmann partition function.
  Spin handling was not defined in control.in. Defaulting to unpolarized case.
  No q(lm)/r^(l+1) cutoff set for long-range Hartree potential.
  | Using default value of  0.100000E-09 .
  | Verify using the multipole_threshold keyword.
  Defaulting to new monopole extrapolation.
  Density update method: automatic selection selected.
  Using density matrix based charge density update.
  Using density matrix based charge density update.
  Using packed matrix style: index .
  Threshold of packed matrixes:  0.000000E+00
  Defaulting to use time-reversal symmetry for k-point grid.
  Charge integration errors on the 3D integration grid will be compensated
  by explicit normalization and distribution of residual charges.
  Use the "compensate_multipole_errors" flag to change this behaviour.
  You have selected one (or more) of: output band; output band_mulliken; output polarization
  output Z2_invariant; and use_spin_texture_scf in your control.in
  Therefore COMPLEX eigenvectors will be used in the calculation.
  Found no potential conflicts with setting 'use_local_index' for this calculation.
  Flag 'use_local_index' has not been set.
  Testing whether we classify this calculation as large-scale ...
  The calculation contains at least 100 atoms. This is most likely a large-scale calculation.
  Setting 'use_local_index' to .true.
 
  Consistency checks for the contents of geometry.in are next.
 

  Range separation radius for Ewald summation (hartree_convergence_parameter):      3.23491218 bohr.
  Number of empty states per atom not set in control.in - providing a guess from actual geometry.
  | Total number of empty states used during s.c.f. cycle:    10240
  If you use a very high smearing, use empty_states (per atom!) in control.in to increase this value.

  Structure-dependent array size parameters: 
  | Maximum number of distinct radial functions  :       31
  | Maximum number of basis functions            :    58880
  | Number of Kohn-Sham states (occupied + empty):    36352
------------------------------------------------------------

  Checking k-grid inconsistencies now:
  | k-point density for reciprocal lattice vector 1 is   10.01 nkpts / Angstrom^-1
  | k-point density for reciprocal lattice vector 2 is   10.01 nkpts / Angstrom^-1
  | k-point density for reciprocal lattice vector 3 is   10.14 nkpts / Angstrom^-1

  | Ratio of k-point densities for reciprocal lattice vectors 1 vs 2 is    1.00
  | Ratio of k-point densities for reciprocal lattice vectors 1 vs 3 is    0.99
  | Ratio of k-point densities for reciprocal lattice vectors 2 vs 3 is    0.99

  * The specified k_grid leads to a nearly homogenous k-grid density in non-vacuum directions,
  * and seems sensible.

  | Checks passed.
  After read_input_data [GB]:    495.20

  Performing system and environment tests:
  | Environment variable OMP_NUM_THREADS correctly set to 1.
  | Checking for ScaLAPACK...
  | Testing pdtran()...
  | All pdtran() tests passed.
  | Testing CPU compatibility for run-time vs. build-time.
  | Reading /proc/cpuinfo for CPU information ...
  | Built for  : AMD EPYC 9554 64-Core Processor
  | Running on : AMD EPYC 9554 64-Core Processor
  | Runtime CPU compatibility verified.
  
  After prepare_system [GB]:    494.81

------------------------------------------------------------
          Preparing all fixed parts of the calculation.
------------------------------------------------------------
  Determining machine precision:
    2.225073858507201E-308
  Setting up grids for atomic and cluster calculations.

  Creating wave function, potential, and density for free atoms.
  Runtime choices for atomic solver:
  | atomic solver xc        : PW-LDA
  | compute density gradient: 0
  | compute kinetic density : F

  Species: Ba

  List of occupied orbitals and eigenvalues:
    n    l              occ      energy [Ha]    energy [eV]
    1    0           2.0000     -1427.155650    -38834.8811
    2    0           2.0000      -217.953811     -5930.8250
    3    0           2.0000       -45.693936     -1243.3953
    4    0           2.0000        -8.931165      -243.0294
    5    0           2.0000        -1.234011       -33.5792
    6    0           2.0000        -0.116702        -3.1756
    2    1           6.0000      -195.433631     -5318.0197
    3    1           6.0000       -38.541030     -1048.7548
    4    1           6.0000        -6.627770      -180.3508
    5    1           6.0000        -0.683116       -18.5885
    3    2          10.0000       -28.146624      -765.9086
    4    2          10.0000        -3.287105       -89.4467


  Species: Ti

  List of occupied orbitals and eigenvalues:
    n    l              occ      energy [Ha]    energy [eV]
    1    0           2.0000      -179.482435     -4883.9656
    2    0           2.0000       -19.674169      -535.3614
    3    0           2.0000        -2.270443       -61.7819
    4    0           2.0000        -0.153527        -4.1777
    2    1           6.0000       -16.307552      -443.7511
    3    1           6.0000        -1.407668       -38.3046
    3    2           2.0000        -0.147710        -4.0194


  Species: O

  List of occupied orbitals and eigenvalues:
    n    l              occ      energy [Ha]    energy [eV]
    1    0           2.0000       -18.786109      -511.1960
    2    0           2.0000        -0.872635       -23.7456
    2    1           4.0000        -0.337687        -9.1889


  Adding cutoff potential to free-atom effective potential.
  Creating fixed part of basis set: Ionic, confined, hydrogenic.
 
  Ba                   ion:
  Runtime choices for ionic solver:
  | ionic solver xc        : PW-LDA

  List of free ionic orbitals and eigenvalues:
    n    l      energy [Ha]    energy [eV]
    1    0     -1427.386486    -38841.1625
    2    0      -218.177246     -5936.9049
    3    0       -45.916216     -1249.4438
    4    0        -9.152701      -249.0577
    5    0        -1.452758       -39.5315
    6    0        -0.287342        -7.8190
    2    1      -195.656927     -5324.0959
    3    1       -38.763265     -1054.8021
    4    1        -6.849212      -186.3765
    5    1        -0.899782       -24.4843
    3    2       -28.368814      -771.9547
    4    2        -3.508339       -95.4668


  List of ionic basis orbitals and eigenvalues:
    n    l      energy [Ha]    energy [eV]    outer radius [A]
    5    2        -0.266679        -7.2567       6.051495
    4    3        -0.152367        -4.1461       5.977966

 
  Ba                   hydrogenic:
 
  List of hydrogenic basis orbitals: 
    n    l      effective z      eigenvalue [eV]  inner max. [A]     outer max. [A]     outer radius [A]   
    3    1         2.700000       -10.9875           0.585865           2.332071           6.051495
 
 
  Ti                   ion:
  Runtime choices for ionic solver:
  | ionic solver xc        : PW-LDA

  List of free ionic orbitals and eigenvalues:
    n    l      energy [Ha]    energy [eV]
    1    0      -180.346512     -4907.4783
    2    0       -20.558929      -559.4369
    3    0        -3.105104       -84.4942
    4    0        -0.707661       -19.2564
    2    1       -17.189957      -467.7625
    3    1        -2.231709       -60.7279
    3    2        -0.922254       -25.0958


  List of ionic basis orbitals and eigenvalues:
    n    l      energy [Ha]    energy [eV]    outer radius [A]
    4    1        -0.526225       -14.3193       4.592117

 
  Ti                   hydrogenic:
 
  List of hydrogenic basis orbitals: 
    n    l      effective z      eigenvalue [eV]  inner max. [A]     outer max. [A]     outer radius [A]   
    4    3         8.000000       -54.4222           1.059019           1.059019           4.267343
    3    2         2.700000       -10.7798           1.726925           1.726925           4.592117
 
 
  O                    hydrogenic:
 
  List of hydrogenic basis orbitals: 
    n    l      effective z      eigenvalue [eV]  inner max. [A]     outer max. [A]     outer radius [A]   
    2    1         1.800000       -10.9749           1.164242           1.164242           4.578029
    3    2         7.600000       -87.3180           0.624125           0.624125           3.251020
    3    0         6.400000       -61.9207           0.061167           1.081902           4.001998
 
  Creating atomic-like basis functions for current effective potential.

  Species Ba                  :

  List of atomic basis orbitals and eigenvalues:
    n    l      energy [Ha]    energy [eV]    outer radius [A]
    1    0     -1427.155650    -38834.8811       0.181180
    2    0      -217.953811     -5930.8250       0.481781
    3    0       -45.693936     -1243.3953       1.053516
    4    0        -8.931165      -243.0294       2.303735
    5    0        -1.234011       -33.5792       5.555178
    6    0        -0.116702        -3.1756       6.051495
    2    1      -195.433631     -5318.0197       0.493705
    3    1       -38.541030     -1048.7548       1.119920
    4    1        -6.627770      -180.3508       2.603304
    5    1        -0.683116       -18.5885       5.833578
    3    2       -28.146624      -765.9086       1.250174
    4    2        -3.287105       -89.4467       3.490975


  Species Ti                  :

  List of atomic basis orbitals and eigenvalues:
    n    l      energy [Ha]    energy [eV]    outer radius [A]
    1    0      -179.482435     -4883.9656       0.490254
    2    0       -19.674169      -535.3614       1.491292
    3    0        -2.270443       -61.7819       4.014314
    4    0        -0.153527        -4.1777       4.592117
    2    1       -16.307552      -443.7511       1.585290
    3    1        -1.407668       -38.3046       4.267343
    3    2        -0.147710        -4.0194       4.536321


  Species O                   :

  List of atomic basis orbitals and eigenvalues:
    n    l      energy [Ha]    energy [eV]    outer radius [A]
    1    0       -18.786109      -511.1960       1.433179
    2    0        -0.872635       -23.7456       4.413171
    2    1        -0.337687        -9.1889       4.522403

  Assembling full basis from fixed parts.
  | Species Ba :   atomic orbital   1 s accepted.
  | Species Ba :   atomic orbital   2 s accepted.
  | Species Ba :   atomic orbital   3 s accepted.
  | Species Ba :   atomic orbital   4 s accepted.
  | Species Ba :   atomic orbital   5 s accepted.
  | Species Ba :   atomic orbital   6 s accepted.
  | Species Ba :   atomic orbital   2 p accepted.
  | Species Ba :   atomic orbital   3 p accepted.
  | Species Ba :   atomic orbital   4 p accepted.
  | Species Ba :   atomic orbital   5 p accepted.
  | Species Ba :    hydro orbital   3 p accepted.
  | Species Ba :   atomic orbital   3 d accepted.
  | Species Ba :   atomic orbital   4 d accepted.
  | Species Ba :    ionic orbital   5 d accepted.
  | Species Ba :    ionic orbital   4 f accepted.
  | Species Ti :   atomic orbital   1 s accepted.
  | Species Ti :   atomic orbital   2 s accepted.
  | Species Ti :   atomic orbital   3 s accepted.
  | Species Ti :   atomic orbital   4 s accepted.
  | Species Ti :   atomic orbital   2 p accepted.
  | Species Ti :   atomic orbital   3 p accepted.
  | Species Ti :    ionic orbital   4 p accepted.
  | Species Ti :   atomic orbital   3 d accepted.
  | Species Ti :    hydro orbital   3 d accepted.
  | Species Ti :    hydro orbital   4 f accepted.
  | Species O :   atomic orbital   1 s accepted.
  | Species O :    hydro orbital   3 s accepted.
  | Species O :   atomic orbital   2 s accepted.
  | Species O :   atomic orbital   2 p accepted.
  | Species O :    hydro orbital   2 p accepted.
  | Species O :    hydro orbital   3 d accepted.
 
  Basis size parameters after reduction:
  | Total number of radial functions:       31
  | Total number of basis functions :    58880
 
  Per-task memory consumption for arrays in subroutine allocate_ext:
  |          13.104040MB.
  Testing on-site integration grid accuracy.
  |  Species  Function  <phi|h_atom|phi> (log., in eV)  <phi|h_atom|phi> (rad., in eV)
           1        1             -38834.8811451689             -38834.6647117858 ***
           1        2              -5930.8249573523              -5930.8213500928
           1        3              -1243.3952503758              -1243.3950981049
           1        4               -243.0293731306               -243.0293637457
           1        5                -33.5791537522                -33.5791529452
           1        6                 -3.1827621376                 -3.1788637959
           1        7              -5318.0196781015              -5318.0196729711
           1        8              -1048.7547900090              -1048.7547892014
           1        9               -180.3508090050               -180.3508070343
           1       10                -18.5885224437                -18.5885219680
           1       11                 -0.5551197312                 -0.5514583407
           1       12               -765.9086015434               -765.9086016335
           1       13                -89.4466817288                -89.4466807132
           1       14                 -1.8664710224                 -1.8661216369
           1       15                  1.6925289130                  1.6925894199
           2       16              -4883.9655584838              -4883.9621038685
           2       17               -535.3613797651               -535.3613465329
           2       18                -61.7819051437                -61.7819042958
           2       19                 -4.2003822752                 -4.2346685062 ***
           2       20               -443.7510567204               -443.7510565108
           2       21                -38.3045974414                -38.3045972667
           2       22                  0.2435515971                  0.2278546356
           2       23                 -4.0209566986                 -4.0233253492
           2       24                  6.1945918217                  6.1160653784 ***
           2       25                 27.5350749887                 27.5351945928
           3       26               -511.1960429777               -511.1959399133
           3       27                 14.8973166466                 14.8974402823
           3       28                -21.2682165807                -21.2682317485
           3       29                 -9.1890598667                 -9.1892026751
           3       30                  8.1915160719                  8.1720639763
           3       31                 45.8005976646                 45.8005620229
 * Note: Onsite integrals marked "***" above are less accurate than
 * onsite_accuracy_threshold =    0.03000 eV. Usually, this is harmless.
 * However, one integral did have a negative value. This integral could be important.
 * When in doubt, tighten the "radial" and/or "radial_multiplier" flags to check.

  Preparing densities etc. for the partition functions (integrals / Hartree potential).

  Preparations completed.
  max(cpu_time)          :      0.345 s.
  Wall clock time (cpu1) :      0.395 s.
------------------------------------------------------------
  After prepare_scf [GB]:    486.84

  Initializing index lists of integration centers etc. from given atomic structure:
  Mapping all atomic coordinates to central unit cell.

  Initializing the k-points
  Using symmetry for reducing the k-points
  | k-points reduced from:        8 to        8
  | Number of k-points                             :         8
  The eigenvectors in the calculations are COMPLEX.
  | Number of basis functions in the Hamiltonian integrals       :    113087
  | Number of basis functions in a single unit cell              :     58880
  | Number of centers in hartree potential                       :     13811
  | Number of centers in hartree multipole                       :     11477
  | Number of centers in electron density summation              :      9843
  | Number of centers in basis integrals                         :      9970
  | Number of centers in integrals                               :      5623
  | Number of centers in hamiltonian                             :     12018
  | Number of centers in partition table from touching 0-cell    :      5623
  | Number of centers in partition table total                   :      9970
  | Consuming          3 KiB for k_phase.
  | Number of super-cells (origin) [n_cells]                     :          27
  | Number of super-cells (after PM_index) [n_cells]             :          28
  | Number of super-cells in hamiltonian [n_cells_in_hamiltonian]:          28
  | Size of matrix packed + index [n_hamiltonian_matrix_size]    :   144852481
  After initialize_bc_dependent_lists [GB]:    486.06

------------------------------------------------------------
          Begin self-consistency loop: Initialization.

          Date     :  20260614, Time     :  113838.754
------------------------------------------------------------
  Available memory per node after initialize_hartree_non_periodic_ewald [GB]:    486.04
  | Estimated reciprocal-space cutoff momentum G_max:         2.91122268 bohr^-1 .
  | Reciprocal lattice points for long-range Hartree potential:   88598
  Available memory per node after initialize_recip_hartree_potential [GB]:    486.03
  Using simple linear distribution as default method for k-point parallelism.
  * Using 800 tasks for Scalapack Eigenvalue solver.
  Detailed listing of tasks and assigned k-points:
   Task     0 k-point     1 on vipc2146
   Task     1 k-point     1 on vipc2146
   Task     2 k-point     1 on vipc2146
   Task     3 k-point     1 on vipc2146
   Task     4 k-point     1 on vipc2146
   Task     5 k-point     1 on vipc2146
   Task     6 k-point     1 on vipc2146
   Task     7 k-point     1 on vipc2146
   Task     8 k-point     1 on vipc2146
   Task     9 k-point     1 on vipc2146
   Task    10 k-point     1 on vipc2146
   Task    11 k-point     1 on vipc2146
   Task    12 k-point     1 on vipc2146
   Task    13 k-point     1 on vipc2146
   Task    14 k-point     1 on vipc2146
   Task    15 k-point     1 on vipc2146
   Task    16 k-point     1 on vipc2146
   Task    17 k-point     1 on vipc2146
   Task    18 k-point     1 on vipc2146
   Task    19 k-point     1 on vipc2146
   Task    20 k-point     1 on vipc2146
   Task    21 k-point     1 on vipc2146
   Task    22 k-point     1 on vipc2146
   Task    23 k-point     1 on vipc2146
   Task    24 k-point     1 on vipc2146
   Task    25 k-point     1 on vipc2146
   Task    26 k-point     1 on vipc2146
   Task    27 k-point     1 on vipc2146
   Task    28 k-point     1 on vipc2146
   Task    29 k-point     1 on vipc2146
   Task    30 k-point     1 on vipc2146
   Task    31 k-point     1 on vipc2146
   Task    32 k-point     1 on vipc2146
   Task    33 k-point     1 on vipc2146
   Task    34 k-point     1 on vipc2146
   Task    35 k-point     1 on vipc2146
   Task    36 k-point     1 on vipc2146
   Task    37 k-point     1 on vipc2146
   Task    38 k-point     1 on vipc2146
   Task    39 k-point     1 on vipc2146
   Task    40 k-point     1 on vipc2146
   Task    41 k-point     1 on vipc2146
   Task    42 k-point     1 on vipc2146
   Task    43 k-point     1 on vipc2146
   Task    44 k-point     1 on vipc2146
   Task    45 k-point     1 on vipc2146
   Task    46 k-point     1 on vipc2146
   Task    47 k-point     1 on vipc2146
   Task    48 k-point     1 on vipc2146
   Task    49 k-point     1 on vipc2146
   Task    50 k-point     1 on vipc2146
   Task    51 k-point     1 on vipc2146
   Task    52 k-point     1 on vipc2146
   Task    53 k-point     1 on vipc2146
   Task    54 k-point     1 on vipc2146
   Task    55 k-point     1 on vipc2146
   Task    56 k-point     1 on vipc2146
   Task    57 k-point     1 on vipc2146
   Task    58 k-point     1 on vipc2146
   Task    59 k-point     1 on vipc2146
   Task    60 k-point     1 on vipc2146
   Task    61 k-point     1 on vipc2146
   Task    62 k-point     1 on vipc2146
   Task    63 k-point     1 on vipc2146
   Task    64 k-point     1 on vipc2146
   Task    65 k-point     1 on vipc2146
   Task    66 k-point     1 on vipc2146
   Task    67 k-point     1 on vipc2146
   Task    68 k-point     1 on vipc2146
   Task    69 k-point     1 on vipc2146
   Task    70 k-point     1 on vipc2146
   Task    71 k-point     1 on vipc2146
   Task    72 k-point     1 on vipc2146
   Task    73 k-point     1 on vipc2146
   Task    74 k-point     1 on vipc2146
   Task    75 k-point     1 on vipc2146
   Task    76 k-point     1 on vipc2146
   Task    77 k-point     1 on vipc2146
   Task    78 k-point     1 on vipc2146
   Task    79 k-point     1 on vipc2146
   Task    80 k-point     1 on vipc2146
   Task    81 k-point     1 on vipc2146
   Task    82 k-point     1 on vipc2146
   Task    83 k-point     1 on vipc2146
   Task    84 k-point     1 on vipc2146
   Task    85 k-point     1 on vipc2146
   Task    86 k-point     1 on vipc2146
   Task    87 k-point     1 on vipc2146
   Task    88 k-point     1 on vipc2146
   Task    89 k-point     1 on vipc2146
   Task    90 k-point     1 on vipc2146
   Task    91 k-point     1 on vipc2146
   Task    92 k-point     1 on vipc2146
   Task    93 k-point     1 on vipc2146
   Task    94 k-point     1 on vipc2146
   Task    95 k-point     1 on vipc2146
   Task    96 k-point     1 on vipc2146
   Task    97 k-point     1 on vipc2146
   Task    98 k-point     1 on vipc2146
   Task    99 k-point     1 on vipc2146
   Task   100 k-point     2 on vipc2146
   Task   101 k-point     2 on vipc2146
   Task   102 k-point     2 on vipc2146
   Task   103 k-point     2 on vipc2146
   Task   104 k-point     2 on vipc2146
   Task   105 k-point     2 on vipc2146
   Task   106 k-point     2 on vipc2146
   Task   107 k-point     2 on vipc2146
   Task   108 k-point     2 on vipc2146
   Task   109 k-point     2 on vipc2146
   Task   110 k-point     2 on vipc2146
   Task   111 k-point     2 on vipc2146
   Task   112 k-point     2 on vipc2146
   Task   113 k-point     2 on vipc2146
   Task   114 k-point     2 on vipc2146
   Task   115 k-point     2 on vipc2152
   Task   116 k-point     2 on vipc2152
   Task   117 k-point     2 on vipc2152
   Task   118 k-point     2 on vipc2152
   Task   119 k-point     2 on vipc2152
   Task   120 k-point     2 on vipc2152
   Task   121 k-point     2 on vipc2152
   Task   122 k-point     2 on vipc2152
   Task   123 k-point     2 on vipc2152
   Task   124 k-point     2 on vipc2152
   Task   125 k-point     2 on vipc2152
   Task   126 k-point     2 on vipc2152
   Task   127 k-point     2 on vipc2152
   Task   128 k-point     2 on vipc2152
   Task   129 k-point     2 on vipc2152
   Task   130 k-point     2 on vipc2152
   Task   131 k-point     2 on vipc2152
   Task   132 k-point     2 on vipc2152
   Task   133 k-point     2 on vipc2152
   Task   134 k-point     2 on vipc2152
   Task   135 k-point     2 on vipc2152
   Task   136 k-point     2 on vipc2152
   Task   137 k-point     2 on vipc2152
   Task   138 k-point     2 on vipc2152
   Task   139 k-point     2 on vipc2152
   Task   140 k-point     2 on vipc2152
   Task   141 k-point     2 on vipc2152
   Task   142 k-point     2 on vipc2152
   Task   143 k-point     2 on vipc2152
   Task   144 k-point     2 on vipc2152
   Task   145 k-point     2 on vipc2152
   Task   146 k-point     2 on vipc2152
   Task   147 k-point     2 on vipc2152
   Task   148 k-point     2 on vipc2152
   Task   149 k-point     2 on vipc2152
   Task   150 k-point     2 on vipc2152
   Task   151 k-point     2 on vipc2152
   Task   152 k-point     2 on vipc2152
   Task   153 k-point     2 on vipc2152
   Task   154 k-point     2 on vipc2152
   Task   155 k-point     2 on vipc2152
   Task   156 k-point     2 on vipc2152
   Task   157 k-point     2 on vipc2152
   Task   158 k-point     2 on vipc2152
   Task   159 k-point     2 on vipc2152
   Task   160 k-point     2 on vipc2152
   Task   161 k-point     2 on vipc2152
   Task   162 k-point     2 on vipc2152
   Task   163 k-point     2 on vipc2152
   Task   164 k-point     2 on vipc2152
   Task   165 k-point     2 on vipc2152
   Task   166 k-point     2 on vipc2152
   Task   167 k-point     2 on vipc2152
   Task   168 k-point     2 on vipc2152
   Task   169 k-point     2 on vipc2152
   Task   170 k-point     2 on vipc2152
   Task   171 k-point     2 on vipc2152
   Task   172 k-point     2 on vipc2152
   Task   173 k-point     2 on vipc2152
   Task   174 k-point     2 on vipc2152
   Task   175 k-point     2 on vipc2152
   Task   176 k-point     2 on vipc2152
   Task   177 k-point     2 on vipc2152
   Task   178 k-point     2 on vipc2152
   Task   179 k-point     2 on vipc2152
   Task   180 k-point     2 on vipc2152
   Task   181 k-point     2 on vipc2152
   Task   182 k-point     2 on vipc2152
   Task   183 k-point     2 on vipc2152
   Task   184 k-point     2 on vipc2152
   Task   185 k-point     2 on vipc2152
   Task   186 k-point     2 on vipc2152
   Task   187 k-point     2 on vipc2152
   Task   188 k-point     2 on vipc2152
   Task   189 k-point     2 on vipc2152
   Task   190 k-point     2 on vipc2152
   Task   191 k-point     2 on vipc2152
   Task   192 k-point     2 on vipc2152
   Task   193 k-point     2 on vipc2152
   Task   194 k-point     2 on vipc2152
   Task   195 k-point     2 on vipc2152
   Task   196 k-point     2 on vipc2152
   Task   197 k-point     2 on vipc2152
   Task   198 k-point     2 on vipc2152
   Task   199 k-point     2 on vipc2152
   Task   200 k-point     3 on vipc2152
   Task   201 k-point     3 on vipc2152
   Task   202 k-point     3 on vipc2152
   Task   203 k-point     3 on vipc2152
   Task   204 k-point     3 on vipc2152
   Task   205 k-point     3 on vipc2152
   Task   206 k-point     3 on vipc2152
   Task   207 k-point     3 on vipc2152
   Task   208 k-point     3 on vipc2152
   Task   209 k-point     3 on vipc2152
   Task   210 k-point     3 on vipc2152
   Task   211 k-point     3 on vipc2152
   Task   212 k-point     3 on vipc2152
   Task   213 k-point     3 on vipc2152
   Task   214 k-point     3 on vipc2152
   Task   215 k-point     3 on vipc2152
   Task   216 k-point     3 on vipc2152
   Task   217 k-point     3 on vipc2152
   Task   218 k-point     3 on vipc2152
   Task   219 k-point     3 on vipc2152
   Task   220 k-point     3 on vipc2152
   Task   221 k-point     3 on vipc2152
   Task   222 k-point     3 on vipc2152
   Task   223 k-point     3 on vipc2152
   Task   224 k-point     3 on vipc2152
   Task   225 k-point     3 on vipc2152
   Task   226 k-point     3 on vipc2152
   Task   227 k-point     3 on vipc2152
   Task   228 k-point     3 on vipc2152
   Task   229 k-point     3 on vipc2152
   Task   230 k-point     3 on vipc2179
   Task   231 k-point     3 on vipc2179
   Task   232 k-point     3 on vipc2179
   Task   233 k-point     3 on vipc2179
   Task   234 k-point     3 on vipc2179
   Task   235 k-point     3 on vipc2179
   Task   236 k-point     3 on vipc2179
   Task   237 k-point     3 on vipc2179
   Task   238 k-point     3 on vipc2179
   Task   239 k-point     3 on vipc2179
   Task   240 k-point     3 on vipc2179
   Task   241 k-point     3 on vipc2179
   Task   242 k-point     3 on vipc2179
   Task   243 k-point     3 on vipc2179
   Task   244 k-point     3 on vipc2179
   Task   245 k-point     3 on vipc2179
   Task   246 k-point     3 on vipc2179
   Task   247 k-point     3 on vipc2179
   Task   248 k-point     3 on vipc2179
   Task   249 k-point     3 on vipc2179
   Task   250 k-point     3 on vipc2179
   Task   251 k-point     3 on vipc2179
   Task   252 k-point     3 on vipc2179
   Task   253 k-point     3 on vipc2179
   Task   254 k-point     3 on vipc2179
   Task   255 k-point     3 on vipc2179
   Task   256 k-point     3 on vipc2179
   Task   257 k-point     3 on vipc2179
   Task   258 k-point     3 on vipc2179
   Task   259 k-point     3 on vipc2179
   Task   260 k-point     3 on vipc2179
   Task   261 k-point     3 on vipc2179
   Task   262 k-point     3 on vipc2179
   Task   263 k-point     3 on vipc2179
   Task   264 k-point     3 on vipc2179
   Task   265 k-point     3 on vipc2179
   Task   266 k-point     3 on vipc2179
   Task   267 k-point     3 on vipc2179
   Task   268 k-point     3 on vipc2179
   Task   269 k-point     3 on vipc2179
   Task   270 k-point     3 on vipc2179
   Task   271 k-point     3 on vipc2179
   Task   272 k-point     3 on vipc2179
   Task   273 k-point     3 on vipc2179
   Task   274 k-point     3 on vipc2179
   Task   275 k-point     3 on vipc2179
   Task   276 k-point     3 on vipc2179
   Task   277 k-point     3 on vipc2179
   Task   278 k-point     3 on vipc2179
   Task   279 k-point     3 on vipc2179
   Task   280 k-point     3 on vipc2179
   Task   281 k-point     3 on vipc2179
   Task   282 k-point     3 on vipc2179
   Task   283 k-point     3 on vipc2179
   Task   284 k-point     3 on vipc2179
   Task   285 k-point     3 on vipc2179
   Task   286 k-point     3 on vipc2179
   Task   287 k-point     3 on vipc2179
   Task   288 k-point     3 on vipc2179
   Task   289 k-point     3 on vipc2179
   Task   290 k-point     3 on vipc2179
   Task   291 k-point     3 on vipc2179
   Task   292 k-point     3 on vipc2179
   Task   293 k-point     3 on vipc2179
   Task   294 k-point     3 on vipc2179
   Task   295 k-point     3 on vipc2179
   Task   296 k-point     3 on vipc2179
   Task   297 k-point     3 on vipc2179
   Task   298 k-point     3 on vipc2179
   Task   299 k-point     3 on vipc2179
   Task   300 k-point     4 on vipc2179
   Task   301 k-point     4 on vipc2179
   Task   302 k-point     4 on vipc2179
   Task   303 k-point     4 on vipc2179
   Task   304 k-point     4 on vipc2179
   Task   305 k-point     4 on vipc2179
   Task   306 k-point     4 on vipc2179
   Task   307 k-point     4 on vipc2179
   Task   308 k-point     4 on vipc2179
   Task   309 k-point     4 on vipc2179
   Task   310 k-point     4 on vipc2179
   Task   311 k-point     4 on vipc2179
   Task   312 k-point     4 on vipc2179
   Task   313 k-point     4 on vipc2179
   Task   314 k-point     4 on vipc2179
   Task   315 k-point     4 on vipc2179
   Task   316 k-point     4 on vipc2179
   Task   317 k-point     4 on vipc2179
   Task   318 k-point     4 on vipc2179
   Task   319 k-point     4 on vipc2179
   Task   320 k-point     4 on vipc2179
   Task   321 k-point     4 on vipc2179
   Task   322 k-point     4 on vipc2179
   Task   323 k-point     4 on vipc2179
   Task   324 k-point     4 on vipc2179
   Task   325 k-point     4 on vipc2179
   Task   326 k-point     4 on vipc2179
   Task   327 k-point     4 on vipc2179
   Task   328 k-point     4 on vipc2179
   Task   329 k-point     4 on vipc2179
   Task   330 k-point     4 on vipc2179
   Task   331 k-point     4 on vipc2179
   Task   332 k-point     4 on vipc2179
   Task   333 k-point     4 on vipc2179
   Task   334 k-point     4 on vipc2179
   Task   335 k-point     4 on vipc2179
   Task   336 k-point     4 on vipc2179
   Task   337 k-point     4 on vipc2179
   Task   338 k-point     4 on vipc2179
   Task   339 k-point     4 on vipc2179
   Task   340 k-point     4 on vipc2179
   Task   341 k-point     4 on vipc2179
   Task   342 k-point     4 on vipc2179
   Task   343 k-point     4 on vipc2179
   Task   344 k-point     4 on vipc2471
   Task   345 k-point     4 on vipc2471
   Task   346 k-point     4 on vipc2471
   Task   347 k-point     4 on vipc2471
   Task   348 k-point     4 on vipc2471
   Task   349 k-point     4 on vipc2471
   Task   350 k-point     4 on vipc2471
   Task   351 k-point     4 on vipc2471
   Task   352 k-point     4 on vipc2471
   Task   353 k-point     4 on vipc2471
   Task   354 k-point     4 on vipc2471
   Task   355 k-point     4 on vipc2471
   Task   356 k-point     4 on vipc2471
   Task   357 k-point     4 on vipc2471
   Task   358 k-point     4 on vipc2471
   Task   359 k-point     4 on vipc2471
   Task   360 k-point     4 on vipc2471
   Task   361 k-point     4 on vipc2471
   Task   362 k-point     4 on vipc2471
   Task   363 k-point     4 on vipc2471
   Task   364 k-point     4 on vipc2471
   Task   365 k-point     4 on vipc2471
   Task   366 k-point     4 on vipc2471
   Task   367 k-point     4 on vipc2471
   Task   368 k-point     4 on vipc2471
   Task   369 k-point     4 on vipc2471
   Task   370 k-point     4 on vipc2471
   Task   371 k-point     4 on vipc2471
   Task   372 k-point     4 on vipc2471
   Task   373 k-point     4 on vipc2471
   Task   374 k-point     4 on vipc2471
   Task   375 k-point     4 on vipc2471
   Task   376 k-point     4 on vipc2471
   Task   377 k-point     4 on vipc2471
   Task   378 k-point     4 on vipc2471
   Task   379 k-point     4 on vipc2471
   Task   380 k-point     4 on vipc2471
   Task   381 k-point     4 on vipc2471
   Task   382 k-point     4 on vipc2471
   Task   383 k-point     4 on vipc2471
   Task   384 k-point     4 on vipc2471
   Task   385 k-point     4 on vipc2471
   Task   386 k-point     4 on vipc2471
   Task   387 k-point     4 on vipc2471
   Task   388 k-point     4 on vipc2471
   Task   389 k-point     4 on vipc2471
   Task   390 k-point     4 on vipc2471
   Task   391 k-point     4 on vipc2471
   Task   392 k-point     4 on vipc2471
   Task   393 k-point     4 on vipc2471
   Task   394 k-point     4 on vipc2471
   Task   395 k-point     4 on vipc2471
   Task   396 k-point     4 on vipc2471
   Task   397 k-point     4 on vipc2471
   Task   398 k-point     4 on vipc2471
   Task   399 k-point     4 on vipc2471
   Task   400 k-point     5 on vipc2471
   Task   401 k-point     5 on vipc2471
   Task   402 k-point     5 on vipc2471
   Task   403 k-point     5 on vipc2471
   Task   404 k-point     5 on vipc2471
   Task   405 k-point     5 on vipc2471
   Task   406 k-point     5 on vipc2471
   Task   407 k-point     5 on vipc2471
   Task   408 k-point     5 on vipc2471
   Task   409 k-point     5 on vipc2471
   Task   410 k-point     5 on vipc2471
   Task   411 k-point     5 on vipc2471
   Task   412 k-point     5 on vipc2471
   Task   413 k-point     5 on vipc2471
   Task   414 k-point     5 on vipc2471
   Task   415 k-point     5 on vipc2471
   Task   416 k-point     5 on vipc2471
   Task   417 k-point     5 on vipc2471
   Task   418 k-point     5 on vipc2471
   Task   419 k-point     5 on vipc2471
   Task   420 k-point     5 on vipc2471
   Task   421 k-point     5 on vipc2471
   Task   422 k-point     5 on vipc2471
   Task   423 k-point     5 on vipc2471
   Task   424 k-point     5 on vipc2471
   Task   425 k-point     5 on vipc2471
   Task   426 k-point     5 on vipc2471
   Task   427 k-point     5 on vipc2471
   Task   428 k-point     5 on vipc2471
   Task   429 k-point     5 on vipc2471
   Task   430 k-point     5 on vipc2471
   Task   431 k-point     5 on vipc2471
   Task   432 k-point     5 on vipc2471
   Task   433 k-point     5 on vipc2471
   Task   434 k-point     5 on vipc2471
   Task   435 k-point     5 on vipc2471
   Task   436 k-point     5 on vipc2471
   Task   437 k-point     5 on vipc2471
   Task   438 k-point     5 on vipc2471
   Task   439 k-point     5 on vipc2471
   Task   440 k-point     5 on vipc2471
   Task   441 k-point     5 on vipc2471
   Task   442 k-point     5 on vipc2471
   Task   443 k-point     5 on vipc2471
   Task   444 k-point     5 on vipc2471
   Task   445 k-point     5 on vipc2471
   Task   446 k-point     5 on vipc2471
   Task   447 k-point     5 on vipc2471
   Task   448 k-point     5 on vipc2471
   Task   449 k-point     5 on vipc2471
   Task   450 k-point     5 on vipc2471
   Task   451 k-point     5 on vipc2471
   Task   452 k-point     5 on vipc2471
   Task   453 k-point     5 on vipc2471
   Task   454 k-point     5 on vipc2471
   Task   455 k-point     5 on vipc2471
   Task   456 k-point     5 on vipc2471
   Task   457 k-point     5 on vipc2471
   Task   458 k-point     5 on vipc2473
   Task   459 k-point     5 on vipc2473
   Task   460 k-point     5 on vipc2473
   Task   461 k-point     5 on vipc2473
   Task   462 k-point     5 on vipc2473
   Task   463 k-point     5 on vipc2473
   Task   464 k-point     5 on vipc2473
   Task   465 k-point     5 on vipc2473
   Task   466 k-point     5 on vipc2473
   Task   467 k-point     5 on vipc2473
   Task   468 k-point     5 on vipc2473
   Task   469 k-point     5 on vipc2473
   Task   470 k-point     5 on vipc2473
   Task   471 k-point     5 on vipc2473
   Task   472 k-point     5 on vipc2473
   Task   473 k-point     5 on vipc2473
   Task   474 k-point     5 on vipc2473
   Task   475 k-point     5 on vipc2473
   Task   476 k-point     5 on vipc2473
   Task   477 k-point     5 on vipc2473
   Task   478 k-point     5 on vipc2473
   Task   479 k-point     5 on vipc2473
   Task   480 k-point     5 on vipc2473
   Task   481 k-point     5 on vipc2473
   Task   482 k-point     5 on vipc2473
   Task   483 k-point     5 on vipc2473
   Task   484 k-point     5 on vipc2473
   Task   485 k-point     5 on vipc2473
   Task   486 k-point     5 on vipc2473
   Task   487 k-point     5 on vipc2473
   Task   488 k-point     5 on vipc2473
   Task   489 k-point     5 on vipc2473
   Task   490 k-point     5 on vipc2473
   Task   491 k-point     5 on vipc2473
   Task   492 k-point     5 on vipc2473
   Task   493 k-point     5 on vipc2473
   Task   494 k-point     5 on vipc2473
   Task   495 k-point     5 on vipc2473
   Task   496 k-point     5 on vipc2473
   Task   497 k-point     5 on vipc2473
   Task   498 k-point     5 on vipc2473
   Task   499 k-point     5 on vipc2473
   Task   500 k-point     6 on vipc2473
   Task   501 k-point     6 on vipc2473
   Task   502 k-point     6 on vipc2473
   Task   503 k-point     6 on vipc2473
   Task   504 k-point     6 on vipc2473
   Task   505 k-point     6 on vipc2473
   Task   506 k-point     6 on vipc2473
   Task   507 k-point     6 on vipc2473
   Task   508 k-point     6 on vipc2473
   Task   509 k-point     6 on vipc2473
   Task   510 k-point     6 on vipc2473
   Task   511 k-point     6 on vipc2473
   Task   512 k-point     6 on vipc2473
   Task   513 k-point     6 on vipc2473
   Task   514 k-point     6 on vipc2473
   Task   515 k-point     6 on vipc2473
   Task   516 k-point     6 on vipc2473
   Task   517 k-point     6 on vipc2473
   Task   518 k-point     6 on vipc2473
   Task   519 k-point     6 on vipc2473
   Task   520 k-point     6 on vipc2473
   Task   521 k-point     6 on vipc2473
   Task   522 k-point     6 on vipc2473
   Task   523 k-point     6 on vipc2473
   Task   524 k-point     6 on vipc2473
   Task   525 k-point     6 on vipc2473
   Task   526 k-point     6 on vipc2473
   Task   527 k-point     6 on vipc2473
   Task   528 k-point     6 on vipc2473
   Task   529 k-point     6 on vipc2473
   Task   530 k-point     6 on vipc2473
   Task   531 k-point     6 on vipc2473
   Task   532 k-point     6 on vipc2473
   Task   533 k-point     6 on vipc2473
   Task   534 k-point     6 on vipc2473
   Task   535 k-point     6 on vipc2473
   Task   536 k-point     6 on vipc2473
   Task   537 k-point     6 on vipc2473
   Task   538 k-point     6 on vipc2473
   Task   539 k-point     6 on vipc2473
   Task   540 k-point     6 on vipc2473
   Task   541 k-point     6 on vipc2473
   Task   542 k-point     6 on vipc2473
   Task   543 k-point     6 on vipc2473
   Task   544 k-point     6 on vipc2473
   Task   545 k-point     6 on vipc2473
   Task   546 k-point     6 on vipc2473
   Task   547 k-point     6 on vipc2473
   Task   548 k-point     6 on vipc2473
   Task   549 k-point     6 on vipc2473
   Task   550 k-point     6 on vipc2473
   Task   551 k-point     6 on vipc2473
   Task   552 k-point     6 on vipc2473
   Task   553 k-point     6 on vipc2473
   Task   554 k-point     6 on vipc2473
   Task   555 k-point     6 on vipc2473
   Task   556 k-point     6 on vipc2473
   Task   557 k-point     6 on vipc2473
   Task   558 k-point     6 on vipc2473
   Task   559 k-point     6 on vipc2473
   Task   560 k-point     6 on vipc2473
   Task   561 k-point     6 on vipc2473
   Task   562 k-point     6 on vipc2473
   Task   563 k-point     6 on vipc2473
   Task   564 k-point     6 on vipc2473
   Task   565 k-point     6 on vipc2473
   Task   566 k-point     6 on vipc2473
   Task   567 k-point     6 on vipc2473
   Task   568 k-point     6 on vipc2473
   Task   569 k-point     6 on vipc2473
   Task   570 k-point     6 on vipc2473
   Task   571 k-point     6 on vipc2473
   Task   572 k-point     6 on vipc2480
   Task   573 k-point     6 on vipc2480
   Task   574 k-point     6 on vipc2480
   Task   575 k-point     6 on vipc2480
   Task   576 k-point     6 on vipc2480
   Task   577 k-point     6 on vipc2480
   Task   578 k-point     6 on vipc2480
   Task   579 k-point     6 on vipc2480
   Task   580 k-point     6 on vipc2480
   Task   581 k-point     6 on vipc2480
   Task   582 k-point     6 on vipc2480
   Task   583 k-point     6 on vipc2480
   Task   584 k-point     6 on vipc2480
   Task   585 k-point     6 on vipc2480
   Task   586 k-point     6 on vipc2480
   Task   587 k-point     6 on vipc2480
   Task   588 k-point     6 on vipc2480
   Task   589 k-point     6 on vipc2480
   Task   590 k-point     6 on vipc2480
   Task   591 k-point     6 on vipc2480
   Task   592 k-point     6 on vipc2480
   Task   593 k-point     6 on vipc2480
   Task   594 k-point     6 on vipc2480
   Task   595 k-point     6 on vipc2480
   Task   596 k-point     6 on vipc2480
   Task   597 k-point     6 on vipc2480
   Task   598 k-point     6 on vipc2480
   Task   599 k-point     6 on vipc2480
   Task   600 k-point     7 on vipc2480
   Task   601 k-point     7 on vipc2480
   Task   602 k-point     7 on vipc2480
   Task   603 k-point     7 on vipc2480
   Task   604 k-point     7 on vipc2480
   Task   605 k-point     7 on vipc2480
   Task   606 k-point     7 on vipc2480
   Task   607 k-point     7 on vipc2480
   Task   608 k-point     7 on vipc2480
   Task   609 k-point     7 on vipc2480
   Task   610 k-point     7 on vipc2480
   Task   611 k-point     7 on vipc2480
   Task   612 k-point     7 on vipc2480
   Task   613 k-point     7 on vipc2480
   Task   614 k-point     7 on vipc2480
   Task   615 k-point     7 on vipc2480
   Task   616 k-point     7 on vipc2480
   Task   617 k-point     7 on vipc2480
   Task   618 k-point     7 on vipc2480
   Task   619 k-point     7 on vipc2480
   Task   620 k-point     7 on vipc2480
   Task   621 k-point     7 on vipc2480
   Task   622 k-point     7 on vipc2480
   Task   623 k-point     7 on vipc2480
   Task   624 k-point     7 on vipc2480
   Task   625 k-point     7 on vipc2480
   Task   626 k-point     7 on vipc2480
   Task   627 k-point     7 on vipc2480
   Task   628 k-point     7 on vipc2480
   Task   629 k-point     7 on vipc2480
   Task   630 k-point     7 on vipc2480
   Task   631 k-point     7 on vipc2480
   Task   632 k-point     7 on vipc2480
   Task   633 k-point     7 on vipc2480
   Task   634 k-point     7 on vipc2480
   Task   635 k-point     7 on vipc2480
   Task   636 k-point     7 on vipc2480
   Task   637 k-point     7 on vipc2480
   Task   638 k-point     7 on vipc2480
   Task   639 k-point     7 on vipc2480
   Task   640 k-point     7 on vipc2480
   Task   641 k-point     7 on vipc2480
   Task   642 k-point     7 on vipc2480
   Task   643 k-point     7 on vipc2480
   Task   644 k-point     7 on vipc2480
   Task   645 k-point     7 on vipc2480
   Task   646 k-point     7 on vipc2480
   Task   647 k-point     7 on vipc2480
   Task   648 k-point     7 on vipc2480
   Task   649 k-point     7 on vipc2480
   Task   650 k-point     7 on vipc2480
   Task   651 k-point     7 on vipc2480
   Task   652 k-point     7 on vipc2480
   Task   653 k-point     7 on vipc2480
   Task   654 k-point     7 on vipc2480
   Task   655 k-point     7 on vipc2480
   Task   656 k-point     7 on vipc2480
   Task   657 k-point     7 on vipc2480
   Task   658 k-point     7 on vipc2480
   Task   659 k-point     7 on vipc2480
   Task   660 k-point     7 on vipc2480
   Task   661 k-point     7 on vipc2480
   Task   662 k-point     7 on vipc2480
   Task   663 k-point     7 on vipc2480
   Task   664 k-point     7 on vipc2480
   Task   665 k-point     7 on vipc2480
   Task   666 k-point     7 on vipc2480
   Task   667 k-point     7 on vipc2480
   Task   668 k-point     7 on vipc2480
   Task   669 k-point     7 on vipc2480
   Task   670 k-point     7 on vipc2480
   Task   671 k-point     7 on vipc2480
   Task   672 k-point     7 on vipc2480
   Task   673 k-point     7 on vipc2480
   Task   674 k-point     7 on vipc2480
   Task   675 k-point     7 on vipc2480
   Task   676 k-point     7 on vipc2480
   Task   677 k-point     7 on vipc2480
   Task   678 k-point     7 on vipc2480
   Task   679 k-point     7 on vipc2480
   Task   680 k-point     7 on vipc2480
   Task   681 k-point     7 on vipc2480
   Task   682 k-point     7 on vipc2480
   Task   683 k-point     7 on vipc2480
   Task   684 k-point     7 on vipc2480
   Task   685 k-point     7 on vipc2480
   Task   686 k-point     7 on vipc2533
   Task   687 k-point     7 on vipc2533
   Task   688 k-point     7 on vipc2533
   Task   689 k-point     7 on vipc2533
   Task   690 k-point     7 on vipc2533
   Task   691 k-point     7 on vipc2533
   Task   692 k-point     7 on vipc2533
   Task   693 k-point     7 on vipc2533
   Task   694 k-point     7 on vipc2533
   Task   695 k-point     7 on vipc2533
   Task   696 k-point     7 on vipc2533
   Task   697 k-point     7 on vipc2533
   Task   698 k-point     7 on vipc2533
   Task   699 k-point     7 on vipc2533
   Task   700 k-point     8 on vipc2533
   Task   701 k-point     8 on vipc2533
   Task   702 k-point     8 on vipc2533
   Task   703 k-point     8 on vipc2533
   Task   704 k-point     8 on vipc2533
   Task   705 k-point     8 on vipc2533
   Task   706 k-point     8 on vipc2533
   Task   707 k-point     8 on vipc2533
   Task   708 k-point     8 on vipc2533
   Task   709 k-point     8 on vipc2533
   Task   710 k-point     8 on vipc2533
   Task   711 k-point     8 on vipc2533
   Task   712 k-point     8 on vipc2533
   Task   713 k-point     8 on vipc2533
   Task   714 k-point     8 on vipc2533
   Task   715 k-point     8 on vipc2533
   Task   716 k-point     8 on vipc2533
   Task   717 k-point     8 on vipc2533
   Task   718 k-point     8 on vipc2533
   Task   719 k-point     8 on vipc2533
   Task   720 k-point     8 on vipc2533
   Task   721 k-point     8 on vipc2533
   Task   722 k-point     8 on vipc2533
   Task   723 k-point     8 on vipc2533
   Task   724 k-point     8 on vipc2533
   Task   725 k-point     8 on vipc2533
   Task   726 k-point     8 on vipc2533
   Task   727 k-point     8 on vipc2533
   Task   728 k-point     8 on vipc2533
   Task   729 k-point     8 on vipc2533
   Task   730 k-point     8 on vipc2533
   Task   731 k-point     8 on vipc2533
   Task   732 k-point     8 on vipc2533
   Task   733 k-point     8 on vipc2533
   Task   734 k-point     8 on vipc2533
   Task   735 k-point     8 on vipc2533
   Task   736 k-point     8 on vipc2533
   Task   737 k-point     8 on vipc2533
   Task   738 k-point     8 on vipc2533
   Task   739 k-point     8 on vipc2533
   Task   740 k-point     8 on vipc2533
   Task   741 k-point     8 on vipc2533
   Task   742 k-point     8 on vipc2533
   Task   743 k-point     8 on vipc2533
   Task   744 k-point     8 on vipc2533
   Task   745 k-point     8 on vipc2533
   Task   746 k-point     8 on vipc2533
   Task   747 k-point     8 on vipc2533
   Task   748 k-point     8 on vipc2533
   Task   749 k-point     8 on vipc2533
   Task   750 k-point     8 on vipc2533
   Task   751 k-point     8 on vipc2533
   Task   752 k-point     8 on vipc2533
   Task   753 k-point     8 on vipc2533
   Task   754 k-point     8 on vipc2533
   Task   755 k-point     8 on vipc2533
   Task   756 k-point     8 on vipc2533
   Task   757 k-point     8 on vipc2533
   Task   758 k-point     8 on vipc2533
   Task   759 k-point     8 on vipc2533
   Task   760 k-point     8 on vipc2533
   Task   761 k-point     8 on vipc2533
   Task   762 k-point     8 on vipc2533
   Task   763 k-point     8 on vipc2533
   Task   764 k-point     8 on vipc2533
   Task   765 k-point     8 on vipc2533
   Task   766 k-point     8 on vipc2533
   Task   767 k-point     8 on vipc2533
   Task   768 k-point     8 on vipc2533
   Task   769 k-point     8 on vipc2533
   Task   770 k-point     8 on vipc2533
   Task   771 k-point     8 on vipc2533
   Task   772 k-point     8 on vipc2533
   Task   773 k-point     8 on vipc2533
   Task   774 k-point     8 on vipc2533
   Task   775 k-point     8 on vipc2533
   Task   776 k-point     8 on vipc2533
   Task   777 k-point     8 on vipc2533
   Task   778 k-point     8 on vipc2533
   Task   779 k-point     8 on vipc2533
   Task   780 k-point     8 on vipc2533
   Task   781 k-point     8 on vipc2533
   Task   782 k-point     8 on vipc2533
   Task   783 k-point     8 on vipc2533
   Task   784 k-point     8 on vipc2533
   Task   785 k-point     8 on vipc2533
   Task   786 k-point     8 on vipc2533
   Task   787 k-point     8 on vipc2533
   Task   788 k-point     8 on vipc2533
   Task   789 k-point     8 on vipc2533
   Task   790 k-point     8 on vipc2533
   Task   791 k-point     8 on vipc2533
   Task   792 k-point     8 on vipc2533
   Task   793 k-point     8 on vipc2533
   Task   794 k-point     8 on vipc2533
   Task   795 k-point     8 on vipc2533
   Task   796 k-point     8 on vipc2533
   Task   797 k-point     8 on vipc2533
   Task   798 k-point     8 on vipc2533
   Task   799 k-point     8 on vipc2533
  K-point:     1 Tasks:   100 split into     10 X     10 BLACS grid
  Calculating block size based on n_basis =        58880  max_nprow =           10  max_npcol =           10
  ScaLAPACK block size set to:           16
  Allocating      529.000 MB for ovlp_complex
  Allocating      529.000 MB for ham_complex
  Allocating      529.000 MB for eigenvec_complex
  Required Scalapack workspace - INTEGER:            1  REAL:             1  COMPLEX:            1
  Available memory per node after initialize_scalapack [GB]:    300.40
  Available memory per node after aims_elsi_init_scf [GB]:    300.40
  Available memory per node after initialize_fixed_grids [GB]:    300.36
  Partitioning the integration grid into batches with parallel hashing+maxmin method.
  | Number of batches:   203360
  | Maximal batch size:     134
  | Minimal batch size:      54
  | Average batch size:      72.293
  | Standard deviation of batch sizes:       8.340

  Integration load balanced across    800 MPI tasks.
  Work distribution over tasks is as follows:
  Task      0 has      18438 integration points.
  Task      1 has      18391 integration points.
  Task      2 has      18381 integration points.
  Task      3 has      18438 integration points.
  Task      4 has      18380 integration points.
  Task      5 has      18306 integration points.
  Task      6 has      18422 integration points.
  Task      7 has      18382 integration points.
  Task      8 has      18311 integration points.
  Task      9 has      18422 integration points.
  Task     10 has      18371 integration points.
  Task     11 has      18318 integration points.
  Task     12 has      18423 integration points.
  Task     13 has      18384 integration points.
  Task     14 has      18365 integration points.
  Task     15 has      18411 integration points.
  Task     16 has      18410 integration points.
  Task     17 has      18287 integration points.
  Task     18 has      18458 integration points.
  Task     19 has      18427 integration points.
  Task     20 has      18321 integration points.
  Task     21 has      18396 integration points.
  Task     22 has      18325 integration points.
  Task     23 has      18397 integration points.
  Task     24 has      18320 integration points.
  Task     25 has      18438 integration points.
  Task     26 has      18391 integration points.
  Task     27 has      18381 integration points.
  Task     28 has      18438 integration points.
  Task     29 has      18380 integration points.
  Task     30 has      18306 integration points.
  Task     31 has      18422 integration points.
  Task     32 has      18382 integration points.
  Task     33 has      18311 integration points.
  Task     34 has      18422 integration points.
  Task     35 has      18371 integration points.
  Task     36 has      18318 integration points.
  Task     37 has      18432 integration points.
  Task     38 has      18436 integration points.
  Task     39 has      18295 integration points.
  Task     40 has      18422 integration points.
  Task     41 has      18443 integration points.
  Task     42 has      18272 integration points.
  Task     43 has      18388 integration points.
  Task     44 has      18418 integration points.
  Task     45 has      18322 integration points.
  Task     46 has      18388 integration points.
  Task     47 has      18325 integration points.
  Task     48 has      18397 integration points.
  Task     49 has      18315 integration points.
  Task     50 has      18426 integration points.
  Task     51 has      18381 integration points.
  Task     52 has      18344 integration points.
  Task     53 has      18426 integration points.
  Task     54 has      18381 integration points.
  Task     55 has      18344 integration points.
  Task     56 has      18387 integration points.
  Task     57 has      18416 integration points.
  Task     58 has      18354 integration points.
  Task     59 has      18387 integration points.
  Task     60 has      18416 integration points.
  Task     61 has      18299 integration points.
  Task     62 has      18421 integration points.
  Task     63 has      18395 integration points.
  Task     64 has      18354 integration points.
  Task     65 has      18480 integration points.
  Task     66 has      18372 integration points.
  Task     67 has      18295 integration points.
  Task     68 has      18416 integration points.
  Task     69 has      18414 integration points.
  Task     70 has      18306 integration points.
  Task     71 has      18399 integration points.
  Task     72 has      18315 integration points.
  Task     73 has      18399 integration points.
  Task     74 has      18315 integration points.
  Task     75 has      18426 integration points.
  Task     76 has      18381 integration points.
  Task     77 has      18344 integration points.
  Task     78 has      18426 integration points.
  Task     79 has      18381 integration points.
  Task     80 has      18344 integration points.
  Task     81 has      18387 integration points.
  Task     82 has      18416 integration points.
  Task     83 has      18299 integration points.
  Task     84 has      18387 integration points.
  Task     85 has      18416 integration points.
  Task     86 has      18299 integration points.
  Task     87 has      18421 integration points.
  Task     88 has      18386 integration points.
  Task     89 has      18354 integration points.
  Task     90 has      18480 integration points.
  Task     91 has      18355 integration points.
  Task     92 has      18295 integration points.
  Task     93 has      18416 integration points.
  Task     94 has      18426 integration points.
  Task     95 has      18306 integration points.
  Task     96 has      18399 integration points.
  Task     97 has      18315 integration points.
  Task     98 has      18399 integration points.
  Task     99 has      18315 integration points.
  Task    100 has      18438 integration points.
  Task    101 has      18391 integration points.
  Task    102 has      18381 integration points.
  Task    103 has      18438 integration points.
  Task    104 has      18380 integration points.
  Task    105 has      18306 integration points.
  Task    106 has      18422 integration points.
  Task    107 has      18382 integration points.
  Task    108 has      18311 integration points.
  Task    109 has      18422 integration points.
  Task    110 has      18371 integration points.
  Task    111 has      18318 integration points.
  Task    112 has      18423 integration points.
  Task    113 has      18384 integration points.
  Task    114 has      18365 integration points.
  Task    115 has      18411 integration points.
  Task    116 has      18410 integration points.
  Task    117 has      18287 integration points.
  Task    118 has      18458 integration points.
  Task    119 has      18427 integration points.
  Task    120 has      18321 integration points.
  Task    121 has      18396 integration points.
  Task    122 has      18325 integration points.
  Task    123 has      18397 integration points.
  Task    124 has      18320 integration points.
  Task    125 has      18438 integration points.
  Task    126 has      18391 integration points.
  Task    127 has      18381 integration points.
  Task    128 has      18438 integration points.
  Task    129 has      18380 integration points.
  Task    130 has      18306 integration points.
  Task    131 has      18422 integration points.
  Task    132 has      18382 integration points.
  Task    133 has      18311 integration points.
  Task    134 has      18422 integration points.
  Task    135 has      18371 integration points.
  Task    136 has      18318 integration points.
  Task    137 has      18432 integration points.
  Task    138 has      18436 integration points.
  Task    139 has      18295 integration points.
  Task    140 has      18422 integration points.
  Task    141 has      18443 integration points.
  Task    142 has      18272 integration points.
  Task    143 has      18388 integration points.
  Task    144 has      18418 integration points.
  Task    145 has      18322 integration points.
  Task    146 has      18388 integration points.
  Task    147 has      18325 integration points.
  Task    148 has      18397 integration points.
  Task    149 has      18315 integration points.
  Task    150 has      18426 integration points.
  Task    151 has      18381 integration points.
  Task    152 has      18344 integration points.
  Task    153 has      18426 integration points.
  Task    154 has      18381 integration points.
  Task    155 has      18344 integration points.
  Task    156 has      18387 integration points.
  Task    157 has      18416 integration points.
  Task    158 has      18354 integration points.
  Task    159 has      18387 integration points.
  Task    160 has      18416 integration points.
  Task    161 has      18299 integration points.
  Task    162 has      18421 integration points.
  Task    163 has      18395 integration points.
  Task    164 has      18354 integration points.
  Task    165 has      18480 integration points.
  Task    166 has      18372 integration points.
  Task    167 has      18295 integration points.
  Task    168 has      18416 integration points.
  Task    169 has      18414 integration points.
  Task    170 has      18306 integration points.
  Task    171 has      18399 integration points.
  Task    172 has      18315 integration points.
  Task    173 has      18399 integration points.
  Task    174 has      18315 integration points.
  Task    175 has      18426 integration points.
  Task    176 has      18381 integration points.
  Task    177 has      18344 integration points.
  Task    178 has      18426 integration points.
  Task    179 has      18381 integration points.
  Task    180 has      18344 integration points.
  Task    181 has      18387 integration points.
  Task    182 has      18416 integration points.
  Task    183 has      18299 integration points.
  Task    184 has      18387 integration points.
  Task    185 has      18416 integration points.
  Task    186 has      18299 integration points.
  Task    187 has      18421 integration points.
  Task    188 has      18386 integration points.
  Task    189 has      18354 integration points.
  Task    190 has      18480 integration points.
  Task    191 has      18355 integration points.
  Task    192 has      18295 integration points.
  Task    193 has      18416 integration points.
  Task    194 has      18426 integration points.
  Task    195 has      18306 integration points.
  Task    196 has      18399 integration points.
  Task    197 has      18315 integration points.
  Task    198 has      18399 integration points.
  Task    199 has      18315 integration points.
  Task    200 has      18438 integration points.
  Task    201 has      18391 integration points.
  Task    202 has      18381 integration points.
  Task    203 has      18438 integration points.
  Task    204 has      18379 integration points.
  Task    205 has      18306 integration points.
  Task    206 has      18429 integration points.
  Task    207 has      18400 integration points.
  Task    208 has      18376 integration points.
  Task    209 has      18360 integration points.
  Task    210 has      18381 integration points.
  Task    211 has      18317 integration points.
  Task    212 has      18423 integration points.
  Task    213 has      18384 integration points.
  Task    214 has      18362 integration points.
  Task    215 has      18422 integration points.
  Task    216 has      18374 integration points.
  Task    217 has      18358 integration points.
  Task    218 has      18392 integration points.
  Task    219 has      18427 integration points.
  Task    220 has      18330 integration points.
  Task    221 has      18454 integration points.
  Task    222 has      18325 integration points.
  Task    223 has      18397 integration points.
  Task    224 has      18246 integration points.
  Task    225 has      18422 integration points.
  Task    226 has      18443 integration points.
  Task    227 has      18336 integration points.
  Task    228 has      18417 integration points.
  Task    229 has      18356 integration points.
  Task    230 has      18354 integration points.
  Task    231 has      18459 integration points.
  Task    232 has      18405 integration points.
  Task    233 has      18342 integration points.
  Task    234 has      18386 integration points.
  Task    235 has      18400 integration points.
  Task    236 has      18261 integration points.
  Task    237 has      18454 integration points.
  Task    238 has      18451 integration points.
  Task    239 has      18288 integration points.
  Task    240 has      18391 integration points.
  Task    241 has      18370 integration points.
  Task    242 has      18361 integration points.
  Task    243 has      18395 integration points.
  Task    244 has      18406 integration points.
  Task    245 has      18297 integration points.
  Task    246 has      18421 integration points.
  Task    247 has      18379 integration points.
  Task    248 has      18334 integration points.
  Task    249 has      18307 integration points.
  Task    250 has      18416 integration points.
  Task    251 has      18452 integration points.
  Task    252 has      18334 integration points.
  Task    253 has      18425 integration points.
  Task    254 has      18380 integration points.
  Task    255 has      18334 integration points.
  Task    256 has      18459 integration points.
  Task    257 has      18426 integration points.
  Task    258 has      18299 integration points.
  Task    259 has      18396 integration points.
  Task    260 has      18354 integration points.
  Task    261 has      18299 integration points.
  Task    262 has      18421 integration points.
  Task    263 has      18457 integration points.
  Task    264 has      18293 integration points.
  Task    265 has      18480 integration points.
  Task    266 has      18355 integration points.
  Task    267 has      18295 integration points.
  Task    268 has      18416 integration points.
  Task    269 has      18435 integration points.
  Task    270 has      18306 integration points.
  Task    271 has      18459 integration points.
  Task    272 has      18315 integration points.
  Task    273 has      18327 integration points.
  Task    274 has      18315 integration points.
  Task    275 has      18471 integration points.
  Task    276 has      18399 integration points.
  Task    277 has      18352 integration points.
  Task    278 has      18408 integration points.
  Task    279 has      18385 integration points.
  Task    280 has      18277 integration points.
  Task    281 has      18436 integration points.
  Task    282 has      18356 integration points.
  Task    283 has      18351 integration points.
  Task    284 has      18373 integration points.
  Task    285 has      18355 integration points.
  Task    286 has      18351 integration points.
  Task    287 has      18456 integration points.
  Task    288 has      18427 integration points.
  Task    289 has      18288 integration points.
  Task    290 has      18374 integration points.
  Task    291 has      18403 integration points.
  Task    292 has      18321 integration points.
  Task    293 has      18460 integration points.
  Task    294 has      18392 integration points.
  Task    295 has      18322 integration points.
  Task    296 has      18433 integration points.
  Task    297 has      18303 integration points.
  Task    298 has      18372 integration points.
  Task    299 has      18303 integration points.
  Task    300 has      18438 integration points.
  Task    301 has      18391 integration points.
  Task    302 has      18381 integration points.
  Task    303 has      18438 integration points.
  Task    304 has      18379 integration points.
  Task    305 has      18306 integration points.
  Task    306 has      18429 integration points.
  Task    307 has      18400 integration points.
  Task    308 has      18376 integration points.
  Task    309 has      18360 integration points.
  Task    310 has      18381 integration points.
  Task    311 has      18317 integration points.
  Task    312 has      18423 integration points.
  Task    313 has      18461 integration points.
  Task    314 has      18302 integration points.
  Task    315 has      18422 integration points.
  Task    316 has      18374 integration points.
  Task    317 has      18347 integration points.
  Task    318 has      18392 integration points.
  Task    319 has      18428 integration points.
  Task    320 has      18325 integration points.
  Task    321 has      18454 integration points.
  Task    322 has      18325 integration points.
  Task    323 has      18397 integration points.
  Task    324 has      18246 integration points.
  Task    325 has      18422 integration points.
  Task    326 has      18440 integration points.
  Task    327 has      18304 integration points.
  Task    328 has      18422 integration points.
  Task    329 has      18361 integration points.
  Task    330 has      18338 integration points.
  Task    331 has      18456 integration points.
  Task    332 has      18420 integration points.
  Task    333 has      18322 integration points.
  Task    334 has      18381 integration points.
  Task    335 has      18410 integration points.
  Task    336 has      18283 integration points.
  Task    337 has      18438 integration points.
  Task    338 has      18396 integration points.
  Task    339 has      18303 integration points.
  Task    340 has      18442 integration points.
  Task    341 has      18382 integration points.
  Task    342 has      18301 integration points.
  Task    343 has      18403 integration points.
  Task    344 has      18430 integration points.
  Task    345 has      18285 integration points.
  Task    346 has      18407 integration points.
  Task    347 has      18388 integration points.
  Task    348 has      18391 integration points.
  Task    349 has      18273 integration points.
  Task    350 has      18435 integration points.
  Task    351 has      18397 integration points.
  Task    352 has      18394 integration points.
  Task    353 has      18401 integration points.
  Task    354 has      18414 integration points.
  Task    355 has      18317 integration points.
  Task    356 has      18412 integration points.
  Task    357 has      18435 integration points.
  Task    358 has      18322 integration points.
  Task    359 has      18376 integration points.
  Task    360 has      18400 integration points.
  Task    361 has      18294 integration points.
  Task    362 has      18419 integration points.
  Task    363 has      18420 integration points.
  Task    364 has      18334 integration points.
  Task    365 has      18400 integration points.
  Task    366 has      18406 integration points.
  Task    367 has      18267 integration points.
  Task    368 has      18434 integration points.
  Task    369 has      18420 integration points.
  Task    370 has      18288 integration points.
  Task    371 has      18443 integration points.
  Task    372 has      18339 integration points.
  Task    373 has      18396 integration points.
  Task    374 has      18282 integration points.
  Task    375 has      18456 integration points.
  Task    376 has      18442 integration points.
  Task    377 has      18316 integration points.
  Task    378 has      18408 integration points.
  Task    379 has      18325 integration points.
  Task    380 has      18324 integration points.
  Task    381 has      18415 integration points.
  Task    382 has      18423 integration points.
  Task    383 has      18362 integration points.
  Task    384 has      18388 integration points.
  Task    385 has      18376 integration points.
  Task    386 has      18296 integration points.
  Task    387 has      18432 integration points.
  Task    388 has      18398 integration points.
  Task    389 has      18325 integration points.
  Task    390 has      18391 integration points.
  Task    391 has      18359 integration points.
  Task    392 has      18338 integration points.
  Task    393 has      18423 integration points.
  Task    394 has      18395 integration points.
  Task    395 has      18306 integration points.
  Task    396 has      18380 integration points.
  Task    397 has      18374 integration points.
  Task    398 has      18344 integration points.
  Task    399 has      18338 integration points.
  Task    400 has      18447 integration points.
  Task    401 has      18417 integration points.
  Task    402 has      18355 integration points.
  Task    403 has      18383 integration points.
  Task    404 has      18387 integration points.
  Task    405 has      18369 integration points.
  Task    406 has      18423 integration points.
  Task    407 has      18417 integration points.
  Task    408 has      18334 integration points.
  Task    409 has      18357 integration points.
  Task    410 has      18340 integration points.
  Task    411 has      18335 integration points.
  Task    412 has      18405 integration points.
  Task    413 has      18432 integration points.
  Task    414 has      18377 integration points.
  Task    415 has      18400 integration points.
  Task    416 has      18351 integration points.
  Task    417 has      18333 integration points.
  Task    418 has      18429 integration points.
  Task    419 has      18426 integration points.
  Task    420 has      18267 integration points.
  Task    421 has      18393 integration points.
  Task    422 has      18371 integration points.
  Task    423 has      18393 integration points.
  Task    424 has      18299 integration points.
  Task    425 has      18447 integration points.
  Task    426 has      18417 integration points.
  Task    427 has      18355 integration points.
  Task    428 has      18383 integration points.
  Task    429 has      18387 integration points.
  Task    430 has      18369 integration points.
  Task    431 has      18423 integration points.
  Task    432 has      18417 integration points.
  Task    433 has      18334 integration points.
  Task    434 has      18357 integration points.
  Task    435 has      18340 integration points.
  Task    436 has      18335 integration points.
  Task    437 has      18405 integration points.
  Task    438 has      18432 integration points.
  Task    439 has      18377 integration points.
  Task    440 has      18400 integration points.
  Task    441 has      18351 integration points.
  Task    442 has      18333 integration points.
  Task    443 has      18429 integration points.
  Task    444 has      18426 integration points.
  Task    445 has      18267 integration points.
  Task    446 has      18393 integration points.
  Task    447 has      18371 integration points.
  Task    448 has      18393 integration points.
  Task    449 has      18299 integration points.
  Task    450 has      18396 integration points.
  Task    451 has      18458 integration points.
  Task    452 has      18331 integration points.
  Task    453 has      18396 integration points.
  Task    454 has      18458 integration points.
  Task    455 has      18331 integration points.
  Task    456 has      18439 integration points.
  Task    457 has      18354 integration points.
  Task    458 has      18351 integration points.
  Task    459 has      18363 integration points.
  Task    460 has      18354 integration points.
  Task    461 has      18351 integration points.
  Task    462 has      18460 integration points.
  Task    463 has      18390 integration points.
  Task    464 has      18370 integration points.
  Task    465 has      18416 integration points.
  Task    466 has      18395 integration points.
  Task    467 has      18287 integration points.
  Task    468 has      18415 integration points.
  Task    469 has      18386 integration points.
  Task    470 has      18309 integration points.
  Task    471 has      18410 integration points.
  Task    472 has      18360 integration points.
  Task    473 has      18400 integration points.
  Task    474 has      18296 integration points.
  Task    475 has      18396 integration points.
  Task    476 has      18458 integration points.
  Task    477 has      18331 integration points.
  Task    478 has      18396 integration points.
  Task    479 has      18376 integration points.
  Task    480 has      18331 integration points.
  Task    481 has      18437 integration points.
  Task    482 has      18448 integration points.
  Task    483 has      18332 integration points.
  Task    484 has      18363 integration points.
  Task    485 has      18354 integration points.
  Task    486 has      18351 integration points.
  Task    487 has      18399 integration points.
  Task    488 has      18381 integration points.
  Task    489 has      18370 integration points.
  Task    490 has      18409 integration points.
  Task    491 has      18405 integration points.
  Task    492 has      18287 integration points.
  Task    493 has      18415 integration points.
  Task    494 has      18386 integration points.
  Task    495 has      18309 integration points.
  Task    496 has      18410 integration points.
  Task    497 has      18360 integration points.
  Task    498 has      18400 integration points.
  Task    499 has      18296 integration points.
  Task    500 has      18447 integration points.
  Task    501 has      18417 integration points.
  Task    502 has      18355 integration points.
  Task    503 has      18383 integration points.
  Task    504 has      18387 integration points.
  Task    505 has      18369 integration points.
  Task    506 has      18423 integration points.
  Task    507 has      18417 integration points.
  Task    508 has      18334 integration points.
  Task    509 has      18357 integration points.
  Task    510 has      18340 integration points.
  Task    511 has      18335 integration points.
  Task    512 has      18405 integration points.
  Task    513 has      18432 integration points.
  Task    514 has      18377 integration points.
  Task    515 has      18400 integration points.
  Task    516 has      18351 integration points.
  Task    517 has      18333 integration points.
  Task    518 has      18429 integration points.
  Task    519 has      18426 integration points.
  Task    520 has      18267 integration points.
  Task    521 has      18393 integration points.
  Task    522 has      18371 integration points.
  Task    523 has      18393 integration points.
  Task    524 has      18299 integration points.
  Task    525 has      18447 integration points.
  Task    526 has      18417 integration points.
  Task    527 has      18355 integration points.
  Task    528 has      18383 integration points.
  Task    529 has      18387 integration points.
  Task    530 has      18369 integration points.
  Task    531 has      18423 integration points.
  Task    532 has      18417 integration points.
  Task    533 has      18334 integration points.
  Task    534 has      18357 integration points.
  Task    535 has      18340 integration points.
  Task    536 has      18335 integration points.
  Task    537 has      18405 integration points.
  Task    538 has      18432 integration points.
  Task    539 has      18377 integration points.
  Task    540 has      18400 integration points.
  Task    541 has      18351 integration points.
  Task    542 has      18333 integration points.
  Task    543 has      18429 integration points.
  Task    544 has      18426 integration points.
  Task    545 has      18267 integration points.
  Task    546 has      18393 integration points.
  Task    547 has      18371 integration points.
  Task    548 has      18393 integration points.
  Task    549 has      18299 integration points.
  Task    550 has      18396 integration points.
  Task    551 has      18458 integration points.
  Task    552 has      18331 integration points.
  Task    553 has      18396 integration points.
  Task    554 has      18376 integration points.
  Task    555 has      18331 integration points.
  Task    556 has      18437 integration points.
  Task    557 has      18374 integration points.
  Task    558 has      18332 integration points.
  Task    559 has      18437 integration points.
  Task    560 has      18354 integration points.
  Task    561 has      18351 integration points.
  Task    562 has      18399 integration points.
  Task    563 has      18381 integration points.
  Task    564 has      18370 integration points.
  Task    565 has      18409 integration points.
  Task    566 has      18405 integration points.
  Task    567 has      18287 integration points.
  Task    568 has      18415 integration points.
  Task    569 has      18386 integration points.
  Task    570 has      18309 integration points.
  Task    571 has      18410 integration points.
  Task    572 has      18360 integration points.
  Task    573 has      18400 integration points.
  Task    574 has      18296 integration points.
  Task    575 has      18396 integration points.
  Task    576 has      18458 integration points.
  Task    577 has      18331 integration points.
  Task    578 has      18396 integration points.
  Task    579 has      18376 integration points.
  Task    580 has      18331 integration points.
  Task    581 has      18437 integration points.
  Task    582 has      18374 integration points.
  Task    583 has      18332 integration points.
  Task    584 has      18437 integration points.
  Task    585 has      18354 integration points.
  Task    586 has      18351 integration points.
  Task    587 has      18399 integration points.
  Task    588 has      18381 integration points.
  Task    589 has      18370 integration points.
  Task    590 has      18409 integration points.
  Task    591 has      18405 integration points.
  Task    592 has      18287 integration points.
  Task    593 has      18415 integration points.
  Task    594 has      18386 integration points.
  Task    595 has      18309 integration points.
  Task    596 has      18410 integration points.
  Task    597 has      18360 integration points.
  Task    598 has      18400 integration points.
  Task    599 has      18296 integration points.
  Task    600 has      18449 integration points.
  Task    601 has      18422 integration points.
  Task    602 has      18355 integration points.
  Task    603 has      18379 integration points.
  Task    604 has      18395 integration points.
  Task    605 has      18355 integration points.
  Task    606 has      18430 integration points.
  Task    607 has      18415 integration points.
  Task    608 has      18334 integration points.
  Task    609 has      18365 integration points.
  Task    610 has      18394 integration points.
  Task    611 has      18276 integration points.
  Task    612 has      18395 integration points.
  Task    613 has      18430 integration points.
  Task    614 has      18324 integration points.
  Task    615 has      18399 integration points.
  Task    616 has      18411 integration points.
  Task    617 has      18301 integration points.
  Task    618 has      18428 integration points.
  Task    619 has      18409 integration points.
  Task    620 has      18317 integration points.
  Task    621 has      18435 integration points.
  Task    622 has      18328 integration points.
  Task    623 has      18360 integration points.
  Task    624 has      18328 integration points.
  Task    625 has      18405 integration points.
  Task    626 has      18459 integration points.
  Task    627 has      18304 integration points.
  Task    628 has      18409 integration points.
  Task    629 has      18443 integration points.
  Task    630 has      18304 integration points.
  Task    631 has      18447 integration points.
  Task    632 has      18437 integration points.
  Task    633 has      18287 integration points.
  Task    634 has      18382 integration points.
  Task    635 has      18414 integration points.
  Task    636 has      18300 integration points.
  Task    637 has      18392 integration points.
  Task    638 has      18389 integration points.
  Task    639 has      18381 integration points.
  Task    640 has      18376 integration points.
  Task    641 has      18376 integration points.
  Task    642 has      18320 integration points.
  Task    643 has      18398 integration points.
  Task    644 has      18386 integration points.
  Task    645 has      18355 integration points.
  Task    646 has      18414 integration points.
  Task    647 has      18362 integration points.
  Task    648 has      18393 integration points.
  Task    649 has      18295 integration points.
  Task    650 has      18468 integration points.
  Task    651 has      18369 integration points.
  Task    652 has      18367 integration points.
  Task    653 has      18402 integration points.
  Task    654 has      18392 integration points.
  Task    655 has      18372 integration points.
  Task    656 has      18442 integration points.
  Task    657 has      18394 integration points.
  Task    658 has      18362 integration points.
  Task    659 has      18388 integration points.
  Task    660 has      18397 integration points.
  Task    661 has      18256 integration points.
  Task    662 has      18450 integration points.
  Task    663 has      18407 integration points.
  Task    664 has      18325 integration points.
  Task    665 has      18373 integration points.
  Task    666 has      18352 integration points.
  Task    667 has      18336 integration points.
  Task    668 has      18441 integration points.
  Task    669 has      18358 integration points.
  Task    670 has      18334 integration points.
  Task    671 has      18467 integration points.
  Task    672 has      18315 integration points.
  Task    673 has      18409 integration points.
  Task    674 has      18290 integration points.
  Task    675 has      18445 integration points.
  Task    676 has      18398 integration points.
  Task    677 has      18375 integration points.
  Task    678 has      18418 integration points.
  Task    679 has      18362 integration points.
  Task    680 has      18304 integration points.
  Task    681 has      18448 integration points.
  Task    682 has      18377 integration points.
  Task    683 has      18313 integration points.
  Task    684 has      18383 integration points.
  Task    685 has      18389 integration points.
  Task    686 has      18338 integration points.
  Task    687 has      18437 integration points.
  Task    688 has      18427 integration points.
  Task    689 has      18338 integration points.
  Task    690 has      18425 integration points.
  Task    691 has      18332 integration points.
  Task    692 has      18321 integration points.
  Task    693 has      18430 integration points.
  Task    694 has      18414 integration points.
  Task    695 has      18326 integration points.
  Task    696 has      18404 integration points.
  Task    697 has      18303 integration points.
  Task    698 has      18373 integration points.
  Task    699 has      18305 integration points.
  Task    700 has      18449 integration points.
  Task    701 has      18422 integration points.
  Task    702 has      18355 integration points.
  Task    703 has      18379 integration points.
  Task    704 has      18395 integration points.
  Task    705 has      18355 integration points.
  Task    706 has      18430 integration points.
  Task    707 has      18415 integration points.
  Task    708 has      18276 integration points.
  Task    709 has      18371 integration points.
  Task    710 has      18387 integration points.
  Task    711 has      18349 integration points.
  Task    712 has      18466 integration points.
  Task    713 has      18423 integration points.
  Task    714 has      18312 integration points.
  Task    715 has      18399 integration points.
  Task    716 has      18399 integration points.
  Task    717 has      18311 integration points.
  Task    718 has      18428 integration points.
  Task    719 has      18347 integration points.
  Task    720 has      18329 integration points.
  Task    721 has      18432 integration points.
  Task    722 has      18329 integration points.
  Task    723 has      18355 integration points.
  Task    724 has      18329 integration points.
  Task    725 has      18405 integration points.
  Task    726 has      18459 integration points.
  Task    727 has      18304 integration points.
  Task    728 has      18409 integration points.
  Task    729 has      18443 integration points.
  Task    730 has      18298 integration points.
  Task    731 has      18446 integration points.
  Task    732 has      18437 integration points.
  Task    733 has      18287 integration points.
  Task    734 has      18377 integration points.
  Task    735 has      18427 integration points.
  Task    736 has      18287 integration points.
  Task    737 has      18402 integration points.
  Task    738 has      18384 integration points.
  Task    739 has      18374 integration points.
  Task    740 has      18397 integration points.
  Task    741 has      18373 integration points.
  Task    742 has      18316 integration points.
  Task    743 has      18398 integration points.
  Task    744 has      18388 integration points.
  Task    745 has      18357 integration points.
  Task    746 has      18397 integration points.
  Task    747 has      18362 integration points.
  Task    748 has      18406 integration points.
  Task    749 has      18281 integration points.
  Task    750 has      18396 integration points.
  Task    751 has      18459 integration points.
  Task    752 has      18331 integration points.
  Task    753 has      18405 integration points.
  Task    754 has      18381 integration points.
  Task    755 has      18331 integration points.
  Task    756 has      18438 integration points.
  Task    757 has      18374 integration points.
  Task    758 has      18332 integration points.
  Task    759 has      18371 integration points.
  Task    760 has      18376 integration points.
  Task    761 has      18332 integration points.
  Task    762 has      18406 integration points.
  Task    763 has      18392 integration points.
  Task    764 has      18332 integration points.
  Task    765 has      18431 integration points.
  Task    766 has      18349 integration points.
  Task    767 has      18340 integration points.
  Task    768 has      18425 integration points.
  Task    769 has      18382 integration points.
  Task    770 has      18322 integration points.
  Task    771 has      18393 integration points.
  Task    772 has      18360 integration points.
  Task    773 has      18412 integration points.
  Task    774 has      18295 integration points.
  Task    775 has      18442 integration points.
  Task    776 has      18430 integration points.
  Task    777 has      18296 integration points.
  Task    778 has      18377 integration points.
  Task    779 has      18436 integration points.
  Task    780 has      18305 integration points.
  Task    781 has      18411 integration points.
  Task    782 has      18426 integration points.
  Task    783 has      18302 integration points.
  Task    784 has      18419 integration points.
  Task    785 has      18357 integration points.
  Task    786 has      18302 integration points.
  Task    787 has      18456 integration points.
  Task    788 has      18398 integration points.
  Task    789 has      18347 integration points.
  Task    790 has      18378 integration points.
  Task    791 has      18413 integration points.
  Task    792 has      18287 integration points.
  Task    793 has      18458 integration points.
  Task    794 has      18413 integration points.
  Task    795 has      18292 integration points.
  Task    796 has      18381 integration points.
  Task    797 has      18357 integration points.
  Task    798 has      18383 integration points.
  Task    799 has      18298 integration points.
  Available memory per node after partition_grid [GB]:    297.83
  Initializing partition tables, free-atom densities, potentials, etc. across the integration grid (initialize_grid_storage).
  | initialize_grid_storage: Actual outermost partition radius vs. multipole_radius_free
  | (-- VB: in principle, multipole_radius_free should be larger, hence this output)
  | Species        1: Confinement radius =              6.500000000000000 AA, multipole_radius_free =              6.512056578573763 AA.
  | Species        1: outer_partition_radius set to              6.512056578573763 AA .
  | Species        2: Confinement radius =              4.999999999999999 AA, multipole_radius_free =              5.002391649902235 AA.
  | Species        2: outer_partition_radius set to              5.002391649902235 AA .
  | Species        3: Confinement radius =              4.999999999999999 AA, multipole_radius_free =              5.048384829883283 AA.
  | Species        3: outer_partition_radius set to              5.048384829883283 AA .
  | The sparse table of interatomic distances needs      67438.05 kbyte instead of    795207.19 kbyte of memory.
  | Net number of integration points: 14701568
  | of which are non-zero points    : 12523008
  | Numerical average free-atom electrostatic potential    :    -23.40104909 eV
  Available memory per node after initialize_grid_storage_p1 [GB]:    297.78
  Renormalizing the initial density to the exact electron count on the 3D integration grid.
  | Initial density: Formal number of electrons (from input files) :   52224.0000000000
  | Integrated number of electrons on 3D grid     :   52230.0776926461
  | Charge integration error                      :       6.0776926461
  | Normalization factor for density and gradient :       0.9998836362
  Renormalizing the free-atom superposition density to the exact electron count on the 3D integration grid.
  | Formal number of electrons (from input files) :   52224.0000000000
  | Integrated number of electrons on 3D grid     :   52230.0776926461
  | Charge integration error                      :       6.0776926461
  | Normalization factor for density and gradient :       0.9998836362
  Obtaining max. number of non-zero basis functions in each batch (get_n_compute_maxes).
  | Maximal number of non-zero basis functions:      982 in task     0
  | Maximal number of non-zero basis functions:     1002 in task     1
  | Maximal number of non-zero basis functions:      981 in task     2
  | Maximal number of non-zero basis functions:      982 in task     3
  | Maximal number of non-zero basis functions:     1002 in task     4
  | Maximal number of non-zero basis functions:      981 in task     5
  | Maximal number of non-zero basis functions:      967 in task     6
  | Maximal number of non-zero basis functions:      980 in task     7
  | Maximal number of non-zero basis functions:      985 in task     8
  | Maximal number of non-zero basis functions:      967 in task     9
  | Maximal number of non-zero basis functions:      980 in task    10
  | Maximal number of non-zero basis functions:      985 in task    11
  | Maximal number of non-zero basis functions:      981 in task    12
  | Maximal number of non-zero basis functions:      981 in task    13
  | Maximal number of non-zero basis functions:      958 in task    14
  | Maximal number of non-zero basis functions:      993 in task    15
  | Maximal number of non-zero basis functions:      993 in task    16
  | Maximal number of non-zero basis functions:      985 in task    17
  | Maximal number of non-zero basis functions:     1002 in task    18
  | Maximal number of non-zero basis functions:     1002 in task    19
  | Maximal number of non-zero basis functions:      978 in task    20
  | Maximal number of non-zero basis functions:     1002 in task    21
  | Maximal number of non-zero basis functions:      969 in task    22
  | Maximal number of non-zero basis functions:     1002 in task    23
  | Maximal number of non-zero basis functions:      969 in task    24
  | Maximal number of non-zero basis functions:      982 in task    25
  | Maximal number of non-zero basis functions:     1002 in task    26
  | Maximal number of non-zero basis functions:      981 in task    27
  | Maximal number of non-zero basis functions:      982 in task    28
  | Maximal number of non-zero basis functions:     1002 in task    29
  | Maximal number of non-zero basis functions:      981 in task    30
  | Maximal number of non-zero basis functions:      967 in task    31
  | Maximal number of non-zero basis functions:      980 in task    32
  | Maximal number of non-zero basis functions:      985 in task    33
  | Maximal number of non-zero basis functions:      967 in task    34
  | Maximal number of non-zero basis functions:      980 in task    35
  | Maximal number of non-zero basis functions:      985 in task    36
  | Maximal number of non-zero basis functions:      981 in task    37
  | Maximal number of non-zero basis functions:      981 in task    38
  | Maximal number of non-zero basis functions:      958 in task    39
  | Maximal number of non-zero basis functions:      993 in task    40
  | Maximal number of non-zero basis functions:      993 in task    41
  | Maximal number of non-zero basis functions:      985 in task    42
  | Maximal number of non-zero basis functions:     1002 in task    43
  | Maximal number of non-zero basis functions:     1002 in task    44
  | Maximal number of non-zero basis functions:      978 in task    45
  | Maximal number of non-zero basis functions:     1002 in task    46
  | Maximal number of non-zero basis functions:      969 in task    47
  | Maximal number of non-zero basis functions:     1002 in task    48
  | Maximal number of non-zero basis functions:      969 in task    49
  | Maximal number of non-zero basis functions:      979 in task    50
  | Maximal number of non-zero basis functions:      968 in task    51
  | Maximal number of non-zero basis functions:      970 in task    52
  | Maximal number of non-zero basis functions:      979 in task    53
  | Maximal number of non-zero basis functions:      968 in task    54
  | Maximal number of non-zero basis functions:      970 in task    55
  | Maximal number of non-zero basis functions:      982 in task    56
  | Maximal number of non-zero basis functions:      969 in task    57
  | Maximal number of non-zero basis functions:      982 in task    58
  | Maximal number of non-zero basis functions:      982 in task    59
  | Maximal number of non-zero basis functions:      969 in task    60
  | Maximal number of non-zero basis functions:      982 in task    61
  | Maximal number of non-zero basis functions:      964 in task    62
  | Maximal number of non-zero basis functions:      964 in task    63
  | Maximal number of non-zero basis functions:      964 in task    64
  | Maximal number of non-zero basis functions:      967 in task    65
  | Maximal number of non-zero basis functions:      982 in task    66
  | Maximal number of non-zero basis functions:      982 in task    67
  | Maximal number of non-zero basis functions:      968 in task    68
  | Maximal number of non-zero basis functions:      959 in task    69
  | Maximal number of non-zero basis functions:      968 in task    70
  | Maximal number of non-zero basis functions:     1011 in task    71
  | Maximal number of non-zero basis functions:      977 in task    72
  | Maximal number of non-zero basis functions:     1011 in task    73
  | Maximal number of non-zero basis functions:      977 in task    74
  | Maximal number of non-zero basis functions:      979 in task    75
  | Maximal number of non-zero basis functions:      968 in task    76
  | Maximal number of non-zero basis functions:      970 in task    77
  | Maximal number of non-zero basis functions:      979 in task    78
  | Maximal number of non-zero basis functions:      968 in task    79
  | Maximal number of non-zero basis functions:      970 in task    80
  | Maximal number of non-zero basis functions:      982 in task    81
  | Maximal number of non-zero basis functions:      969 in task    82
  | Maximal number of non-zero basis functions:      982 in task    83
  | Maximal number of non-zero basis functions:      982 in task    84
  | Maximal number of non-zero basis functions:      969 in task    85
  | Maximal number of non-zero basis functions:      982 in task    86
  | Maximal number of non-zero basis functions:      964 in task    87
  | Maximal number of non-zero basis functions:      964 in task    88
  | Maximal number of non-zero basis functions:      964 in task    89
  | Maximal number of non-zero basis functions:      967 in task    90
  | Maximal number of non-zero basis functions:      982 in task    91
  | Maximal number of non-zero basis functions:      982 in task    92
  | Maximal number of non-zero basis functions:      968 in task    93
  | Maximal number of non-zero basis functions:      959 in task    94
  | Maximal number of non-zero basis functions:      968 in task    95
  | Maximal number of non-zero basis functions:     1011 in task    96
  | Maximal number of non-zero basis functions:      977 in task    97
  | Maximal number of non-zero basis functions:     1011 in task    98
  | Maximal number of non-zero basis functions:      977 in task    99
  | Maximal number of non-zero basis functions:      982 in task   100
  | Maximal number of non-zero basis functions:     1002 in task   101
  | Maximal number of non-zero basis functions:      981 in task   102
  | Maximal number of non-zero basis functions:      982 in task   103
  | Maximal number of non-zero basis functions:     1002 in task   104
  | Maximal number of non-zero basis functions:      981 in task   105
  | Maximal number of non-zero basis functions:      967 in task   106
  | Maximal number of non-zero basis functions:      980 in task   107
  | Maximal number of non-zero basis functions:      985 in task   108
  | Maximal number of non-zero basis functions:      967 in task   109
  | Maximal number of non-zero basis functions:      980 in task   110
  | Maximal number of non-zero basis functions:      985 in task   111
  | Maximal number of non-zero basis functions:      981 in task   112
  | Maximal number of non-zero basis functions:      981 in task   113
  | Maximal number of non-zero basis functions:      958 in task   114
  | Maximal number of non-zero basis functions:      993 in task   115
  | Maximal number of non-zero basis functions:      993 in task   116
  | Maximal number of non-zero basis functions:      985 in task   117
  | Maximal number of non-zero basis functions:     1002 in task   118
  | Maximal number of non-zero basis functions:     1002 in task   119
  | Maximal number of non-zero basis functions:      978 in task   120
  | Maximal number of non-zero basis functions:     1002 in task   121
  | Maximal number of non-zero basis functions:      969 in task   122
  | Maximal number of non-zero basis functions:     1002 in task   123
  | Maximal number of non-zero basis functions:      969 in task   124
  | Maximal number of non-zero basis functions:      982 in task   125
  | Maximal number of non-zero basis functions:     1002 in task   126
  | Maximal number of non-zero basis functions:      981 in task   127
  | Maximal number of non-zero basis functions:      982 in task   128
  | Maximal number of non-zero basis functions:     1002 in task   129
  | Maximal number of non-zero basis functions:      981 in task   130
  | Maximal number of non-zero basis functions:      967 in task   131
  | Maximal number of non-zero basis functions:      980 in task   132
  | Maximal number of non-zero basis functions:      985 in task   133
  | Maximal number of non-zero basis functions:      967 in task   134
  | Maximal number of non-zero basis functions:      980 in task   135
  | Maximal number of non-zero basis functions:      985 in task   136
  | Maximal number of non-zero basis functions:      981 in task   137
  | Maximal number of non-zero basis functions:      981 in task   138
  | Maximal number of non-zero basis functions:      958 in task   139
  | Maximal number of non-zero basis functions:      993 in task   140
  | Maximal number of non-zero basis functions:      993 in task   141
  | Maximal number of non-zero basis functions:      985 in task   142
  | Maximal number of non-zero basis functions:     1002 in task   143
  | Maximal number of non-zero basis functions:     1002 in task   144
  | Maximal number of non-zero basis functions:      978 in task   145
  | Maximal number of non-zero basis functions:     1002 in task   146
  | Maximal number of non-zero basis functions:      969 in task   147
  | Maximal number of non-zero basis functions:     1002 in task   148
  | Maximal number of non-zero basis functions:      969 in task   149
  | Maximal number of non-zero basis functions:      979 in task   150
  | Maximal number of non-zero basis functions:      968 in task   151
  | Maximal number of non-zero basis functions:      970 in task   152
  | Maximal number of non-zero basis functions:      979 in task   153
  | Maximal number of non-zero basis functions:      968 in task   154
  | Maximal number of non-zero basis functions:      970 in task   155
  | Maximal number of non-zero basis functions:      982 in task   156
  | Maximal number of non-zero basis functions:      969 in task   157
  | Maximal number of non-zero basis functions:      982 in task   158
  | Maximal number of non-zero basis functions:      982 in task   159
  | Maximal number of non-zero basis functions:      969 in task   160
  | Maximal number of non-zero basis functions:      982 in task   161
  | Maximal number of non-zero basis functions:      964 in task   162
  | Maximal number of non-zero basis functions:      964 in task   163
  | Maximal number of non-zero basis functions:      964 in task   164
  | Maximal number of non-zero basis functions:      967 in task   165
  | Maximal number of non-zero basis functions:      982 in task   166
  | Maximal number of non-zero basis functions:      982 in task   167
  | Maximal number of non-zero basis functions:      968 in task   168
  | Maximal number of non-zero basis functions:      959 in task   169
  | Maximal number of non-zero basis functions:      968 in task   170
  | Maximal number of non-zero basis functions:     1011 in task   171
  | Maximal number of non-zero basis functions:      977 in task   172
  | Maximal number of non-zero basis functions:     1011 in task   173
  | Maximal number of non-zero basis functions:      977 in task   174
  | Maximal number of non-zero basis functions:      979 in task   175
  | Maximal number of non-zero basis functions:      968 in task   176
  | Maximal number of non-zero basis functions:      970 in task   177
  | Maximal number of non-zero basis functions:      979 in task   178
  | Maximal number of non-zero basis functions:      968 in task   179
  | Maximal number of non-zero basis functions:      970 in task   180
  | Maximal number of non-zero basis functions:      982 in task   181
  | Maximal number of non-zero basis functions:      969 in task   182
  | Maximal number of non-zero basis functions:      982 in task   183
  | Maximal number of non-zero basis functions:      982 in task   184
  | Maximal number of non-zero basis functions:      969 in task   185
  | Maximal number of non-zero basis functions:      982 in task   186
  | Maximal number of non-zero basis functions:      964 in task   187
  | Maximal number of non-zero basis functions:      964 in task   188
  | Maximal number of non-zero basis functions:      964 in task   189
  | Maximal number of non-zero basis functions:      967 in task   190
  | Maximal number of non-zero basis functions:      982 in task   191
  | Maximal number of non-zero basis functions:      982 in task   192
  | Maximal number of non-zero basis functions:      968 in task   193
  | Maximal number of non-zero basis functions:      959 in task   194
  | Maximal number of non-zero basis functions:      968 in task   195
  | Maximal number of non-zero basis functions:     1011 in task   196
  | Maximal number of non-zero basis functions:      977 in task   197
  | Maximal number of non-zero basis functions:     1011 in task   198
  | Maximal number of non-zero basis functions:      977 in task   199
  | Maximal number of non-zero basis functions:      982 in task   200
  | Maximal number of non-zero basis functions:     1002 in task   201
  | Maximal number of non-zero basis functions:      981 in task   202
  | Maximal number of non-zero basis functions:      982 in task   203
  | Maximal number of non-zero basis functions:     1002 in task   204
  | Maximal number of non-zero basis functions:      981 in task   205
  | Maximal number of non-zero basis functions:      967 in task   206
  | Maximal number of non-zero basis functions:      980 in task   207
  | Maximal number of non-zero basis functions:      985 in task   208
  | Maximal number of non-zero basis functions:      967 in task   209
  | Maximal number of non-zero basis functions:      980 in task   210
  | Maximal number of non-zero basis functions:      985 in task   211
  | Maximal number of non-zero basis functions:      981 in task   212
  | Maximal number of non-zero basis functions:      981 in task   213
  | Maximal number of non-zero basis functions:      958 in task   214
  | Maximal number of non-zero basis functions:      993 in task   215
  | Maximal number of non-zero basis functions:      993 in task   216
  | Maximal number of non-zero basis functions:      985 in task   217
  | Maximal number of non-zero basis functions:     1002 in task   218
  | Maximal number of non-zero basis functions:     1002 in task   219
  | Maximal number of non-zero basis functions:      978 in task   220
  | Maximal number of non-zero basis functions:     1002 in task   221
  | Maximal number of non-zero basis functions:      969 in task   222
  | Maximal number of non-zero basis functions:     1002 in task   223
  | Maximal number of non-zero basis functions:      969 in task   224
  | Maximal number of non-zero basis functions:      979 in task   225
  | Maximal number of non-zero basis functions:      982 in task   226
  | Maximal number of non-zero basis functions:      976 in task   227
  | Maximal number of non-zero basis functions:      979 in task   228
  | Maximal number of non-zero basis functions:      982 in task   229
  | Maximal number of non-zero basis functions:      976 in task   230
  | Maximal number of non-zero basis functions:      995 in task   231
  | Maximal number of non-zero basis functions:      976 in task   232
  | Maximal number of non-zero basis functions:      992 in task   233
  | Maximal number of non-zero basis functions:      995 in task   234
  | Maximal number of non-zero basis functions:      976 in task   235
  | Maximal number of non-zero basis functions:      992 in task   236
  | Maximal number of non-zero basis functions:      976 in task   237
  | Maximal number of non-zero basis functions:      976 in task   238
  | Maximal number of non-zero basis functions:      958 in task   239
  | Maximal number of non-zero basis functions:      983 in task   240
  | Maximal number of non-zero basis functions:      992 in task   241
  | Maximal number of non-zero basis functions:      992 in task   242
  | Maximal number of non-zero basis functions:      984 in task   243
  | Maximal number of non-zero basis functions:      984 in task   244
  | Maximal number of non-zero basis functions:      982 in task   245
  | Maximal number of non-zero basis functions:      977 in task   246
  | Maximal number of non-zero basis functions:      968 in task   247
  | Maximal number of non-zero basis functions:      977 in task   248
  | Maximal number of non-zero basis functions:      968 in task   249
  | Maximal number of non-zero basis functions:      979 in task   250
  | Maximal number of non-zero basis functions:      968 in task   251
  | Maximal number of non-zero basis functions:      985 in task   252
  | Maximal number of non-zero basis functions:      979 in task   253
  | Maximal number of non-zero basis functions:      968 in task   254
  | Maximal number of non-zero basis functions:      985 in task   255
  | Maximal number of non-zero basis functions:      982 in task   256
  | Maximal number of non-zero basis functions:      969 in task   257
  | Maximal number of non-zero basis functions:      982 in task   258
  | Maximal number of non-zero basis functions:      982 in task   259
  | Maximal number of non-zero basis functions:      969 in task   260
  | Maximal number of non-zero basis functions:      982 in task   261
  | Maximal number of non-zero basis functions:      964 in task   262
  | Maximal number of non-zero basis functions:      985 in task   263
  | Maximal number of non-zero basis functions:      964 in task   264
  | Maximal number of non-zero basis functions:      967 in task   265
  | Maximal number of non-zero basis functions:      982 in task   266
  | Maximal number of non-zero basis functions:      982 in task   267
  | Maximal number of non-zero basis functions:      968 in task   268
  | Maximal number of non-zero basis functions:      959 in task   269
  | Maximal number of non-zero basis functions:      968 in task   270
  | Maximal number of non-zero basis functions:     1011 in task   271
  | Maximal number of non-zero basis functions:      977 in task   272
  | Maximal number of non-zero basis functions:     1011 in task   273
  | Maximal number of non-zero basis functions:      977 in task   274
  | Maximal number of non-zero basis functions:      973 in task   275
  | Maximal number of non-zero basis functions:      976 in task   276
  | Maximal number of non-zero basis functions:      962 in task   277
  | Maximal number of non-zero basis functions:      973 in task   278
  | Maximal number of non-zero basis functions:      976 in task   279
  | Maximal number of non-zero basis functions:      962 in task   280
  | Maximal number of non-zero basis functions:      992 in task   281
  | Maximal number of non-zero basis functions:      978 in task   282
  | Maximal number of non-zero basis functions:      990 in task   283
  | Maximal number of non-zero basis functions:      992 in task   284
  | Maximal number of non-zero basis functions:      978 in task   285
  | Maximal number of non-zero basis functions:      990 in task   286
  | Maximal number of non-zero basis functions:      967 in task   287
  | Maximal number of non-zero basis functions:      967 in task   288
  | Maximal number of non-zero basis functions:      962 in task   289
  | Maximal number of non-zero basis functions:      990 in task   290
  | Maximal number of non-zero basis functions:      990 in task   291
  | Maximal number of non-zero basis functions:      978 in task   292
  | Maximal number of non-zero basis functions:      955 in task   293
  | Maximal number of non-zero basis functions:      972 in task   294
  | Maximal number of non-zero basis functions:      972 in task   295
  | Maximal number of non-zero basis functions:      990 in task   296
  | Maximal number of non-zero basis functions:      995 in task   297
  | Maximal number of non-zero basis functions:      990 in task   298
  | Maximal number of non-zero basis functions:      995 in task   299
  | Maximal number of non-zero basis functions:      982 in task   300
  | Maximal number of non-zero basis functions:     1002 in task   301
  | Maximal number of non-zero basis functions:      981 in task   302
  | Maximal number of non-zero basis functions:      982 in task   303
  | Maximal number of non-zero basis functions:     1002 in task   304
  | Maximal number of non-zero basis functions:      981 in task   305
  | Maximal number of non-zero basis functions:      967 in task   306
  | Maximal number of non-zero basis functions:      980 in task   307
  | Maximal number of non-zero basis functions:      985 in task   308
  | Maximal number of non-zero basis functions:      967 in task   309
  | Maximal number of non-zero basis functions:      980 in task   310
  | Maximal number of non-zero basis functions:      985 in task   311
  | Maximal number of non-zero basis functions:      981 in task   312
  | Maximal number of non-zero basis functions:      981 in task   313
  | Maximal number of non-zero basis functions:      958 in task   314
  | Maximal number of non-zero basis functions:      993 in task   315
  | Maximal number of non-zero basis functions:      993 in task   316
  | Maximal number of non-zero basis functions:      970 in task   317
  | Maximal number of non-zero basis functions:     1002 in task   318
  | Maximal number of non-zero basis functions:     1002 in task   319
  | Maximal number of non-zero basis functions:      978 in task   320
  | Maximal number of non-zero basis functions:     1002 in task   321
  | Maximal number of non-zero basis functions:      969 in task   322
  | Maximal number of non-zero basis functions:     1002 in task   323
  | Maximal number of non-zero basis functions:      969 in task   324
  | Maximal number of non-zero basis functions:      979 in task   325
  | Maximal number of non-zero basis functions:      982 in task   326
  | Maximal number of non-zero basis functions:      976 in task   327
  | Maximal number of non-zero basis functions:      979 in task   328
  | Maximal number of non-zero basis functions:      982 in task   329
  | Maximal number of non-zero basis functions:      976 in task   330
  | Maximal number of non-zero basis functions:      995 in task   331
  | Maximal number of non-zero basis functions:      976 in task   332
  | Maximal number of non-zero basis functions:      992 in task   333
  | Maximal number of non-zero basis functions:      995 in task   334
  | Maximal number of non-zero basis functions:      978 in task   335
  | Maximal number of non-zero basis functions:      992 in task   336
  | Maximal number of non-zero basis functions:      976 in task   337
  | Maximal number of non-zero basis functions:      982 in task   338
  | Maximal number of non-zero basis functions:      955 in task   339
  | Maximal number of non-zero basis functions:      983 in task   340
  | Maximal number of non-zero basis functions:      992 in task   341
  | Maximal number of non-zero basis functions:      983 in task   342
  | Maximal number of non-zero basis functions:      984 in task   343
  | Maximal number of non-zero basis functions:      982 in task   344
  | Maximal number of non-zero basis functions:      964 in task   345
  | Maximal number of non-zero basis functions:      977 in task   346
  | Maximal number of non-zero basis functions:      968 in task   347
  | Maximal number of non-zero basis functions:      977 in task   348
  | Maximal number of non-zero basis functions:      979 in task   349
  | Maximal number of non-zero basis functions:      978 in task   350
  | Maximal number of non-zero basis functions:      979 in task   351
  | Maximal number of non-zero basis functions:      979 in task   352
  | Maximal number of non-zero basis functions:      970 in task   353
  | Maximal number of non-zero basis functions:      985 in task   354
  | Maximal number of non-zero basis functions:      964 in task   355
  | Maximal number of non-zero basis functions:      982 in task   356
  | Maximal number of non-zero basis functions:      982 in task   357
  | Maximal number of non-zero basis functions:      972 in task   358
  | Maximal number of non-zero basis functions:      967 in task   359
  | Maximal number of non-zero basis functions:      982 in task   360
  | Maximal number of non-zero basis functions:      982 in task   361
  | Maximal number of non-zero basis functions:      973 in task   362
  | Maximal number of non-zero basis functions:      976 in task   363
  | Maximal number of non-zero basis functions:      985 in task   364
  | Maximal number of non-zero basis functions:      992 in task   365
  | Maximal number of non-zero basis functions:      978 in task   366
  | Maximal number of non-zero basis functions:      990 in task   367
  | Maximal number of non-zero basis functions:      966 in task   368
  | Maximal number of non-zero basis functions:      972 in task   369
  | Maximal number of non-zero basis functions:      982 in task   370
  | Maximal number of non-zero basis functions:      976 in task   371
  | Maximal number of non-zero basis functions:      992 in task   372
  | Maximal number of non-zero basis functions:      977 in task   373
  | Maximal number of non-zero basis functions:      990 in task   374
  | Maximal number of non-zero basis functions:      964 in task   375
  | Maximal number of non-zero basis functions:      985 in task   376
  | Maximal number of non-zero basis functions:      985 in task   377
  | Maximal number of non-zero basis functions:     1011 in task   378
  | Maximal number of non-zero basis functions:      960 in task   379
  | Maximal number of non-zero basis functions:     1011 in task   380
  | Maximal number of non-zero basis functions:      967 in task   381
  | Maximal number of non-zero basis functions:      982 in task   382
  | Maximal number of non-zero basis functions:      982 in task   383
  | Maximal number of non-zero basis functions:     1003 in task   384
  | Maximal number of non-zero basis functions:     1003 in task   385
  | Maximal number of non-zero basis functions:      977 in task   386
  | Maximal number of non-zero basis functions:      962 in task   387
  | Maximal number of non-zero basis functions:      976 in task   388
  | Maximal number of non-zero basis functions:      990 in task   389
  | Maximal number of non-zero basis functions:      990 in task   390
  | Maximal number of non-zero basis functions:      976 in task   391
  | Maximal number of non-zero basis functions:      995 in task   392
  | Maximal number of non-zero basis functions:      995 in task   393
  | Maximal number of non-zero basis functions:      961 in task   394
  | Maximal number of non-zero basis functions:      980 in task   395
  | Maximal number of non-zero basis functions:      978 in task   396
  | Maximal number of non-zero basis functions:      978 in task   397
  | Maximal number of non-zero basis functions:      970 in task   398
  | Maximal number of non-zero basis functions:      981 in task   399
  | Maximal number of non-zero basis functions:      985 in task   400
  | Maximal number of non-zero basis functions:      979 in task   401
  | Maximal number of non-zero basis functions:      977 in task   402
  | Maximal number of non-zero basis functions:      985 in task   403
  | Maximal number of non-zero basis functions:      979 in task   404
  | Maximal number of non-zero basis functions:      977 in task   405
  | Maximal number of non-zero basis functions:      956 in task   406
  | Maximal number of non-zero basis functions:      975 in task   407
  | Maximal number of non-zero basis functions:      973 in task   408
  | Maximal number of non-zero basis functions:      956 in task   409
  | Maximal number of non-zero basis functions:      975 in task   410
  | Maximal number of non-zero basis functions:      973 in task   411
  | Maximal number of non-zero basis functions:      971 in task   412
  | Maximal number of non-zero basis functions:      974 in task   413
  | Maximal number of non-zero basis functions:      974 in task   414
  | Maximal number of non-zero basis functions:      983 in task   415
  | Maximal number of non-zero basis functions:      983 in task   416
  | Maximal number of non-zero basis functions:      960 in task   417
  | Maximal number of non-zero basis functions:      973 in task   418
  | Maximal number of non-zero basis functions:      973 in task   419
  | Maximal number of non-zero basis functions:      958 in task   420
  | Maximal number of non-zero basis functions:      975 in task   421
  | Maximal number of non-zero basis functions:     1026 in task   422
  | Maximal number of non-zero basis functions:      975 in task   423
  | Maximal number of non-zero basis functions:     1026 in task   424
  | Maximal number of non-zero basis functions:      985 in task   425
  | Maximal number of non-zero basis functions:      979 in task   426
  | Maximal number of non-zero basis functions:      977 in task   427
  | Maximal number of non-zero basis functions:      985 in task   428
  | Maximal number of non-zero basis functions:      979 in task   429
  | Maximal number of non-zero basis functions:      977 in task   430
  | Maximal number of non-zero basis functions:      956 in task   431
  | Maximal number of non-zero basis functions:      975 in task   432
  | Maximal number of non-zero basis functions:      973 in task   433
  | Maximal number of non-zero basis functions:      956 in task   434
  | Maximal number of non-zero basis functions:      975 in task   435
  | Maximal number of non-zero basis functions:      973 in task   436
  | Maximal number of non-zero basis functions:      971 in task   437
  | Maximal number of non-zero basis functions:      974 in task   438
  | Maximal number of non-zero basis functions:      974 in task   439
  | Maximal number of non-zero basis functions:      983 in task   440
  | Maximal number of non-zero basis functions:      983 in task   441
  | Maximal number of non-zero basis functions:      960 in task   442
  | Maximal number of non-zero basis functions:      973 in task   443
  | Maximal number of non-zero basis functions:      973 in task   444
  | Maximal number of non-zero basis functions:      958 in task   445
  | Maximal number of non-zero basis functions:      975 in task   446
  | Maximal number of non-zero basis functions:     1026 in task   447
  | Maximal number of non-zero basis functions:      975 in task   448
  | Maximal number of non-zero basis functions:     1026 in task   449
  | Maximal number of non-zero basis functions:      983 in task   450
  | Maximal number of non-zero basis functions:      990 in task   451
  | Maximal number of non-zero basis functions:      981 in task   452
  | Maximal number of non-zero basis functions:      983 in task   453
  | Maximal number of non-zero basis functions:      990 in task   454
  | Maximal number of non-zero basis functions:      981 in task   455
  | Maximal number of non-zero basis functions:      962 in task   456
  | Maximal number of non-zero basis functions:      982 in task   457
  | Maximal number of non-zero basis functions:      985 in task   458
  | Maximal number of non-zero basis functions:      962 in task   459
  | Maximal number of non-zero basis functions:      982 in task   460
  | Maximal number of non-zero basis functions:      985 in task   461
  | Maximal number of non-zero basis functions:      978 in task   462
  | Maximal number of non-zero basis functions:      981 in task   463
  | Maximal number of non-zero basis functions:      981 in task   464
  | Maximal number of non-zero basis functions:      982 in task   465
  | Maximal number of non-zero basis functions:      975 in task   466
  | Maximal number of non-zero basis functions:      982 in task   467
  | Maximal number of non-zero basis functions:      990 in task   468
  | Maximal number of non-zero basis functions:      990 in task   469
  | Maximal number of non-zero basis functions:      970 in task   470
  | Maximal number of non-zero basis functions:      980 in task   471
  | Maximal number of non-zero basis functions:      987 in task   472
  | Maximal number of non-zero basis functions:      980 in task   473
  | Maximal number of non-zero basis functions:      987 in task   474
  | Maximal number of non-zero basis functions:      983 in task   475
  | Maximal number of non-zero basis functions:      990 in task   476
  | Maximal number of non-zero basis functions:      981 in task   477
  | Maximal number of non-zero basis functions:      983 in task   478
  | Maximal number of non-zero basis functions:      990 in task   479
  | Maximal number of non-zero basis functions:      981 in task   480
  | Maximal number of non-zero basis functions:      962 in task   481
  | Maximal number of non-zero basis functions:      982 in task   482
  | Maximal number of non-zero basis functions:      985 in task   483
  | Maximal number of non-zero basis functions:      962 in task   484
  | Maximal number of non-zero basis functions:      982 in task   485
  | Maximal number of non-zero basis functions:      985 in task   486
  | Maximal number of non-zero basis functions:      978 in task   487
  | Maximal number of non-zero basis functions:      981 in task   488
  | Maximal number of non-zero basis functions:      981 in task   489
  | Maximal number of non-zero basis functions:      982 in task   490
  | Maximal number of non-zero basis functions:      975 in task   491
  | Maximal number of non-zero basis functions:      982 in task   492
  | Maximal number of non-zero basis functions:      990 in task   493
  | Maximal number of non-zero basis functions:      990 in task   494
  | Maximal number of non-zero basis functions:      970 in task   495
  | Maximal number of non-zero basis functions:      980 in task   496
  | Maximal number of non-zero basis functions:      987 in task   497
  | Maximal number of non-zero basis functions:      980 in task   498
  | Maximal number of non-zero basis functions:      987 in task   499
  | Maximal number of non-zero basis functions:      985 in task   500
  | Maximal number of non-zero basis functions:      979 in task   501
  | Maximal number of non-zero basis functions:      977 in task   502
  | Maximal number of non-zero basis functions:      985 in task   503
  | Maximal number of non-zero basis functions:      979 in task   504
  | Maximal number of non-zero basis functions:      977 in task   505
  | Maximal number of non-zero basis functions:      956 in task   506
  | Maximal number of non-zero basis functions:      975 in task   507
  | Maximal number of non-zero basis functions:      973 in task   508
  | Maximal number of non-zero basis functions:      956 in task   509
  | Maximal number of non-zero basis functions:      975 in task   510
  | Maximal number of non-zero basis functions:      973 in task   511
  | Maximal number of non-zero basis functions:      971 in task   512
  | Maximal number of non-zero basis functions:      974 in task   513
  | Maximal number of non-zero basis functions:      974 in task   514
  | Maximal number of non-zero basis functions:      983 in task   515
  | Maximal number of non-zero basis functions:      983 in task   516
  | Maximal number of non-zero basis functions:      960 in task   517
  | Maximal number of non-zero basis functions:      973 in task   518
  | Maximal number of non-zero basis functions:      973 in task   519
  | Maximal number of non-zero basis functions:      958 in task   520
  | Maximal number of non-zero basis functions:      975 in task   521
  | Maximal number of non-zero basis functions:     1026 in task   522
  | Maximal number of non-zero basis functions:      975 in task   523
  | Maximal number of non-zero basis functions:     1026 in task   524
  | Maximal number of non-zero basis functions:      985 in task   525
  | Maximal number of non-zero basis functions:      979 in task   526
  | Maximal number of non-zero basis functions:      977 in task   527
  | Maximal number of non-zero basis functions:      985 in task   528
  | Maximal number of non-zero basis functions:      979 in task   529
  | Maximal number of non-zero basis functions:      977 in task   530
  | Maximal number of non-zero basis functions:      956 in task   531
  | Maximal number of non-zero basis functions:      975 in task   532
  | Maximal number of non-zero basis functions:      973 in task   533
  | Maximal number of non-zero basis functions:      956 in task   534
  | Maximal number of non-zero basis functions:      975 in task   535
  | Maximal number of non-zero basis functions:      973 in task   536
  | Maximal number of non-zero basis functions:      971 in task   537
  | Maximal number of non-zero basis functions:      974 in task   538
  | Maximal number of non-zero basis functions:      974 in task   539
  | Maximal number of non-zero basis functions:      983 in task   540
  | Maximal number of non-zero basis functions:      983 in task   541
  | Maximal number of non-zero basis functions:      960 in task   542
  | Maximal number of non-zero basis functions:      973 in task   543
  | Maximal number of non-zero basis functions:      973 in task   544
  | Maximal number of non-zero basis functions:      958 in task   545
  | Maximal number of non-zero basis functions:      975 in task   546
  | Maximal number of non-zero basis functions:     1026 in task   547
  | Maximal number of non-zero basis functions:      975 in task   548
  | Maximal number of non-zero basis functions:     1026 in task   549
  | Maximal number of non-zero basis functions:      983 in task   550
  | Maximal number of non-zero basis functions:      990 in task   551
  | Maximal number of non-zero basis functions:      981 in task   552
  | Maximal number of non-zero basis functions:      983 in task   553
  | Maximal number of non-zero basis functions:      990 in task   554
  | Maximal number of non-zero basis functions:      981 in task   555
  | Maximal number of non-zero basis functions:      962 in task   556
  | Maximal number of non-zero basis functions:      982 in task   557
  | Maximal number of non-zero basis functions:      985 in task   558
  | Maximal number of non-zero basis functions:      962 in task   559
  | Maximal number of non-zero basis functions:      982 in task   560
  | Maximal number of non-zero basis functions:      985 in task   561
  | Maximal number of non-zero basis functions:      978 in task   562
  | Maximal number of non-zero basis functions:      981 in task   563
  | Maximal number of non-zero basis functions:      981 in task   564
  | Maximal number of non-zero basis functions:      982 in task   565
  | Maximal number of non-zero basis functions:      975 in task   566
  | Maximal number of non-zero basis functions:      982 in task   567
  | Maximal number of non-zero basis functions:      990 in task   568
  | Maximal number of non-zero basis functions:      990 in task   569
  | Maximal number of non-zero basis functions:      970 in task   570
  | Maximal number of non-zero basis functions:      980 in task   571
  | Maximal number of non-zero basis functions:      987 in task   572
  | Maximal number of non-zero basis functions:      980 in task   573
  | Maximal number of non-zero basis functions:      987 in task   574
  | Maximal number of non-zero basis functions:      983 in task   575
  | Maximal number of non-zero basis functions:      990 in task   576
  | Maximal number of non-zero basis functions:      981 in task   577
  | Maximal number of non-zero basis functions:      983 in task   578
  | Maximal number of non-zero basis functions:      990 in task   579
  | Maximal number of non-zero basis functions:      981 in task   580
  | Maximal number of non-zero basis functions:      962 in task   581
  | Maximal number of non-zero basis functions:      982 in task   582
  | Maximal number of non-zero basis functions:      985 in task   583
  | Maximal number of non-zero basis functions:      962 in task   584
  | Maximal number of non-zero basis functions:      982 in task   585
  | Maximal number of non-zero basis functions:      985 in task   586
  | Maximal number of non-zero basis functions:      978 in task   587
  | Maximal number of non-zero basis functions:      981 in task   588
  | Maximal number of non-zero basis functions:      981 in task   589
  | Maximal number of non-zero basis functions:      982 in task   590
  | Maximal number of non-zero basis functions:      975 in task   591
  | Maximal number of non-zero basis functions:      982 in task   592
  | Maximal number of non-zero basis functions:      990 in task   593
  | Maximal number of non-zero basis functions:      990 in task   594
  | Maximal number of non-zero basis functions:      970 in task   595
  | Maximal number of non-zero basis functions:      980 in task   596
  | Maximal number of non-zero basis functions:      987 in task   597
  | Maximal number of non-zero basis functions:      980 in task   598
  | Maximal number of non-zero basis functions:      987 in task   599
  | Maximal number of non-zero basis functions:      985 in task   600
  | Maximal number of non-zero basis functions:      979 in task   601
  | Maximal number of non-zero basis functions:      977 in task   602
  | Maximal number of non-zero basis functions:      985 in task   603
  | Maximal number of non-zero basis functions:      979 in task   604
  | Maximal number of non-zero basis functions:      977 in task   605
  | Maximal number of non-zero basis functions:      956 in task   606
  | Maximal number of non-zero basis functions:      975 in task   607
  | Maximal number of non-zero basis functions:      973 in task   608
  | Maximal number of non-zero basis functions:      956 in task   609
  | Maximal number of non-zero basis functions:      975 in task   610
  | Maximal number of non-zero basis functions:      973 in task   611
  | Maximal number of non-zero basis functions:      971 in task   612
  | Maximal number of non-zero basis functions:      974 in task   613
  | Maximal number of non-zero basis functions:      974 in task   614
  | Maximal number of non-zero basis functions:      973 in task   615
  | Maximal number of non-zero basis functions:      973 in task   616
  | Maximal number of non-zero basis functions:      958 in task   617
  | Maximal number of non-zero basis functions:      983 in task   618
  | Maximal number of non-zero basis functions:      983 in task   619
  | Maximal number of non-zero basis functions:      960 in task   620
  | Maximal number of non-zero basis functions:     1026 in task   621
  | Maximal number of non-zero basis functions:      963 in task   622
  | Maximal number of non-zero basis functions:     1026 in task   623
  | Maximal number of non-zero basis functions:      963 in task   624
  | Maximal number of non-zero basis functions:      998 in task   625
  | Maximal number of non-zero basis functions:      990 in task   626
  | Maximal number of non-zero basis functions:      972 in task   627
  | Maximal number of non-zero basis functions:      998 in task   628
  | Maximal number of non-zero basis functions:      990 in task   629
  | Maximal number of non-zero basis functions:      972 in task   630
  | Maximal number of non-zero basis functions:      963 in task   631
  | Maximal number of non-zero basis functions:      969 in task   632
  | Maximal number of non-zero basis functions:      966 in task   633
  | Maximal number of non-zero basis functions:      963 in task   634
  | Maximal number of non-zero basis functions:      969 in task   635
  | Maximal number of non-zero basis functions:      966 in task   636
  | Maximal number of non-zero basis functions:      983 in task   637
  | Maximal number of non-zero basis functions:      974 in task   638
  | Maximal number of non-zero basis functions:      983 in task   639
  | Maximal number of non-zero basis functions:      966 in task   640
  | Maximal number of non-zero basis functions:      982 in task   641
  | Maximal number of non-zero basis functions:      982 in task   642
  | Maximal number of non-zero basis functions:      990 in task   643
  | Maximal number of non-zero basis functions:      990 in task   644
  | Maximal number of non-zero basis functions:      965 in task   645
  | Maximal number of non-zero basis functions:      988 in task   646
  | Maximal number of non-zero basis functions:      979 in task   647
  | Maximal number of non-zero basis functions:      988 in task   648
  | Maximal number of non-zero basis functions:      979 in task   649
  | Maximal number of non-zero basis functions:      990 in task   650
  | Maximal number of non-zero basis functions:      990 in task   651
  | Maximal number of non-zero basis functions:      975 in task   652
  | Maximal number of non-zero basis functions:      978 in task   653
  | Maximal number of non-zero basis functions:      981 in task   654
  | Maximal number of non-zero basis functions:      981 in task   655
  | Maximal number of non-zero basis functions:      967 in task   656
  | Maximal number of non-zero basis functions:      964 in task   657
  | Maximal number of non-zero basis functions:      967 in task   658
  | Maximal number of non-zero basis functions:      978 in task   659
  | Maximal number of non-zero basis functions:      985 in task   660
  | Maximal number of non-zero basis functions:      985 in task   661
  | Maximal number of non-zero basis functions:      977 in task   662
  | Maximal number of non-zero basis functions:      991 in task   663
  | Maximal number of non-zero basis functions:      983 in task   664
  | Maximal number of non-zero basis functions:      968 in task   665
  | Maximal number of non-zero basis functions:      959 in task   666
  | Maximal number of non-zero basis functions:      957 in task   667
  | Maximal number of non-zero basis functions:      977 in task   668
  | Maximal number of non-zero basis functions:      991 in task   669
  | Maximal number of non-zero basis functions:      970 in task   670
  | Maximal number of non-zero basis functions:      968 in task   671
  | Maximal number of non-zero basis functions:      968 in task   672
  | Maximal number of non-zero basis functions:      992 in task   673
  | Maximal number of non-zero basis functions:      955 in task   674
  | Maximal number of non-zero basis functions:      978 in task   675
  | Maximal number of non-zero basis functions:      981 in task   676
  | Maximal number of non-zero basis functions:      981 in task   677
  | Maximal number of non-zero basis functions:      990 in task   678
  | Maximal number of non-zero basis functions:      990 in task   679
  | Maximal number of non-zero basis functions:      970 in task   680
  | Maximal number of non-zero basis functions:      974 in task   681
  | Maximal number of non-zero basis functions:      982 in task   682
  | Maximal number of non-zero basis functions:      982 in task   683
  | Maximal number of non-zero basis functions:      987 in task   684
  | Maximal number of non-zero basis functions:      980 in task   685
  | Maximal number of non-zero basis functions:      987 in task   686
  | Maximal number of non-zero basis functions:      972 in task   687
  | Maximal number of non-zero basis functions:      991 in task   688
  | Maximal number of non-zero basis functions:      964 in task   689
  | Maximal number of non-zero basis functions:      997 in task   690
  | Maximal number of non-zero basis functions:      958 in task   691
  | Maximal number of non-zero basis functions:      969 in task   692
  | Maximal number of non-zero basis functions:      968 in task   693
  | Maximal number of non-zero basis functions:      991 in task   694
  | Maximal number of non-zero basis functions:      958 in task   695
  | Maximal number of non-zero basis functions:      992 in task   696
  | Maximal number of non-zero basis functions:      997 in task   697
  | Maximal number of non-zero basis functions:      964 in task   698
  | Maximal number of non-zero basis functions:      969 in task   699
  | Maximal number of non-zero basis functions:      985 in task   700
  | Maximal number of non-zero basis functions:      979 in task   701
  | Maximal number of non-zero basis functions:      977 in task   702
  | Maximal number of non-zero basis functions:      985 in task   703
  | Maximal number of non-zero basis functions:      979 in task   704
  | Maximal number of non-zero basis functions:      977 in task   705
  | Maximal number of non-zero basis functions:      956 in task   706
  | Maximal number of non-zero basis functions:      975 in task   707
  | Maximal number of non-zero basis functions:      973 in task   708
  | Maximal number of non-zero basis functions:      956 in task   709
  | Maximal number of non-zero basis functions:      975 in task   710
  | Maximal number of non-zero basis functions:      973 in task   711
  | Maximal number of non-zero basis functions:      971 in task   712
  | Maximal number of non-zero basis functions:      974 in task   713
  | Maximal number of non-zero basis functions:      974 in task   714
  | Maximal number of non-zero basis functions:      973 in task   715
  | Maximal number of non-zero basis functions:      973 in task   716
  | Maximal number of non-zero basis functions:      958 in task   717
  | Maximal number of non-zero basis functions:      983 in task   718
  | Maximal number of non-zero basis functions:      983 in task   719
  | Maximal number of non-zero basis functions:      960 in task   720
  | Maximal number of non-zero basis functions:     1026 in task   721
  | Maximal number of non-zero basis functions:      963 in task   722
  | Maximal number of non-zero basis functions:     1026 in task   723
  | Maximal number of non-zero basis functions:      963 in task   724
  | Maximal number of non-zero basis functions:      998 in task   725
  | Maximal number of non-zero basis functions:      990 in task   726
  | Maximal number of non-zero basis functions:      972 in task   727
  | Maximal number of non-zero basis functions:      998 in task   728
  | Maximal number of non-zero basis functions:      990 in task   729
  | Maximal number of non-zero basis functions:      999 in task   730
  | Maximal number of non-zero basis functions:      963 in task   731
  | Maximal number of non-zero basis functions:      969 in task   732
  | Maximal number of non-zero basis functions:      966 in task   733
  | Maximal number of non-zero basis functions:      963 in task   734
  | Maximal number of non-zero basis functions:      969 in task   735
  | Maximal number of non-zero basis functions:      966 in task   736
  | Maximal number of non-zero basis functions:      983 in task   737
  | Maximal number of non-zero basis functions:      974 in task   738
  | Maximal number of non-zero basis functions:      980 in task   739
  | Maximal number of non-zero basis functions:      966 in task   740
  | Maximal number of non-zero basis functions:      982 in task   741
  | Maximal number of non-zero basis functions:      989 in task   742
  | Maximal number of non-zero basis functions:      990 in task   743
  | Maximal number of non-zero basis functions:      991 in task   744
  | Maximal number of non-zero basis functions:      998 in task   745
  | Maximal number of non-zero basis functions:      988 in task   746
  | Maximal number of non-zero basis functions:      979 in task   747
  | Maximal number of non-zero basis functions:      979 in task   748
  | Maximal number of non-zero basis functions:      964 in task   749
  | Maximal number of non-zero basis functions:      983 in task   750
  | Maximal number of non-zero basis functions:      990 in task   751
  | Maximal number of non-zero basis functions:      981 in task   752
  | Maximal number of non-zero basis functions:      983 in task   753
  | Maximal number of non-zero basis functions:      990 in task   754
  | Maximal number of non-zero basis functions:      981 in task   755
  | Maximal number of non-zero basis functions:      962 in task   756
  | Maximal number of non-zero basis functions:      982 in task   757
  | Maximal number of non-zero basis functions:      985 in task   758
  | Maximal number of non-zero basis functions:      962 in task   759
  | Maximal number of non-zero basis functions:      982 in task   760
  | Maximal number of non-zero basis functions:      985 in task   761
  | Maximal number of non-zero basis functions:      978 in task   762
  | Maximal number of non-zero basis functions:      981 in task   763
  | Maximal number of non-zero basis functions:      981 in task   764
  | Maximal number of non-zero basis functions:      982 in task   765
  | Maximal number of non-zero basis functions:      975 in task   766
  | Maximal number of non-zero basis functions:      982 in task   767
  | Maximal number of non-zero basis functions:      990 in task   768
  | Maximal number of non-zero basis functions:      990 in task   769
  | Maximal number of non-zero basis functions:      970 in task   770
  | Maximal number of non-zero basis functions:      980 in task   771
  | Maximal number of non-zero basis functions:      987 in task   772
  | Maximal number of non-zero basis functions:      980 in task   773
  | Maximal number of non-zero basis functions:      987 in task   774
  | Maximal number of non-zero basis functions:      977 in task   775
  | Maximal number of non-zero basis functions:      991 in task   776
  | Maximal number of non-zero basis functions:      983 in task   777
  | Maximal number of non-zero basis functions:      977 in task   778
  | Maximal number of non-zero basis functions:      991 in task   779
  | Maximal number of non-zero basis functions:      983 in task   780
  | Maximal number of non-zero basis functions:      968 in task   781
  | Maximal number of non-zero basis functions:      958 in task   782
  | Maximal number of non-zero basis functions:      992 in task   783
  | Maximal number of non-zero basis functions:      968 in task   784
  | Maximal number of non-zero basis functions:      958 in task   785
  | Maximal number of non-zero basis functions:      992 in task   786
  | Maximal number of non-zero basis functions:      986 in task   787
  | Maximal number of non-zero basis functions:      972 in task   788
  | Maximal number of non-zero basis functions:      986 in task   789
  | Maximal number of non-zero basis functions:      983 in task   790
  | Maximal number of non-zero basis functions:      997 in task   791
  | Maximal number of non-zero basis functions:      997 in task   792
  | Maximal number of non-zero basis functions:      977 in task   793
  | Maximal number of non-zero basis functions:      991 in task   794
  | Maximal number of non-zero basis functions:      991 in task   795
  | Maximal number of non-zero basis functions:      964 in task   796
  | Maximal number of non-zero basis functions:      969 in task   797
  | Maximal number of non-zero basis functions:      964 in task   798
  | Maximal number of non-zero basis functions:      961 in task   799
  Available memory per node after get_n_compute_maxes_p1 [GB]:    294.08
  Available memory per node after allocate_matrices [GB]:    294.08
  use_local_index: Max. local matrix size =      2648808
  Task:     0 matrix size:    2378259
  Task:     1 matrix size:    2364891
  Task:     2 matrix size:    2455561
  Task:     3 matrix size:    2378259
  Task:     4 matrix size:    2364891
  Task:     5 matrix size:    2451235
  Task:     6 matrix size:    2372998
  Task:     7 matrix size:    2268363
  Task:     8 matrix size:    2533954
  Task:     9 matrix size:    2372998
  Task:    10 matrix size:    2268363
  Task:    11 matrix size:    2542825
  Task:    12 matrix size:    2341856
  Task:    13 matrix size:    2438760
  Task:    14 matrix size:    2355639
  Task:    15 matrix size:    2433827
  Task:    16 matrix size:    2409136
  Task:    17 matrix size:    2418973
  Task:    18 matrix size:    2278634
  Task:    19 matrix size:    2559031
  Task:    20 matrix size:    2299509
  Task:    21 matrix size:    2375129
  Task:    22 matrix size:    2358139
  Task:    23 matrix size:    2375129
  Task:    24 matrix size:    2358139
  Task:    25 matrix size:    2378259
  Task:    26 matrix size:    2364891
  Task:    27 matrix size:    2455561
  Task:    28 matrix size:    2378259
  Task:    29 matrix size:    2364891
  Task:    30 matrix size:    2451235
  Task:    31 matrix size:    2372998
  Task:    32 matrix size:    2268363
  Task:    33 matrix size:    2533954
  Task:    34 matrix size:    2372998
  Task:    35 matrix size:    2268363
  Task:    36 matrix size:    2542825
  Task:    37 matrix size:    2367651
  Task:    38 matrix size:    2378459
  Task:    39 matrix size:    2355639
  Task:    40 matrix size:    2433827
  Task:    41 matrix size:    2410786
  Task:    42 matrix size:    2450915
  Task:    43 matrix size:    2278634
  Task:    44 matrix size:    2560615
  Task:    45 matrix size:    2264418
  Task:    46 matrix size:    2358969
  Task:    47 matrix size:    2358139
  Task:    48 matrix size:    2375129
  Task:    49 matrix size:    2358139
  Task:    50 matrix size:    2408432
  Task:    51 matrix size:    2286213
  Task:    52 matrix size:    2517695
  Task:    53 matrix size:    2408432
  Task:    54 matrix size:    2286213
  Task:    55 matrix size:    2517695
  Task:    56 matrix size:    2329380
  Task:    57 matrix size:    2445947
  Task:    58 matrix size:    2488544
  Task:    59 matrix size:    2329380
  Task:    60 matrix size:    2445947
  Task:    61 matrix size:    2488544
  Task:    62 matrix size:    2381820
  Task:    63 matrix size:    2518613
  Task:    64 matrix size:    2472435
  Task:    65 matrix size:    2397668
  Task:    66 matrix size:    2447223
  Task:    67 matrix size:    2441627
  Task:    68 matrix size:    2378652
  Task:    69 matrix size:    2501323
  Task:    70 matrix size:    2374087
  Task:    71 matrix size:    2360218
  Task:    72 matrix size:    2377912
  Task:    73 matrix size:    2360218
  Task:    74 matrix size:    2377912
  Task:    75 matrix size:    2408432
  Task:    76 matrix size:    2286213
  Task:    77 matrix size:    2517695
  Task:    78 matrix size:    2408432
  Task:    79 matrix size:    2286213
  Task:    80 matrix size:    2517695
  Task:    81 matrix size:    2329380
  Task:    82 matrix size:    2445947
  Task:    83 matrix size:    2488544
  Task:    84 matrix size:    2329380
  Task:    85 matrix size:    2445947
  Task:    86 matrix size:    2488544
  Task:    87 matrix size:    2381820
  Task:    88 matrix size:    2518613
  Task:    89 matrix size:    2472435
  Task:    90 matrix size:    2397668
  Task:    91 matrix size:    2477161
  Task:    92 matrix size:    2441627
  Task:    93 matrix size:    2378652
  Task:    94 matrix size:    2501323
  Task:    95 matrix size:    2374087
  Task:    96 matrix size:    2360218
  Task:    97 matrix size:    2377912
  Task:    98 matrix size:    2360218
  Task:    99 matrix size:    2377912
  Task:   100 matrix size:    2378259
  Task:   101 matrix size:    2364891
  Task:   102 matrix size:    2455561
  Task:   103 matrix size:    2378259
  Task:   104 matrix size:    2364891
  Task:   105 matrix size:    2451235
  Task:   106 matrix size:    2372998
  Task:   107 matrix size:    2268363
  Task:   108 matrix size:    2533954
  Task:   109 matrix size:    2372998
  Task:   110 matrix size:    2268363
  Task:   111 matrix size:    2542825
  Task:   112 matrix size:    2341856
  Task:   113 matrix size:    2438760
  Task:   114 matrix size:    2355639
  Task:   115 matrix size:    2433827
  Task:   116 matrix size:    2409136
  Task:   117 matrix size:    2418973
  Task:   118 matrix size:    2278634
  Task:   119 matrix size:    2559031
  Task:   120 matrix size:    2299509
  Task:   121 matrix size:    2375129
  Task:   122 matrix size:    2358139
  Task:   123 matrix size:    2375129
  Task:   124 matrix size:    2358139
  Task:   125 matrix size:    2378259
  Task:   126 matrix size:    2364891
  Task:   127 matrix size:    2455561
  Task:   128 matrix size:    2378259
  Task:   129 matrix size:    2364891
  Task:   130 matrix size:    2451235
  Task:   131 matrix size:    2372998
  Task:   132 matrix size:    2268363
  Task:   133 matrix size:    2533954
  Task:   134 matrix size:    2372998
  Task:   135 matrix size:    2268363
  Task:   136 matrix size:    2542825
  Task:   137 matrix size:    2367651
  Task:   138 matrix size:    2378459
  Task:   139 matrix size:    2355639
  Task:   140 matrix size:    2433827
  Task:   141 matrix size:    2410786
  Task:   142 matrix size:    2450915
  Task:   143 matrix size:    2278634
  Task:   144 matrix size:    2560615
  Task:   145 matrix size:    2264418
  Task:   146 matrix size:    2358969
  Task:   147 matrix size:    2358139
  Task:   148 matrix size:    2375129
  Task:   149 matrix size:    2358139
  Task:   150 matrix size:    2408432
  Task:   151 matrix size:    2286213
  Task:   152 matrix size:    2517695
  Task:   153 matrix size:    2408432
  Task:   154 matrix size:    2286213
  Task:   155 matrix size:    2517695
  Task:   156 matrix size:    2329380
  Task:   157 matrix size:    2445947
  Task:   158 matrix size:    2488544
  Task:   159 matrix size:    2329380
  Task:   160 matrix size:    2445947
  Task:   161 matrix size:    2488544
  Task:   162 matrix size:    2381820
  Task:   163 matrix size:    2518613
  Task:   164 matrix size:    2472435
  Task:   165 matrix size:    2397668
  Task:   166 matrix size:    2447223
  Task:   167 matrix size:    2441627
  Task:   168 matrix size:    2378652
  Task:   169 matrix size:    2501323
  Task:   170 matrix size:    2374087
  Task:   171 matrix size:    2360218
  Task:   172 matrix size:    2377912
  Task:   173 matrix size:    2360218
  Task:   174 matrix size:    2377912
  Task:   175 matrix size:    2408432
  Task:   176 matrix size:    2286213
  Task:   177 matrix size:    2517695
  Task:   178 matrix size:    2408432
  Task:   179 matrix size:    2286213
  Task:   180 matrix size:    2517695
  Task:   181 matrix size:    2329380
  Task:   182 matrix size:    2445947
  Task:   183 matrix size:    2488544
  Task:   184 matrix size:    2329380
  Task:   185 matrix size:    2445947
  Task:   186 matrix size:    2488544
  Task:   187 matrix size:    2381820
  Task:   188 matrix size:    2518613
  Task:   189 matrix size:    2472435
  Task:   190 matrix size:    2397668
  Task:   191 matrix size:    2477161
  Task:   192 matrix size:    2441627
  Task:   193 matrix size:    2378652
  Task:   194 matrix size:    2501323
  Task:   195 matrix size:    2374087
  Task:   196 matrix size:    2360218
  Task:   197 matrix size:    2377912
  Task:   198 matrix size:    2360218
  Task:   199 matrix size:    2377912
  Task:   200 matrix size:    2378259
  Task:   201 matrix size:    2364891
  Task:   202 matrix size:    2455561
  Task:   203 matrix size:    2378259
  Task:   204 matrix size:    2364891
  Task:   205 matrix size:    2451235
  Task:   206 matrix size:    2372998
  Task:   207 matrix size:    2268363
  Task:   208 matrix size:    2505732
  Task:   209 matrix size:    2372998
  Task:   210 matrix size:    2268363
  Task:   211 matrix size:    2503295
  Task:   212 matrix size:    2341856
  Task:   213 matrix size:    2438760
  Task:   214 matrix size:    2355639
  Task:   215 matrix size:    2433827
  Task:   216 matrix size:    2409468
  Task:   217 matrix size:    2450915
  Task:   218 matrix size:    2277271
  Task:   219 matrix size:    2559031
  Task:   220 matrix size:    2264418
  Task:   221 matrix size:    2358969
  Task:   222 matrix size:    2358139
  Task:   223 matrix size:    2358969
  Task:   224 matrix size:    2358139
  Task:   225 matrix size:    2313547
  Task:   226 matrix size:    2398154
  Task:   227 matrix size:    2472515
  Task:   228 matrix size:    2320502
  Task:   229 matrix size:    2399783
  Task:   230 matrix size:    2474164
  Task:   231 matrix size:    2336994
  Task:   232 matrix size:    2374712
  Task:   233 matrix size:    2570943
  Task:   234 matrix size:    2321211
  Task:   235 matrix size:    2376301
  Task:   236 matrix size:    2569233
  Task:   237 matrix size:    2386647
  Task:   238 matrix size:    2401441
  Task:   239 matrix size:    2360515
  Task:   240 matrix size:    2439331
  Task:   241 matrix size:    2440751
  Task:   242 matrix size:    2403692
  Task:   243 matrix size:    2400705
  Task:   244 matrix size:    2526843
  Task:   245 matrix size:    2344312
  Task:   246 matrix size:    2326889
  Task:   247 matrix size:    2436679
  Task:   248 matrix size:    2325424
  Task:   249 matrix size:    2376811
  Task:   250 matrix size:    2408432
  Task:   251 matrix size:    2321909
  Task:   252 matrix size:    2472018
  Task:   253 matrix size:    2408432
  Task:   254 matrix size:    2298547
  Task:   255 matrix size:    2472018
  Task:   256 matrix size:    2329380
  Task:   257 matrix size:    2447285
  Task:   258 matrix size:    2488544
  Task:   259 matrix size:    2329380
  Task:   260 matrix size:    2447285
  Task:   261 matrix size:    2488544
  Task:   262 matrix size:    2381820
  Task:   263 matrix size:    2519987
  Task:   264 matrix size:    2472435
  Task:   265 matrix size:    2397668
  Task:   266 matrix size:    2477161
  Task:   267 matrix size:    2441627
  Task:   268 matrix size:    2378652
  Task:   269 matrix size:    2501323
  Task:   270 matrix size:    2374087
  Task:   271 matrix size:    2360218
  Task:   272 matrix size:    2377912
  Task:   273 matrix size:    2360218
  Task:   274 matrix size:    2377912
  Task:   275 matrix size:    2327424
  Task:   276 matrix size:    2394627
  Task:   277 matrix size:    2504203
  Task:   278 matrix size:    2327424
  Task:   279 matrix size:    2400483
  Task:   280 matrix size:    2493976
  Task:   281 matrix size:    2397693
  Task:   282 matrix size:    2428875
  Task:   283 matrix size:    2470304
  Task:   284 matrix size:    2397693
  Task:   285 matrix size:    2428875
  Task:   286 matrix size:    2470304
  Task:   287 matrix size:    2425364
  Task:   288 matrix size:    2356146
  Task:   289 matrix size:    2389987
  Task:   290 matrix size:    2365619
  Task:   291 matrix size:    2509779
  Task:   292 matrix size:    2356296
  Task:   293 matrix size:    2414593
  Task:   294 matrix size:    2462794
  Task:   295 matrix size:    2392664
  Task:   296 matrix size:    2363672
  Task:   297 matrix size:    2437199
  Task:   298 matrix size:    2363672
  Task:   299 matrix size:    2437199
  Task:   300 matrix size:    2378259
  Task:   301 matrix size:    2364891
  Task:   302 matrix size:    2455561
  Task:   303 matrix size:    2378259
  Task:   304 matrix size:    2364891
  Task:   305 matrix size:    2451235
  Task:   306 matrix size:    2372998
  Task:   307 matrix size:    2268363
  Task:   308 matrix size:    2505732
  Task:   309 matrix size:    2372998
  Task:   310 matrix size:    2268363
  Task:   311 matrix size:    2503295
  Task:   312 matrix size:    2341856
  Task:   313 matrix size:    2438760
  Task:   314 matrix size:    2355639
  Task:   315 matrix size:    2433827
  Task:   316 matrix size:    2409468
  Task:   317 matrix size:    2448179
  Task:   318 matrix size:    2277271
  Task:   319 matrix size:    2559031
  Task:   320 matrix size:    2264418
  Task:   321 matrix size:    2358969
  Task:   322 matrix size:    2358139
  Task:   323 matrix size:    2358969
  Task:   324 matrix size:    2358139
  Task:   325 matrix size:    2313547
  Task:   326 matrix size:    2407977
  Task:   327 matrix size:    2472515
  Task:   328 matrix size:    2313547
  Task:   329 matrix size:    2400674
  Task:   330 matrix size:    2474164
  Task:   331 matrix size:    2343447
  Task:   332 matrix size:    2361358
  Task:   333 matrix size:    2569233
  Task:   334 matrix size:    2336994
  Task:   335 matrix size:    2365296
  Task:   336 matrix size:    2563968
  Task:   337 matrix size:    2380176
  Task:   338 matrix size:    2451527
  Task:   339 matrix size:    2359262
  Task:   340 matrix size:    2403456
  Task:   341 matrix size:    2485346
  Task:   342 matrix size:    2464856
  Task:   343 matrix size:    2400705
  Task:   344 matrix size:    2555299
  Task:   345 matrix size:    2344086
  Task:   346 matrix size:    2326889
  Task:   347 matrix size:    2376811
  Task:   348 matrix size:    2392761
  Task:   349 matrix size:    2380509
  Task:   350 matrix size:    2432721
  Task:   351 matrix size:    2392417
  Task:   352 matrix size:    2606811
  Task:   353 matrix size:    2370096
  Task:   354 matrix size:    2405752
  Task:   355 matrix size:    2540707
  Task:   356 matrix size:    2314313
  Task:   357 matrix size:    2437500
  Task:   358 matrix size:    2507824
  Task:   359 matrix size:    2319334
  Task:   360 matrix size:    2463094
  Task:   361 matrix size:    2487859
  Task:   362 matrix size:    2442548
  Task:   363 matrix size:    2527823
  Task:   364 matrix size:    2486770
  Task:   365 matrix size:    2387617
  Task:   366 matrix size:    2393420
  Task:   367 matrix size:    2395713
  Task:   368 matrix size:    2403058
  Task:   369 matrix size:    2415677
  Task:   370 matrix size:    2410637
  Task:   371 matrix size:    2359348
  Task:   372 matrix size:    2363570
  Task:   373 matrix size:    2252584
  Task:   374 matrix size:    2407449
  Task:   375 matrix size:    2314362
  Task:   376 matrix size:    2383858
  Task:   377 matrix size:    2488003
  Task:   378 matrix size:    2350998
  Task:   379 matrix size:    2336294
  Task:   380 matrix size:    2647107
  Task:   381 matrix size:    2290757
  Task:   382 matrix size:    2440424
  Task:   383 matrix size:    2456039
  Task:   384 matrix size:    2399508
  Task:   385 matrix size:    2410995
  Task:   386 matrix size:    2480019
  Task:   387 matrix size:    2420902
  Task:   388 matrix size:    2464069
  Task:   389 matrix size:    2442531
  Task:   390 matrix size:    2398829
  Task:   391 matrix size:    2388916
  Task:   392 matrix size:    2391598
  Task:   393 matrix size:    2372170
  Task:   394 matrix size:    2474908
  Task:   395 matrix size:    2345725
  Task:   396 matrix size:    2273531
  Task:   397 matrix size:    2414836
  Task:   398 matrix size:    2401670
  Task:   399 matrix size:    2359937
  Task:   400 matrix size:    2363252
  Task:   401 matrix size:    2403486
  Task:   402 matrix size:    2453248
  Task:   403 matrix size:    2363252
  Task:   404 matrix size:    2411664
  Task:   405 matrix size:    2453599
  Task:   406 matrix size:    2294191
  Task:   407 matrix size:    2377196
  Task:   408 matrix size:    2486417
  Task:   409 matrix size:    2294191
  Task:   410 matrix size:    2389327
  Task:   411 matrix size:    2528261
  Task:   412 matrix size:    2377057
  Task:   413 matrix size:    2425017
  Task:   414 matrix size:    2387514
  Task:   415 matrix size:    2249941
  Task:   416 matrix size:    2528940
  Task:   417 matrix size:    2292972
  Task:   418 matrix size:    2360163
  Task:   419 matrix size:    2357469
  Task:   420 matrix size:    2390665
  Task:   421 matrix size:    2320227
  Task:   422 matrix size:    2436268
  Task:   423 matrix size:    2320227
  Task:   424 matrix size:    2436268
  Task:   425 matrix size:    2363252
  Task:   426 matrix size:    2403486
  Task:   427 matrix size:    2453248
  Task:   428 matrix size:    2363252
  Task:   429 matrix size:    2411664
  Task:   430 matrix size:    2453599
  Task:   431 matrix size:    2294191
  Task:   432 matrix size:    2377196
  Task:   433 matrix size:    2486417
  Task:   434 matrix size:    2294191
  Task:   435 matrix size:    2389327
  Task:   436 matrix size:    2528261
  Task:   437 matrix size:    2377057
  Task:   438 matrix size:    2425017
  Task:   439 matrix size:    2387514
  Task:   440 matrix size:    2249941
  Task:   441 matrix size:    2528940
  Task:   442 matrix size:    2292972
  Task:   443 matrix size:    2360163
  Task:   444 matrix size:    2357469
  Task:   445 matrix size:    2390665
  Task:   446 matrix size:    2320227
  Task:   447 matrix size:    2436268
  Task:   448 matrix size:    2320227
  Task:   449 matrix size:    2436268
  Task:   450 matrix size:    2401152
  Task:   451 matrix size:    2336726
  Task:   452 matrix size:    2595452
  Task:   453 matrix size:    2401152
  Task:   454 matrix size:    2336726
  Task:   455 matrix size:    2595452
  Task:   456 matrix size:    2344493
  Task:   457 matrix size:    2342316
  Task:   458 matrix size:    2436539
  Task:   459 matrix size:    2344493
  Task:   460 matrix size:    2342316
  Task:   461 matrix size:    2436539
  Task:   462 matrix size:    2475325
  Task:   463 matrix size:    2500923
  Task:   464 matrix size:    2415455
  Task:   465 matrix size:    2395826
  Task:   466 matrix size:    2515655
  Task:   467 matrix size:    2394519
  Task:   468 matrix size:    2470269
  Task:   469 matrix size:    2566032
  Task:   470 matrix size:    2470470
  Task:   471 matrix size:    2360277
  Task:   472 matrix size:    2401794
  Task:   473 matrix size:    2360277
  Task:   474 matrix size:    2401794
  Task:   475 matrix size:    2401152
  Task:   476 matrix size:    2336726
  Task:   477 matrix size:    2595452
  Task:   478 matrix size:    2401152
  Task:   479 matrix size:    2336726
  Task:   480 matrix size:    2595452
  Task:   481 matrix size:    2344493
  Task:   482 matrix size:    2342316
  Task:   483 matrix size:    2436539
  Task:   484 matrix size:    2344493
  Task:   485 matrix size:    2342316
  Task:   486 matrix size:    2436539
  Task:   487 matrix size:    2475325
  Task:   488 matrix size:    2524617
  Task:   489 matrix size:    2415455
  Task:   490 matrix size:    2394502
  Task:   491 matrix size:    2497725
  Task:   492 matrix size:    2394519
  Task:   493 matrix size:    2470269
  Task:   494 matrix size:    2566032
  Task:   495 matrix size:    2470470
  Task:   496 matrix size:    2360277
  Task:   497 matrix size:    2401794
  Task:   498 matrix size:    2360277
  Task:   499 matrix size:    2401794
  Task:   500 matrix size:    2363252
  Task:   501 matrix size:    2403486
  Task:   502 matrix size:    2453248
  Task:   503 matrix size:    2363252
  Task:   504 matrix size:    2411664
  Task:   505 matrix size:    2453599
  Task:   506 matrix size:    2294191
  Task:   507 matrix size:    2377196
  Task:   508 matrix size:    2486417
  Task:   509 matrix size:    2294191
  Task:   510 matrix size:    2389327
  Task:   511 matrix size:    2528261
  Task:   512 matrix size:    2377057
  Task:   513 matrix size:    2425017
  Task:   514 matrix size:    2387514
  Task:   515 matrix size:    2249941
  Task:   516 matrix size:    2528940
  Task:   517 matrix size:    2292972
  Task:   518 matrix size:    2360163
  Task:   519 matrix size:    2357469
  Task:   520 matrix size:    2390665
  Task:   521 matrix size:    2320227
  Task:   522 matrix size:    2436268
  Task:   523 matrix size:    2320227
  Task:   524 matrix size:    2436268
  Task:   525 matrix size:    2363252
  Task:   526 matrix size:    2403486
  Task:   527 matrix size:    2453248
  Task:   528 matrix size:    2363252
  Task:   529 matrix size:    2411664
  Task:   530 matrix size:    2453599
  Task:   531 matrix size:    2294191
  Task:   532 matrix size:    2377196
  Task:   533 matrix size:    2486417
  Task:   534 matrix size:    2294191
  Task:   535 matrix size:    2389327
  Task:   536 matrix size:    2528261
  Task:   537 matrix size:    2377057
  Task:   538 matrix size:    2425017
  Task:   539 matrix size:    2387514
  Task:   540 matrix size:    2249941
  Task:   541 matrix size:    2528940
  Task:   542 matrix size:    2292972
  Task:   543 matrix size:    2360163
  Task:   544 matrix size:    2357469
  Task:   545 matrix size:    2390665
  Task:   546 matrix size:    2320227
  Task:   547 matrix size:    2436268
  Task:   548 matrix size:    2320227
  Task:   549 matrix size:    2436268
  Task:   550 matrix size:    2401152
  Task:   551 matrix size:    2336726
  Task:   552 matrix size:    2595452
  Task:   553 matrix size:    2401152
  Task:   554 matrix size:    2336726
  Task:   555 matrix size:    2595452
  Task:   556 matrix size:    2344493
  Task:   557 matrix size:    2342316
  Task:   558 matrix size:    2436539
  Task:   559 matrix size:    2344493
  Task:   560 matrix size:    2342316
  Task:   561 matrix size:    2436539
  Task:   562 matrix size:    2475325
  Task:   563 matrix size:    2524617
  Task:   564 matrix size:    2415455
  Task:   565 matrix size:    2394502
  Task:   566 matrix size:    2497725
  Task:   567 matrix size:    2394519
  Task:   568 matrix size:    2470269
  Task:   569 matrix size:    2566032
  Task:   570 matrix size:    2470470
  Task:   571 matrix size:    2360277
  Task:   572 matrix size:    2401794
  Task:   573 matrix size:    2360277
  Task:   574 matrix size:    2401794
  Task:   575 matrix size:    2401152
  Task:   576 matrix size:    2336726
  Task:   577 matrix size:    2595452
  Task:   578 matrix size:    2401152
  Task:   579 matrix size:    2336726
  Task:   580 matrix size:    2595452
  Task:   581 matrix size:    2344493
  Task:   582 matrix size:    2342316
  Task:   583 matrix size:    2436539
  Task:   584 matrix size:    2344493
  Task:   585 matrix size:    2342316
  Task:   586 matrix size:    2436539
  Task:   587 matrix size:    2475325
  Task:   588 matrix size:    2524617
  Task:   589 matrix size:    2415455
  Task:   590 matrix size:    2394502
  Task:   591 matrix size:    2497725
  Task:   592 matrix size:    2394519
  Task:   593 matrix size:    2470269
  Task:   594 matrix size:    2566032
  Task:   595 matrix size:    2470470
  Task:   596 matrix size:    2360277
  Task:   597 matrix size:    2401794
  Task:   598 matrix size:    2360277
  Task:   599 matrix size:    2401794
  Task:   600 matrix size:    2363252
  Task:   601 matrix size:    2403486
  Task:   602 matrix size:    2453248
  Task:   603 matrix size:    2363252
  Task:   604 matrix size:    2403486
  Task:   605 matrix size:    2453248
  Task:   606 matrix size:    2294191
  Task:   607 matrix size:    2401388
  Task:   608 matrix size:    2486417
  Task:   609 matrix size:    2294191
  Task:   610 matrix size:    2394348
  Task:   611 matrix size:    2486417
  Task:   612 matrix size:    2511623
  Task:   613 matrix size:    2381076
  Task:   614 matrix size:    2437615
  Task:   615 matrix size:    2385706
  Task:   616 matrix size:    2420633
  Task:   617 matrix size:    2391890
  Task:   618 matrix size:    2242439
  Task:   619 matrix size:    2560064
  Task:   620 matrix size:    2247490
  Task:   621 matrix size:    2332520
  Task:   622 matrix size:    2402094
  Task:   623 matrix size:    2331048
  Task:   624 matrix size:    2402094
  Task:   625 matrix size:    2444104
  Task:   626 matrix size:    2251453
  Task:   627 matrix size:    2500940
  Task:   628 matrix size:    2436454
  Task:   629 matrix size:    2282340
  Task:   630 matrix size:    2500940
  Task:   631 matrix size:    2315593
  Task:   632 matrix size:    2286782
  Task:   633 matrix size:    2463326
  Task:   634 matrix size:    2315593
  Task:   635 matrix size:    2301263
  Task:   636 matrix size:    2463326
  Task:   637 matrix size:    2422758
  Task:   638 matrix size:    2462669
  Task:   639 matrix size:    2476022
  Task:   640 matrix size:    2420770
  Task:   641 matrix size:    2507629
  Task:   642 matrix size:    2424090
  Task:   643 matrix size:    2452426
  Task:   644 matrix size:    2545574
  Task:   645 matrix size:    2387752
  Task:   646 matrix size:    2377224
  Task:   647 matrix size:    2409468
  Task:   648 matrix size:    2377224
  Task:   649 matrix size:    2409468
  Task:   650 matrix size:    2347952
  Task:   651 matrix size:    2464683
  Task:   652 matrix size:    2498260
  Task:   653 matrix size:    2316422
  Task:   654 matrix size:    2343066
  Task:   655 matrix size:    2562952
  Task:   656 matrix size:    2340238
  Task:   657 matrix size:    2414766
  Task:   658 matrix size:    2517502
  Task:   659 matrix size:    2346824
  Task:   660 matrix size:    2419308
  Task:   661 matrix size:    2510428
  Task:   662 matrix size:    2441733
  Task:   663 matrix size:    2427990
  Task:   664 matrix size:    2503826
  Task:   665 matrix size:    2386954
  Task:   666 matrix size:    2454691
  Task:   667 matrix size:    2441337
  Task:   668 matrix size:    2317583
  Task:   669 matrix size:    2423692
  Task:   670 matrix size:    2294949
  Task:   671 matrix size:    2333999
  Task:   672 matrix size:    2413724
  Task:   673 matrix size:    2350342
  Task:   674 matrix size:    2349681
  Task:   675 matrix size:    2263814
  Task:   676 matrix size:    2356128
  Task:   677 matrix size:    2568809
  Task:   678 matrix size:    2403152
  Task:   679 matrix size:    2472636
  Task:   680 matrix size:    2509758
  Task:   681 matrix size:    2332884
  Task:   682 matrix size:    2416418
  Task:   683 matrix size:    2529690
  Task:   684 matrix size:    2345591
  Task:   685 matrix size:    2400571
  Task:   686 matrix size:    2545103
  Task:   687 matrix size:    2466185
  Task:   688 matrix size:    2353436
  Task:   689 matrix size:    2440246
  Task:   690 matrix size:    2414749
  Task:   691 matrix size:    2503248
  Task:   692 matrix size:    2419473
  Task:   693 matrix size:    2311406
  Task:   694 matrix size:    2390629
  Task:   695 matrix size:    2337998
  Task:   696 matrix size:    2241375
  Task:   697 matrix size:    2423317
  Task:   698 matrix size:    2292847
  Task:   699 matrix size:    2459549
  Task:   700 matrix size:    2363252
  Task:   701 matrix size:    2403486
  Task:   702 matrix size:    2453248
  Task:   703 matrix size:    2363252
  Task:   704 matrix size:    2403486
  Task:   705 matrix size:    2453248
  Task:   706 matrix size:    2294191
  Task:   707 matrix size:    2401388
  Task:   708 matrix size:    2486417
  Task:   709 matrix size:    2294191
  Task:   710 matrix size:    2389327
  Task:   711 matrix size:    2528261
  Task:   712 matrix size:    2511623
  Task:   713 matrix size:    2360942
  Task:   714 matrix size:    2439120
  Task:   715 matrix size:    2385706
  Task:   716 matrix size:    2420633
  Task:   717 matrix size:    2391890
  Task:   718 matrix size:    2242439
  Task:   719 matrix size:    2560064
  Task:   720 matrix size:    2244252
  Task:   721 matrix size:    2332520
  Task:   722 matrix size:    2402094
  Task:   723 matrix size:    2332520
  Task:   724 matrix size:    2402094
  Task:   725 matrix size:    2444104
  Task:   726 matrix size:    2251453
  Task:   727 matrix size:    2500940
  Task:   728 matrix size:    2436454
  Task:   729 matrix size:    2282340
  Task:   730 matrix size:    2508638
  Task:   731 matrix size:    2315593
  Task:   732 matrix size:    2286782
  Task:   733 matrix size:    2463326
  Task:   734 matrix size:    2315593
  Task:   735 matrix size:    2304002
  Task:   736 matrix size:    2463326
  Task:   737 matrix size:    2456810
  Task:   738 matrix size:    2433706
  Task:   739 matrix size:    2478560
  Task:   740 matrix size:    2420770
  Task:   741 matrix size:    2479484
  Task:   742 matrix size:    2428464
  Task:   743 matrix size:    2452426
  Task:   744 matrix size:    2579423
  Task:   745 matrix size:    2284207
  Task:   746 matrix size:    2364028
  Task:   747 matrix size:    2409468
  Task:   748 matrix size:    2399608
  Task:   749 matrix size:    2383496
  Task:   750 matrix size:    2416502
  Task:   751 matrix size:    2302662
  Task:   752 matrix size:    2595452
  Task:   753 matrix size:    2408807
  Task:   754 matrix size:    2302662
  Task:   755 matrix size:    2595452
  Task:   756 matrix size:    2344493
  Task:   757 matrix size:    2342316
  Task:   758 matrix size:    2436539
  Task:   759 matrix size:    2344493
  Task:   760 matrix size:    2342316
  Task:   761 matrix size:    2436539
  Task:   762 matrix size:    2475325
  Task:   763 matrix size:    2537157
  Task:   764 matrix size:    2415455
  Task:   765 matrix size:    2394502
  Task:   766 matrix size:    2509318
  Task:   767 matrix size:    2394519
  Task:   768 matrix size:    2470269
  Task:   769 matrix size:    2585593
  Task:   770 matrix size:    2470470
  Task:   771 matrix size:    2358876
  Task:   772 matrix size:    2401794
  Task:   773 matrix size:    2360277
  Task:   774 matrix size:    2401794
  Task:   775 matrix size:    2453760
  Task:   776 matrix size:    2345943
  Task:   777 matrix size:    2540767
  Task:   778 matrix size:    2453760
  Task:   779 matrix size:    2344402
  Task:   780 matrix size:    2540767
  Task:   781 matrix size:    2328084
  Task:   782 matrix size:    2303961
  Task:   783 matrix size:    2484989
  Task:   784 matrix size:    2328084
  Task:   785 matrix size:    2303961
  Task:   786 matrix size:    2484989
  Task:   787 matrix size:    2476883
  Task:   788 matrix size:    2309796
  Task:   789 matrix size:    2376378
  Task:   790 matrix size:    2365166
  Task:   791 matrix size:    2648808
  Task:   792 matrix size:    2371457
  Task:   793 matrix size:    2433434
  Task:   794 matrix size:    2534150
  Task:   795 matrix size:    2412133
  Task:   796 matrix size:    2310247
  Task:   797 matrix size:    2455586
  Task:   798 matrix size:    2299551
  Task:   799 matrix size:    2463371
  Available memory per node after init_comm_sparse_local_matrix_scalapack [GB]:    274.55
  Integrating Hamiltonian matrix: batch-based integration.
  Time summed over all CPUs for integration: real work     2959.045 s, elapsed     3319.802 s
  | Time get_set_sparse_local_matrix_scalapack:     1.087121 s
  Available memory per node after integrate hamiltonian matrix [GB]:    273.36
  Integrating overlap matrix.
  Time summed over all CPUs for integration: real work     2802.868 s, elapsed     3065.243 s
  | Time get_set_sparse_local_matrix_scalapack:     1.039817 s
  Available memory per node after integrate ovlp matrix [GB]:    271.36
  Available memory per node after save_overlap_scalapack [GB]:    133.62
  Available memory per node after advance_KS_solution [GB]:    165.53
  Calculating total energy contributions from superposition of free atom densities.
  Initialize hartree_potential_storage
  Max. number of atoms included in rho_multipole:         2560

  End scf initialization - timings             :  max(cpu_time)    wall_clock(cpu1)
  | Time for scf. initialization                :      219.109 s         225.852 s
  | Boundary condition initialization           :        0.661 s           0.682 s
  | Integration                                 :       10.027 s          10.149 s
  | Grid partitioning                           :        5.437 s           5.508 s
  | Preloading free-atom quantities on grid     :        4.202 s           4.254 s
  | Free-atom superposition energy              :        0.730 s           0.738 s

  Partial memory accounting:
  | Current value for overall tracked memory usage:
  |   Minimum:     2125.079 MB (on task 696)
  |   Maximum:     2126.633 MB (on task 791)
  |   Average:     2125.704 MB
  | Peak value for overall tracked memory usage:
  |   Minimum:     2125.079 MB (on task 696 after allocating ovlp_complex_stored)
  |   Maximum:     2126.633 MB (on task 791 after allocating ovlp_complex_stored)
  |   Average:     2125.704 MB
  | Largest tracked array allocation so far:
  |   Minimum:      529.000 MB (ovlp_complex on task   0)
  |   Maximum:      529.000 MB (ovlp_complex on task   0)
  |   Average:      529.000 MB
  Note:  These values currently only include a subset of arrays which are explicitly tracked.
  The "true" memory usage will be greater.
------------------------------------------------------------
  Available memory after initialize_scf [GB]:    167.25
  Available memory after allocating mixing [GB]:    167.23
  Evaluating new KS density using the density matrix
  Evaluating density matrix
slurmstepd: error: Detected 115 oom_kill events in StepId=9805324.0. Some of the step tasks have been OOM Killed.
slurmstepd: error: Detected 114 oom_kill events in StepId=9805324.0. Some of the step tasks have been OOM Killed.
slurmstepd: error: Detected 115 oom_kill events in StepId=9805324.0. Some of the step tasks have been OOM Killed.
slurmstepd: error: Detected 114 oom_kill events in StepId=9805324.0. Some of the step tasks have been OOM Killed.
slurmstepd: error: Detected 114 oom_kill events in StepId=9805324.0. Some of the step tasks have been OOM Killed.
slurmstepd: error: Detected 114 oom_kill events in StepId=9805324.0. Some of the step tasks have been OOM Killed.
slurmstepd: error: Detected 115 oom_kill events in StepId=9805324.0. Some of the step tasks have been OOM Killed.
srun: error: vipc2480: tasks 572-685: Out Of Memory
srun: Terminating StepId=9805324.0
slurmstepd: error: *** STEP 9805324.0 ON vipc2146 CANCELLED AT 2026-06-14T11:42:47 ***
