5
Lattice="3.914011643421 0.0 -0.0 0.0 3.914011420002 0.0 0.0 0.0 3.914011560053" Properties=species:S:1:pos:R:3 pbc="T T T"
Ti       1.95700584       1.95700592       1.95700565
Pb      -0.00000018      -0.00000013       0.00000048
O        1.95700590       0.00000018       1.95700570
O        1.95700590       1.95700558      -0.00000019
O        0.00000000       1.95700558       1.95700570
5
Lattice="3.914011643421 0.0 -0.0 0.0 3.914011420002 0.0 0.0 0.0 3.914011560053" Properties=species:S:1:pos:R:3 pbc="T T T"
Ti       1.95800584       1.95700592       1.95700565
Pb      -0.00000018      -0.00000013       0.00000048
O        1.95700590       0.00000018       1.95700570
O        1.95700590       1.95700558      -0.00000019
O        0.00000000       1.95700558       1.95700570
5
Lattice="3.914011643421 0.0 -0.0 0.0 3.914011420002 0.0 0.0 0.0 3.914011560053" Properties=species:S:1:pos:R:3 pbc="T T T"
Ti       1.95700584       1.95800592       1.95700565
Pb      -0.00000018      -0.00000013       0.00000048
O        1.95700590       0.00000018       1.95700570
O        1.95700590       1.95700558      -0.00000019
O        0.00000000       1.95700558       1.95700570
5
Lattice="3.914011643421 0.0 -0.0 0.0 3.914011420002 0.0 0.0 0.0 3.914011560053" Properties=species:S:1:pos:R:3 pbc="T T T"
Ti       1.95700584       1.95700592       1.95800565
Pb      -0.00000018      -0.00000013       0.00000048
O        1.95700590       0.00000018       1.95700570
O        1.95700590       1.95700558      -0.00000019
O        0.00000000       1.95700558       1.95700570
5
Lattice="3.914011643421 0.0 -0.0 0.0 3.914011420002 0.0 0.0 0.0 3.914011560053" Properties=species:S:1:pos:R:3 pbc="T T T"
Ti       1.95700584       1.95700592       1.95700565
Pb       0.00099982      -0.00000013       0.00000048
O        1.95700590       0.00000018       1.95700570
O        1.95700590       1.95700558      -0.00000019
O        0.00000000       1.95700558       1.95700570
5
Lattice="3.914011643421 0.0 -0.0 0.0 3.914011420002 0.0 0.0 0.0 3.914011560053" Properties=species:S:1:pos:R:3 pbc="T T T"
Ti       1.95700584       1.95700592       1.95700565
Pb      -0.00000018       0.00099987       0.00000048
O        1.95700590       0.00000018       1.95700570
O        1.95700590       1.95700558      -0.00000019
O        0.00000000       1.95700558       1.95700570
5
Lattice="3.914011643421 0.0 -0.0 0.0 3.914011420002 0.0 0.0 0.0 3.914011560053" Properties=species:S:1:pos:R:3 pbc="T T T"
Ti       1.95700584       1.95700592       1.95700565
Pb      -0.00000018      -0.00000013       0.00100048
O        1.95700590       0.00000018       1.95700570
O        1.95700590       1.95700558      -0.00000019
O        0.00000000       1.95700558       1.95700570
5
Lattice="3.914011643421 0.0 -0.0 0.0 3.914011420002 0.0 0.0 0.0 3.914011560053" Properties=species:S:1:pos:R:3 pbc="T T T"
Ti       1.95700584       1.95700592       1.95700565
Pb      -0.00000018      -0.00000013       0.00000048
O        1.95800590       0.00000018       1.95700570
O        1.95700590       1.95700558      -0.00000019
O        0.00000000       1.95700558       1.95700570
5
Lattice="3.914011643421 0.0 -0.0 0.0 3.914011420002 0.0 0.0 0.0 3.914011560053" Properties=species:S:1:pos:R:3 pbc="T T T"
Ti       1.95700584       1.95700592       1.95700565
Pb      -0.00000018      -0.00000013       0.00000048
O        1.95700590       0.00100018       1.95700570
O        1.95700590       1.95700558      -0.00000019
O        0.00000000       1.95700558       1.95700570
5
Lattice="3.914011643421 0.0 -0.0 0.0 3.914011420002 0.0 0.0 0.0 3.914011560053" Properties=species:S:1:pos:R:3 pbc="T T T"
Ti       1.95700584       1.95700592       1.95700565
Pb      -0.00000018      -0.00000013       0.00000048
O        1.95700590       0.00000018       1.95800570
O        1.95700590       1.95700558      -0.00000019
O        0.00000000       1.95700558       1.95700570
5
Lattice="3.914011643421 0.0 -0.0 0.0 3.914011420002 0.0 0.0 0.0 3.914011560053" Properties=species:S:1:pos:R:3 pbc="T T T"
Ti       1.95700584       1.95700592       1.95700565
Pb      -0.00000018      -0.00000013       0.00000048
O        1.95700590       0.00000018       1.95700570
O        1.95800590       1.95700558      -0.00000019
O        0.00000000       1.95700558       1.95700570
5
Lattice="3.914011643421 0.0 -0.0 0.0 3.914011420002 0.0 0.0 0.0 3.914011560053" Properties=species:S:1:pos:R:3 pbc="T T T"
Ti       1.95700584       1.95700592       1.95700565
Pb      -0.00000018      -0.00000013       0.00000048
O        1.95700590       0.00000018       1.95700570
O        1.95700590       1.95800558      -0.00000019
O        0.00000000       1.95700558       1.95700570
5
Lattice="3.914011643421 0.0 -0.0 0.0 3.914011420002 0.0 0.0 0.0 3.914011560053" Properties=species:S:1:pos:R:3 pbc="T T T"
Ti       1.95700584       1.95700592       1.95700565
Pb      -0.00000018      -0.00000013       0.00000048
O        1.95700590       0.00000018       1.95700570
O        1.95700590       1.95700558       0.00099981
O        0.00000000       1.95700558       1.95700570
5
Lattice="3.914011643421 0.0 -0.0 0.0 3.914011420002 0.0 0.0 0.0 3.914011560053" Properties=species:S:1:pos:R:3 pbc="T T T"
Ti       1.95700584       1.95700592       1.95700565
Pb      -0.00000018      -0.00000013       0.00000048
O        1.95700590       0.00000018       1.95700570
O        1.95700590       1.95700558      -0.00000019
O        0.00100000       1.95700558       1.95700570
5
Lattice="3.914011643421 0.0 -0.0 0.0 3.914011420002 0.0 0.0 0.0 3.914011560053" Properties=species:S:1:pos:R:3 pbc="T T T"
Ti       1.95700584       1.95700592       1.95700565
Pb      -0.00000018      -0.00000013       0.00000048
O        1.95700590       0.00000018       1.95700570
O        1.95700590       1.95700558      -0.00000019
O        0.00000000       1.95800558       1.95700570
5
Lattice="3.914011643421 0.0 -0.0 0.0 3.914011420002 0.0 0.0 0.0 3.914011560053" Properties=species:S:1:pos:R:3 pbc="T T T"
Ti       1.95700584       1.95700592       1.95700565
Pb      -0.00000018      -0.00000013       0.00000048
O        1.95700590       0.00000018       1.95700570
O        1.95700590       1.95700558      -0.00000019
O        0.00000000       1.95700558       1.95800570
5
Lattice="3.914011643421 0.0 -0.0 0.0 3.914011420002 0.0 0.0 0.0 3.914011560053" Properties=species:S:1:pos:R:3 pbc="T T T"
Ti       1.95600584       1.95700592       1.95700565
Pb      -0.00000018      -0.00000013       0.00000048
O        1.95700590       0.00000018       1.95700570
O        1.95700590       1.95700558      -0.00000019
O        0.00000000       1.95700558       1.95700570
5
Lattice="3.914011643421 0.0 -0.0 0.0 3.914011420002 0.0 0.0 0.0 3.914011560053" Properties=species:S:1:pos:R:3 pbc="T T T"
Ti       1.95700584       1.95600592       1.95700565
Pb      -0.00000018      -0.00000013       0.00000048
O        1.95700590       0.00000018       1.95700570
O        1.95700590       1.95700558      -0.00000019
O        0.00000000       1.95700558       1.95700570
5
Lattice="3.914011643421 0.0 -0.0 0.0 3.914011420002 0.0 0.0 0.0 3.914011560053" Properties=species:S:1:pos:R:3 pbc="T T T"
Ti       1.95700584       1.95700592       1.95600565
Pb      -0.00000018      -0.00000013       0.00000048
O        1.95700590       0.00000018       1.95700570
O        1.95700590       1.95700558      -0.00000019
O        0.00000000       1.95700558       1.95700570
5
Lattice="3.914011643421 0.0 -0.0 0.0 3.914011420002 0.0 0.0 0.0 3.914011560053" Properties=species:S:1:pos:R:3 pbc="T T T"
Ti       1.95700584       1.95700592       1.95700565
Pb      -0.00100018      -0.00000013       0.00000048
O        1.95700590       0.00000018       1.95700570
O        1.95700590       1.95700558      -0.00000019
O        0.00000000       1.95700558       1.95700570
5
Lattice="3.914011643421 0.0 -0.0 0.0 3.914011420002 0.0 0.0 0.0 3.914011560053" Properties=species:S:1:pos:R:3 pbc="T T T"
Ti       1.95700584       1.95700592       1.95700565
Pb      -0.00000018      -0.00100013       0.00000048
O        1.95700590       0.00000018       1.95700570
O        1.95700590       1.95700558      -0.00000019
O        0.00000000       1.95700558       1.95700570
5
Lattice="3.914011643421 0.0 -0.0 0.0 3.914011420002 0.0 0.0 0.0 3.914011560053" Properties=species:S:1:pos:R:3 pbc="T T T"
Ti       1.95700584       1.95700592       1.95700565
Pb      -0.00000018      -0.00000013      -0.00099952
O        1.95700590       0.00000018       1.95700570
O        1.95700590       1.95700558      -0.00000019
O        0.00000000       1.95700558       1.95700570
5
Lattice="3.914011643421 0.0 -0.0 0.0 3.914011420002 0.0 0.0 0.0 3.914011560053" Properties=species:S:1:pos:R:3 pbc="T T T"
Ti       1.95700584       1.95700592       1.95700565
Pb      -0.00000018      -0.00000013       0.00000048
O        1.95600590       0.00000018       1.95700570
O        1.95700590       1.95700558      -0.00000019
O        0.00000000       1.95700558       1.95700570
5
Lattice="3.914011643421 0.0 -0.0 0.0 3.914011420002 0.0 0.0 0.0 3.914011560053" Properties=species:S:1:pos:R:3 pbc="T T T"
Ti       1.95700584       1.95700592       1.95700565
Pb      -0.00000018      -0.00000013       0.00000048
O        1.95700590      -0.00099982       1.95700570
O        1.95700590       1.95700558      -0.00000019
O        0.00000000       1.95700558       1.95700570
5
Lattice="3.914011643421 0.0 -0.0 0.0 3.914011420002 0.0 0.0 0.0 3.914011560053" Properties=species:S:1:pos:R:3 pbc="T T T"
Ti       1.95700584       1.95700592       1.95700565
Pb      -0.00000018      -0.00000013       0.00000048
O        1.95700590       0.00000018       1.95600570
O        1.95700590       1.95700558      -0.00000019
O        0.00000000       1.95700558       1.95700570
5
Lattice="3.914011643421 0.0 -0.0 0.0 3.914011420002 0.0 0.0 0.0 3.914011560053" Properties=species:S:1:pos:R:3 pbc="T T T"
Ti       1.95700584       1.95700592       1.95700565
Pb      -0.00000018      -0.00000013       0.00000048
O        1.95700590       0.00000018       1.95700570
O        1.95600590       1.95700558      -0.00000019
O        0.00000000       1.95700558       1.95700570
5
Lattice="3.914011643421 0.0 -0.0 0.0 3.914011420002 0.0 0.0 0.0 3.914011560053" Properties=species:S:1:pos:R:3 pbc="T T T"
Ti       1.95700584       1.95700592       1.95700565
Pb      -0.00000018      -0.00000013       0.00000048
O        1.95700590       0.00000018       1.95700570
O        1.95700590       1.95600558      -0.00000019
O        0.00000000       1.95700558       1.95700570
5
Lattice="3.914011643421 0.0 -0.0 0.0 3.914011420002 0.0 0.0 0.0 3.914011560053" Properties=species:S:1:pos:R:3 pbc="T T T"
Ti       1.95700584       1.95700592       1.95700565
Pb      -0.00000018      -0.00000013       0.00000048
O        1.95700590       0.00000018       1.95700570
O        1.95700590       1.95700558      -0.00100019
O        0.00000000       1.95700558       1.95700570
5
Lattice="3.914011643421 0.0 -0.0 0.0 3.914011420002 0.0 0.0 0.0 3.914011560053" Properties=species:S:1:pos:R:3 pbc="T T T"
Ti       1.95700584       1.95700592       1.95700565
Pb      -0.00000018      -0.00000013       0.00000048
O        1.95700590       0.00000018       1.95700570
O        1.95700590       1.95700558      -0.00000019
O       -0.00100000       1.95700558       1.95700570
5
Lattice="3.914011643421 0.0 -0.0 0.0 3.914011420002 0.0 0.0 0.0 3.914011560053" Properties=species:S:1:pos:R:3 pbc="T T T"
Ti       1.95700584       1.95700592       1.95700565
Pb      -0.00000018      -0.00000013       0.00000048
O        1.95700590       0.00000018       1.95700570
O        1.95700590       1.95700558      -0.00000019
O        0.00000000       1.95600558       1.95700570
5
Lattice="3.914011643421 0.0 -0.0 0.0 3.914011420002 0.0 0.0 0.0 3.914011560053" Properties=species:S:1:pos:R:3 pbc="T T T"
Ti       1.95700584       1.95700592       1.95700565
Pb      -0.00000018      -0.00000013       0.00000048
O        1.95700590       0.00000018       1.95700570
O        1.95700590       1.95700558      -0.00000019
O        0.00000000       1.95700558       1.95600570
