5
Lattice="3.96819532 0.0 0.0 0.0 3.96819532 0.0 0.0 0.0 3.96819532" Properties=species:S:1:pos:R:3:forces:R:3:displacements:R:3 energy=-254466.779673234 free_energy=-254466.779673234 stress="-1.1e-07 -0.0 0.0 -0.0 -3e-08 0.0 0.0 0.0 -1.1e-07" polarization="4.9289825e-10 4.929379e-10 4.92899719e-10" REF_dipole="1.922323940184157e-09 1.9224785768545622e-09 1.9223296693460445e-09" pbc="T T T"
Ba       1.98327906       1.98368836       1.98368836       0.00000090       0.00000133       0.00000114       0.00000000       0.00000000       0.00000000
Ti      -0.00081860      -0.00040930      -0.00040930      -0.00000019      -0.00000031      -0.00000034       0.00000000       0.00000000       0.00000000
O       -0.00081860      -0.00040930       1.98368836      -0.00000024      -0.00000034      -0.00000026       0.00000000       0.00000000       0.00000000
O        1.98327906      -0.00040930      -0.00040930      -0.00000024      -0.00000034      -0.00000027       0.00000000       0.00000000       0.00000000
O       -0.00081860       1.98368836      -0.00040930      -0.00000024      -0.00000033      -0.00000027       0.00000000       0.00000000       0.00000000
5
Lattice="3.96819532 0.0 0.0 0.0 3.96819532 0.0 0.0 0.0 3.96819532" Properties=species:S:1:pos:R:3:forces:R:3:displacements:R:3 energy=-254466.77967026 free_energy=-254466.77967026 stress="-2.5e-07 -0.0 -0.0 -0.0 -2.5e-07 -0.0 -0.0 -0.0 -3.3e-07" polarization="0.000714530925 4.92908756e-10 4.92895991e-10" REF_dipole="0.0027867007097903684 1.9223649140267617e-09 1.9223151299889882e-09" pbc="T T T"
Ba       1.98427906       1.98368836       1.98368836      -0.00630337       0.00000161       0.00000097       0.00100000       0.00000000       0.00000000
Ti      -0.00081860      -0.00040930      -0.00040930       0.00351117      -0.00000038      -0.00000027       0.00000000       0.00000000       0.00000000
O       -0.00081860      -0.00040930       1.98368836       0.00071294      -0.00000041      -0.00000023       0.00000000       0.00000000       0.00000000
O        1.98327906      -0.00040930      -0.00040930       0.00136633      -0.00000041      -0.00000023       0.00000000       0.00000000       0.00000000
O       -0.00081860       1.98368836      -0.00040930       0.00071294      -0.00000041      -0.00000024       0.00000000       0.00000000       0.00000000
5
Lattice="3.96819532 0.0 0.0 0.0 3.96819532 0.0 0.0 0.0 3.96819532" Properties=species:S:1:pos:R:3:forces:R:3:displacements:R:3 energy=-254466.779673392 free_energy=-254466.779673392 stress="-1e-06 -0.0 0.0 -0.0 -1.2e-07 0.0 0.0 0.0 -2.1e-07" polarization="0.001892306 4.9291463e-10 4.92886615e-10" REF_dipole="0.0073800731204749104 1.922387822874226e-09 1.9222785631939895e-09" pbc="T T T"
Ba       1.98327906       1.98368836       1.98368836       0.00348295       0.00000082       0.00000144       0.00000000       0.00000000       0.00000000
Ti       0.00018140      -0.00040930      -0.00040930       0.00019419      -0.00000020      -0.00000039       0.00100000       0.00000000       0.00000000
O       -0.00081860      -0.00040930       1.98368836       0.00050041      -0.00000021      -0.00000035       0.00000000       0.00000000       0.00000000
O        1.98327906      -0.00040930      -0.00040930      -0.00467795      -0.00000021      -0.00000036       0.00000000       0.00000000       0.00000000
O       -0.00081860       1.98368836      -0.00040930       0.00050040      -0.00000020      -0.00000035       0.00000000       0.00000000       0.00000000
5
Lattice="3.96819532 0.0 0.0 0.0 3.96819532 0.0 0.0 0.0 3.96819532" Properties=species:S:1:pos:R:3:forces:R:3:displacements:R:3 energy=-254466.779670701 free_energy=-254466.779670701 stress="-1.5e-07 -0.0 0.0 -0.0 -1e-07 0.0 0.0 0.0 -5e-08" polarization="-0.000554631684 4.92929993e-10 4.9289023e-10" REF_dipole="-0.00216308693353619 1.9224477392214497e-09 1.922292661846285e-09" pbc="T T T"
Ba       1.98327906       1.98368836       1.98368836       0.00071731       0.00000063       0.00000005       0.00000000       0.00000000       0.00000000
Ti      -0.00081860      -0.00040930      -0.00040930       0.00050246      -0.00000015      -0.00000005       0.00000000       0.00000000       0.00000000
O        0.00018140      -0.00040930       1.98368836      -0.00523549      -0.00000016       0.00000000       0.00100000       0.00000000       0.00000000
O        1.98327906      -0.00040930      -0.00040930       0.00462201      -0.00000016      -0.00000000       0.00000000       0.00000000       0.00000000
O       -0.00081860       1.98368836      -0.00040930      -0.00060629      -0.00000016      -0.00000001       0.00000000       0.00000000       0.00000000
5
Lattice="3.96819532 0.0 0.0 0.0 3.96819532 0.0 0.0 0.0 3.96819532" Properties=species:S:1:pos:R:3:forces:R:3:displacements:R:3 energy=-254466.779670403 free_energy=-254466.779670403 stress="-3.6e-07 -0.0 0.0 -0.0 -2.8e-07 -0.0 0.0 -0.0 -1.13e-06" polarization="4.92880063e-10 4.92921859e-10 -0.001497577" REF_dipole="1.922253010117962e-09 1.922416016278775e-09 -0.005840613391037946" pbc="T T T"
Ba       1.98327906       1.98368836       1.98368836       0.00000202       0.00000127       0.00138766       0.00000000       0.00000000       0.00000000
Ti      -0.00081860      -0.00040930      -0.00040930      -0.00000049      -0.00000032      -0.00471070       0.00000000       0.00000000       0.00000000
O       -0.00081860      -0.00040930       1.98468836      -0.00000051      -0.00000032      -0.00593287       0.00000000       0.00000000       0.00100000
O        1.98327906      -0.00040930      -0.00040930      -0.00000051      -0.00000032       0.00462794       0.00000000       0.00000000       0.00000000
O       -0.00081860       1.98368836      -0.00040930      -0.00000051      -0.00000031       0.00462797       0.00000000       0.00000000       0.00000000
5
Lattice="3.96819532 0.0 0.0 0.0 3.96819532 0.0 0.0 0.0 3.96819532" Properties=species:S:1:pos:R:3:forces:R:3:displacements:R:3 energy=-254466.779670256 free_energy=-254466.779670256 stress="-2.5e-07 0.0 -0.0 0.0 -2.5e-07 -0.0 -0.0 -0.0 -3.3e-07" polarization="-0.000714529938 4.92911241e-10 4.92894071e-10" REF_dipole="-0.002786696860448788 1.9223746056314515e-09 1.922307641908101e-09" pbc="T T T"
Ba       1.98227906       1.98368836       1.98368836       0.00630231       0.00000155       0.00000170      -0.00100000       0.00000000       0.00000000
Ti      -0.00081860      -0.00040930      -0.00040930      -0.00351086      -0.00000041      -0.00000046       0.00000000       0.00000000       0.00000000
O       -0.00081860      -0.00040930       1.98368836      -0.00071269      -0.00000038      -0.00000041       0.00000000       0.00000000       0.00000000
O        1.98327906      -0.00040930      -0.00040930      -0.00136606      -0.00000038      -0.00000042       0.00000000       0.00000000       0.00000000
O       -0.00081860       1.98368836      -0.00040930      -0.00071269      -0.00000037      -0.00000042       0.00000000       0.00000000       0.00000000
5
Lattice="3.96819532 0.0 0.0 0.0 3.96819532 0.0 0.0 0.0 3.96819532" Properties=species:S:1:pos:R:3:forces:R:3:displacements:R:3 energy=-254466.779673393 free_energy=-254466.779673393 stress="-1e-06 0.0 0.0 0.0 -1.2e-07 0.0 0.0 0.0 -2.1e-07" polarization="-0.001892305 4.92891359e-10 4.92887519e-10" REF_dipole="-0.00738006922043278 1.9222970649938478e-09 1.9222820888320736e-09" pbc="T T T"
Ba       1.98327906       1.98368836       1.98368836      -0.00348082       0.00000030       0.00000152       0.00000000       0.00000000       0.00000000
Ti      -0.00181860      -0.00040930      -0.00040930      -0.00019472      -0.00000010      -0.00000043      -0.00100000       0.00000000       0.00000000
O       -0.00081860      -0.00040930       1.98368836      -0.00050094      -0.00000007      -0.00000036       0.00000000       0.00000000       0.00000000
O        1.98327906      -0.00040930      -0.00040930       0.00467742      -0.00000007      -0.00000037       0.00000000       0.00000000       0.00000000
O       -0.00081860       1.98368836      -0.00040930      -0.00050094      -0.00000006      -0.00000037       0.00000000       0.00000000       0.00000000
5
Lattice="3.96819532 0.0 0.0 0.0 3.96819532 0.0 0.0 0.0 3.96819532" Properties=species:S:1:pos:R:3:forces:R:3:displacements:R:3 energy=-254466.779670701 free_energy=-254466.779670701 stress="-1.5e-07 -0.0 -0.0 -0.0 -1e-07 0.0 -0.0 0.0 -5e-08" polarization="0.000554632671 4.92912371e-10 4.92890456e-10" REF_dipole="0.0021630907828777716 1.922379012679057e-09 1.922293543255806e-09" pbc="T T T"
Ba       1.98327906       1.98368836       1.98368836      -0.00071518       0.00000083       0.00000069       0.00000000       0.00000000       0.00000000
Ti      -0.00081860      -0.00040930      -0.00040930      -0.00050296      -0.00000013      -0.00000020       0.00000000       0.00000000       0.00000000
O       -0.00181860      -0.00040930       1.98368836       0.00523494      -0.00000024      -0.00000016      -0.00100000       0.00000000       0.00000000
O        1.98327906      -0.00040930      -0.00040930      -0.00462254      -0.00000024      -0.00000017       0.00000000       0.00000000       0.00000000
O       -0.00081860       1.98368836      -0.00040930       0.00060574      -0.00000023      -0.00000017       0.00000000       0.00000000       0.00000000
5
Lattice="3.96819532 0.0 0.0 0.0 3.96819532 0.0 0.0 0.0 3.96819532" Properties=species:S:1:pos:R:3:forces:R:3:displacements:R:3 energy=-254466.779670403 free_energy=-254466.779670403 stress="-3.6e-07 -0.0 -0.0 -0.0 -2.8e-07 0.0 -0.0 0.0 -1.13e-06" polarization="4.92874189e-10 4.92920956e-10 0.001497578" REF_dipole="1.9222301012704976e-09 1.922412494540733e-09 0.005840617291080076" pbc="T T T"
Ba       1.98327906       1.98368836       1.98368836       0.00000139       0.00000177      -0.00138583       0.00000000       0.00000000       0.00000000
Ti      -0.00081860      -0.00040930      -0.00040930      -0.00000033      -0.00000044       0.00471015       0.00000000       0.00000000       0.00000000
O       -0.00081860      -0.00040930       1.98268836      -0.00000036      -0.00000044       0.00593244       0.00000000       0.00000000      -0.00100000
O        1.98327906      -0.00040930      -0.00040930      -0.00000035      -0.00000044      -0.00462837       0.00000000       0.00000000       0.00000000
O       -0.00081860       1.98368836      -0.00040930      -0.00000036      -0.00000044      -0.00462840       0.00000000       0.00000000       0.00000000
