5
Lattice="3.98772401 0.00252199 0.00251895 0.00732644 3.98771808 0.00251895 0.00732644 0.00731762 3.98771216" Properties=species:S:1:pos:R:3:REF_BEC:R:9 pbc="T T T"
Ba       0.00154942       0.00154755       0.00154569       2.80853753      -0.01544668      -0.01542810      -0.01544668       2.80857476      -0.01540953      -0.01542810      -0.01540953       2.80861184
Ti       2.04807538       2.04560932       2.04314920       6.29970929      -0.30409982      -0.30373410      -0.30409982       6.30044206      -0.30336838      -0.30373410      -0.30336838       6.30117218
O        1.95851857       1.95616035       3.91890703      -2.00675891      -0.01063253       0.09843066      -0.01063253      -2.00673329       0.09831214       0.22805377       0.22777918      -5.09552368
O        3.92361495       1.95379278       1.95144308      -5.09472900       0.23176124       0.23148252       0.10213821      -2.00715672      -0.01102987       0.10201538      -0.01102987      -2.00713017
O        1.95851857       3.92125815       1.95144308      -2.00675891       0.09841779      -0.01075097       0.22804082      -5.09512680       0.23149564      -0.01090695       0.10202859      -2.00713017
