8
Lattice="4.215727 0.0 0.0 0.0 4.215727 0.0 0.0 0.0 4.215727" Properties=species:S:1:pos:R:3:displacements:R:3 energy=-29959.149858338 free_energy=-29959.149858338 polarization="-2.0918086e-14 -2.2019038e-14 -2.4170899e-14" REF_dipole="-9.782042799124603e-14 -1.029688720619807e-13 -1.1303174129378663e-13" pbc="T T T"
Mg       0.00028414       0.00028414       0.00028414       0.00000000       0.00000000       0.00000000
Mg       2.10814764       2.10814764       0.00028414       0.00000000       0.00000000       0.00000000
Mg       2.10814764       0.00028414       2.10814764       0.00000000       0.00000000       0.00000000
Mg       0.00028414       2.10814764       2.10814764       0.00000000       0.00000000       0.00000000
O        0.00028414       0.00028414       2.10814764       0.00000000       0.00000000       0.00000000
O        2.10814764       0.00028414       0.00028414       0.00000000       0.00000000       0.00000000
O        0.00028414       2.10814764       0.00028414       0.00000000       0.00000000       0.00000000
O        2.10814764       2.10814764       2.10814764       0.00000000       0.00000000       0.00000000
8
Lattice="4.215727 0.0 0.0 0.0 4.215727 0.0 0.0 0.0 4.215727" Properties=species:S:1:pos:R:3:displacements:R:3 energy=-29959.1498537961 free_energy=-29959.1498537961 polarization="0.000424730114 -1.0509086e-14 -1.9016442e-14" REF_dipole="0.0019861894406711356 -4.914423290528644e-14 -8.892766266047031e-14" pbc="T T T"
Mg       0.00128414       0.00028414       0.00028414       0.00100000       0.00000000       0.00000000
Mg       2.10814764       2.10814764       0.00028414       0.00000000       0.00000000       0.00000000
Mg       2.10814764       0.00028414       2.10814764       0.00000000       0.00000000       0.00000000
Mg       0.00028414       2.10814764       2.10814764       0.00000000       0.00000000       0.00000000
O        0.00028414       0.00028414       2.10814764       0.00000000       0.00000000       0.00000000
O        2.10814764       0.00028414       0.00028414       0.00000000       0.00000000       0.00000000
O        0.00028414       2.10814764       0.00028414       0.00000000       0.00000000       0.00000000
O        2.10814764       2.10814764       2.10814764       0.00000000       0.00000000       0.00000000
8
Lattice="4.215727 0.0 0.0 0.0 4.215727 0.0 0.0 0.0 4.215727" Properties=species:S:1:pos:R:3:displacements:R:3 energy=-29959.1498533271 free_energy=-29959.1498533271 polarization="-0.000424730288 -1.4662678e-14 -1.1910298e-14" REF_dipole="-0.0019861902543571713 -6.856790996355151e-14 -5.569679978671478e-14" pbc="T T T"
Mg       0.00028414       0.00028414       0.00028414       0.00000000       0.00000000       0.00000000
Mg       2.10814764       2.10814764       0.00028414       0.00000000       0.00000000       0.00000000
Mg       2.10814764       0.00028414       2.10814764       0.00000000       0.00000000       0.00000000
Mg       0.00028414       2.10814764       2.10814764       0.00000000       0.00000000       0.00000000
O        0.00128414       0.00028414       2.10814764       0.00100000       0.00000000       0.00000000
O        2.10814764       0.00028414       0.00028414       0.00000000       0.00000000       0.00000000
O        0.00028414       2.10814764       0.00028414       0.00000000       0.00000000       0.00000000
O        2.10814764       2.10814764       2.10814764       0.00000000       0.00000000       0.00000000
8
Lattice="4.215727 0.0 0.0 0.0 4.215727 0.0 0.0 0.0 4.215727" Properties=species:S:1:pos:R:3:displacements:R:3 energy=-29959.1498537962 free_energy=-29959.1498537962 polarization="-0.000424730114 -1.2811077e-14 -1.6113932e-14" REF_dipole="-0.0019861894406711356 -5.990916354243921e-14 -7.535449107828674e-14" pbc="T T T"
Mg      -0.00071586       0.00028414       0.00028414      -0.00100000       0.00000000       0.00000000
Mg       2.10814764       2.10814764       0.00028414       0.00000000       0.00000000       0.00000000
Mg       2.10814764       0.00028414       2.10814764       0.00000000       0.00000000       0.00000000
Mg       0.00028414       2.10814764       2.10814764       0.00000000       0.00000000       0.00000000
O        0.00028414       0.00028414       2.10814764       0.00000000       0.00000000       0.00000000
O        2.10814764       0.00028414       0.00028414       0.00000000       0.00000000       0.00000000
O        0.00028414       2.10814764       0.00028414       0.00000000       0.00000000       0.00000000
O        2.10814764       2.10814764       2.10814764       0.00000000       0.00000000       0.00000000
8
Lattice="4.215727 0.0 0.0 0.0 4.215727 0.0 0.0 0.0 4.215727" Properties=species:S:1:pos:R:3:displacements:R:3 energy=-29959.1498533272 free_energy=-29959.1498533272 polarization="0.000424730288 -2.9125182e-14 -1.9016442e-14" REF_dipole="0.0019861902543571713 -1.3619973493573623e-13 -8.892766266047031e-14" pbc="T T T"
Mg       0.00028414       0.00028414       0.00028414       0.00000000       0.00000000       0.00000000
Mg       2.10814764       2.10814764       0.00028414       0.00000000       0.00000000       0.00000000
Mg       2.10814764       0.00028414       2.10814764       0.00000000       0.00000000       0.00000000
Mg       0.00028414       2.10814764       2.10814764       0.00000000       0.00000000       0.00000000
O       -0.00071586       0.00028414       2.10814764      -0.00100000       0.00000000       0.00000000
O        2.10814764       0.00028414       0.00028414       0.00000000       0.00000000       0.00000000
O        0.00028414       2.10814764       0.00028414       0.00000000       0.00000000       0.00000000
O        2.10814764       2.10814764       2.10814764       0.00000000       0.00000000       0.00000000
