8
Lattice="4.21572700186134 3.4103429261110965e-33 -4.8005666330176105e-34 -2.4369749957325825e-33 4.21572700186134 -1.6996396732545949e-19 1.4471476326297475e-32 -1.6996396732546534e-19 4.21572700186134" Properties=species:S:1:pos:R:3:forces:R:3:displacements:R:3 energy=-29959.151534315442 free_energy=-29959.151534315442 stress="-1.2299300817415098e-07 4.1335268376708914e-12 -3.6198607434009406e-13 4.1335268376708914e-12 6.093028849371546e-08 -6.136039603348663e-12 -3.6198607434009406e-13 -6.136039603348663e-12 6.087979712378033e-08" pbc="T T T"
Mg       0.00028414       0.00028414       0.00028414      -0.00000000       0.00000000       0.00000002       0.00000000       0.00000000       0.00000000
Mg       2.10814764       2.10814764       0.00028414      -0.00000001      -0.00000000       0.00000000       0.00000000       0.00000000       0.00000000
Mg       2.10814764       0.00028414       2.10814764      -0.00000001      -0.00000001      -0.00000001       0.00000000       0.00000000       0.00000000
Mg       0.00028414       2.10814764       2.10814764       0.00000001       0.00000000      -0.00000001       0.00000000       0.00000000       0.00000000
O        0.00028414       0.00028414       2.10814764       0.00000000       0.00000000      -0.00000000       0.00000000       0.00000000       0.00000000
O        2.10814764       0.00028414       0.00028414       0.00000000       0.00000000      -0.00000000       0.00000000       0.00000000       0.00000000
O        0.00028414       2.10814764       0.00028414       0.00000000       0.00000000      -0.00000000       0.00000000       0.00000000       0.00000000
O        2.10814764       2.10814764       2.10814764       0.00000000       0.00000000      -0.00000000       0.00000000       0.00000000       0.00000000
8
Lattice="4.21572700186134 3.4103429261110965e-33 -4.8005666330176105e-34 -2.4369749957325825e-33 4.21572700186134 -1.6996396732545949e-19 1.4471476326297475e-32 -1.6996396732546534e-19 4.21572700186134" Properties=species:S:1:pos:R:3:forces:R:3:displacements:R:3 energy=-29959.151534315442 free_energy=-29959.151534315442 stress="-1.2299300817415098e-07 4.1335268376708914e-12 -3.6198607434009406e-13 4.1335268376708914e-12 6.093028849371546e-08 -6.136039603348663e-12 -3.6198607434009406e-13 -6.136039603348663e-12 6.087979712378033e-08" pbc="T T T"
Mg       0.00128414       0.00028414       0.00028414      -0.00000000       0.00000000       0.00000002       0.00100000       0.00000000       0.00000000
Mg       2.10814764       2.10814764       0.00028414      -0.00000001      -0.00000000       0.00000000       0.00000000       0.00000000       0.00000000
Mg       2.10814764       0.00028414       2.10814764      -0.00000001      -0.00000001      -0.00000001       0.00000000       0.00000000       0.00000000
Mg       0.00028414       2.10814764       2.10814764       0.00000001       0.00000000      -0.00000001       0.00000000       0.00000000       0.00000000
O        0.00028414       0.00028414       2.10814764       0.00000000       0.00000000      -0.00000000       0.00000000       0.00000000       0.00000000
O        2.10814764       0.00028414       0.00028414       0.00000000       0.00000000      -0.00000000       0.00000000       0.00000000       0.00000000
O        0.00028414       2.10814764       0.00028414       0.00000000       0.00000000      -0.00000000       0.00000000       0.00000000       0.00000000
O        2.10814764       2.10814764       2.10814764       0.00000000       0.00000000      -0.00000000       0.00000000       0.00000000       0.00000000
8
Lattice="4.21572700186134 3.4103429261110965e-33 -4.8005666330176105e-34 -2.4369749957325825e-33 4.21572700186134 -1.6996396732545949e-19 1.4471476326297475e-32 -1.6996396732546534e-19 4.21572700186134" Properties=species:S:1:pos:R:3:forces:R:3:displacements:R:3 energy=-29959.151534315442 free_energy=-29959.151534315442 stress="-1.2299300817415098e-07 4.1335268376708914e-12 -3.6198607434009406e-13 4.1335268376708914e-12 6.093028849371546e-08 -6.136039603348663e-12 -3.6198607434009406e-13 -6.136039603348663e-12 6.087979712378033e-08" pbc="T T T"
Mg       0.00028414       0.00028414       0.00028414      -0.00000000       0.00000000       0.00000002       0.00000000       0.00000000       0.00000000
Mg       2.10814764       2.10814764       0.00028414      -0.00000001      -0.00000000       0.00000000       0.00000000       0.00000000       0.00000000
Mg       2.10814764       0.00028414       2.10814764      -0.00000001      -0.00000001      -0.00000001       0.00000000       0.00000000       0.00000000
Mg       0.00028414       2.10814764       2.10814764       0.00000001       0.00000000      -0.00000001       0.00000000       0.00000000       0.00000000
O        0.00128414       0.00028414       2.10814764       0.00000000       0.00000000      -0.00000000       0.00100000       0.00000000       0.00000000
O        2.10814764       0.00028414       0.00028414       0.00000000       0.00000000      -0.00000000       0.00000000       0.00000000       0.00000000
O        0.00028414       2.10814764       0.00028414       0.00000000       0.00000000      -0.00000000       0.00000000       0.00000000       0.00000000
O        2.10814764       2.10814764       2.10814764       0.00000000       0.00000000      -0.00000000       0.00000000       0.00000000       0.00000000
8
Lattice="4.21572700186134 3.4103429261110965e-33 -4.8005666330176105e-34 -2.4369749957325825e-33 4.21572700186134 -1.6996396732545949e-19 1.4471476326297475e-32 -1.6996396732546534e-19 4.21572700186134" Properties=species:S:1:pos:R:3:forces:R:3:displacements:R:3 energy=-29959.151534315442 free_energy=-29959.151534315442 stress="-1.2299300817415098e-07 4.1335268376708914e-12 -3.6198607434009406e-13 4.1335268376708914e-12 6.093028849371546e-08 -6.136039603348663e-12 -3.6198607434009406e-13 -6.136039603348663e-12 6.087979712378033e-08" pbc="T T T"
Mg      -0.00071586       0.00028414       0.00028414      -0.00000000       0.00000000       0.00000002      -0.00100000      -0.00000000      -0.00000000
Mg       2.10814764       2.10814764       0.00028414      -0.00000001      -0.00000000       0.00000000      -0.00000000      -0.00000000      -0.00000000
Mg       2.10814764       0.00028414       2.10814764      -0.00000001      -0.00000001      -0.00000001      -0.00000000      -0.00000000      -0.00000000
Mg       0.00028414       2.10814764       2.10814764       0.00000001       0.00000000      -0.00000001      -0.00000000      -0.00000000      -0.00000000
O        0.00028414       0.00028414       2.10814764       0.00000000       0.00000000      -0.00000000      -0.00000000      -0.00000000      -0.00000000
O        2.10814764       0.00028414       0.00028414       0.00000000       0.00000000      -0.00000000      -0.00000000      -0.00000000      -0.00000000
O        0.00028414       2.10814764       0.00028414       0.00000000       0.00000000      -0.00000000      -0.00000000      -0.00000000      -0.00000000
O        2.10814764       2.10814764       2.10814764       0.00000000       0.00000000      -0.00000000      -0.00000000      -0.00000000      -0.00000000
8
Lattice="4.21572700186134 3.4103429261110965e-33 -4.8005666330176105e-34 -2.4369749957325825e-33 4.21572700186134 -1.6996396732545949e-19 1.4471476326297475e-32 -1.6996396732546534e-19 4.21572700186134" Properties=species:S:1:pos:R:3:forces:R:3:displacements:R:3 energy=-29959.151534315442 free_energy=-29959.151534315442 stress="-1.2299300817415098e-07 4.1335268376708914e-12 -3.6198607434009406e-13 4.1335268376708914e-12 6.093028849371546e-08 -6.136039603348663e-12 -3.6198607434009406e-13 -6.136039603348663e-12 6.087979712378033e-08" pbc="T T T"
Mg       0.00028414       0.00028414       0.00028414      -0.00000000       0.00000000       0.00000002      -0.00000000      -0.00000000      -0.00000000
Mg       2.10814764       2.10814764       0.00028414      -0.00000001      -0.00000000       0.00000000      -0.00000000      -0.00000000      -0.00000000
Mg       2.10814764       0.00028414       2.10814764      -0.00000001      -0.00000001      -0.00000001      -0.00000000      -0.00000000      -0.00000000
Mg       0.00028414       2.10814764       2.10814764       0.00000001       0.00000000      -0.00000001      -0.00000000      -0.00000000      -0.00000000
O       -0.00071586       0.00028414       2.10814764       0.00000000       0.00000000      -0.00000000      -0.00100000      -0.00000000      -0.00000000
O        2.10814764       0.00028414       0.00028414       0.00000000       0.00000000      -0.00000000      -0.00000000      -0.00000000      -0.00000000
O        0.00028414       2.10814764       0.00028414       0.00000000       0.00000000      -0.00000000      -0.00000000      -0.00000000      -0.00000000
O        2.10814764       2.10814764       2.10814764       0.00000000       0.00000000      -0.00000000      -0.00000000      -0.00000000      -0.00000000
