5
Lattice="4.01716354 0.0 0.0 0.0 4.01716354 0.0 0.0 0.0 4.01716354" Properties=species:S:1:pos:R:3:forces:R:3:displacements:R:3 energy=-254603.180009243 free_energy=-254603.180009243 stress="-2e-08 -0.0 -0.0 -0.0 -1.7e-07 -0.0 -0.0 -0.0 -2.5e-07" polarization="-3.57182691e-10 -3.57153591e-10 -3.57173046e-10" REF_dipole="-1.4452371565557463e-09 -1.4451194117648723e-09 -1.4451981308338225e-09" pbc="T T T"
Ba       2.00775307       2.00816742       2.00816742      -0.00000188      -0.00000198      -0.00000180       0.00000000       0.00000000       0.00000000
Ti      -0.00082870      -0.00041435      -0.00041435       0.00000045       0.00000050       0.00000037       0.00000000       0.00000000       0.00000000
O       -0.00082870      -0.00041435       2.00816742       0.00000048       0.00000050       0.00000047       0.00000000       0.00000000       0.00000000
O        2.00775307      -0.00041435      -0.00041435       0.00000047       0.00000050       0.00000048       0.00000000       0.00000000       0.00000000
O       -0.00082870       2.00816742      -0.00041435       0.00000048       0.00000049       0.00000048       0.00000000       0.00000000       0.00000000
5
Lattice="4.01716354 0.0 0.0 0.0 4.01716354 0.0 0.0 0.0 4.01716354" Properties=species:S:1:pos:R:3:forces:R:3:displacements:R:3 energy=-254603.180006517 free_energy=-254603.180006517 stress="-1.5e-07 -0.0 -0.0 -0.0 -3.6e-07 -0.0 -0.0 -0.0 -4.5e-07" polarization="0.000683084562 -3.57154969e-10 -3.57177565e-10" REF_dipole="0.0027639054605588585 -1.4451249874460343e-09 -1.4452164156692166e-09" pbc="T T T"
Ba       2.00875307       2.00816742       2.00816742      -0.00571618      -0.00000232      -0.00000197       0.00100000       0.00000000       0.00000000
Ti      -0.00082870      -0.00041435      -0.00041435       0.00326141       0.00000053       0.00000043       0.00000000       0.00000000       0.00000000
O       -0.00082870      -0.00041435       2.00816742       0.00058131       0.00000060       0.00000051       0.00000000       0.00000000       0.00000000
O        2.00775307      -0.00041435      -0.00041435       0.00129214       0.00000060       0.00000051       0.00000000       0.00000000       0.00000000
O       -0.00082870       2.00816742      -0.00041435       0.00058131       0.00000059       0.00000051       0.00000000       0.00000000       0.00000000
5
Lattice="4.01716354 0.0 0.0 0.0 4.01716354 0.0 0.0 0.0 4.01716354" Properties=species:S:1:pos:R:3:forces:R:3:displacements:R:3 energy=-254603.180009983 free_energy=-254603.180009983 stress="-7.4e-07 -0.0 0.0 -0.0 -2.7e-07 0.0 0.0 0.0 -3.6e-07" polarization="0.001835454 -3.57142899e-10 -3.57167094e-10" REF_dipole="0.0074266373673433994 -1.4450761496582044e-09 -1.4451740477755655e-09" pbc="T T T"
Ba       2.00775307       2.00816742       2.00816742       0.00323800      -0.00000163      -0.00000210       0.00000000       0.00000000       0.00000000
Ti       0.00017130      -0.00041435      -0.00041435       0.00143801       0.00000040       0.00000047       0.00100000       0.00000000       0.00000000
O       -0.00082870      -0.00041435       2.00816742       0.00070181       0.00000041       0.00000054       0.00000000       0.00000000       0.00000000
O        2.00775307      -0.00041435      -0.00041435      -0.00607963       0.00000041       0.00000054       0.00000000       0.00000000       0.00000000
O       -0.00082870       2.00816742      -0.00041435       0.00070181       0.00000041       0.00000055       0.00000000       0.00000000       0.00000000
5
Lattice="4.01716354 0.0 0.0 0.0 4.01716354 0.0 0.0 0.0 4.01716354" Properties=species:S:1:pos:R:3:forces:R:3:displacements:R:3 energy=-254603.18000671 free_energy=-254603.18000671 stress="-6e-08 -0.0 0.0 -0.0 -2.3e-07 -0.0 0.0 -0.0 -2.2e-07" polarization="-0.000529925587 -3.57147474e-10 -3.57166267e-10" REF_dipole="-0.0021441916639292438 -1.445094661081512e-09 -1.4451707015576255e-09" pbc="T T T"
Ba       2.00775307       2.00816742       2.00816742       0.00058300      -0.00000118      -0.00000183       0.00000000       0.00000000       0.00000000
Ti      -0.00082870      -0.00041435      -0.00041435       0.00070070       0.00000023       0.00000042       0.00000000       0.00000000       0.00000000
O        0.00017130      -0.00041435       2.00816742      -0.00520252       0.00000032       0.00000046       0.00100000       0.00000000       0.00000000
O        2.00775307      -0.00041435      -0.00041435       0.00452394       0.00000032       0.00000047       0.00000000       0.00000000       0.00000000
O       -0.00082870       2.00816742      -0.00041435      -0.00060511       0.00000031       0.00000047       0.00000000       0.00000000       0.00000000
5
Lattice="4.01716354 0.0 0.0 0.0 4.01716354 0.0 0.0 0.0 4.01716354" Properties=species:S:1:pos:R:3:forces:R:3:displacements:R:3 energy=-254603.1800072 free_energy=-254603.1800072 stress="-2.6e-07 0.0 -0.0 0.0 -4e-07 -0.0 -0.0 -0.0 -1.07e-06" polarization="-3.5717481e-10 -3.57143616e-10 -0.001458694" REF_dipole="-1.4452052683531043e-09 -1.4450790507927422e-09 -0.00590218625360244" pbc="T T T"
Ba       2.00775307       2.00816742       2.00816742      -0.00000184      -0.00000154       0.00130652       0.00000000       0.00000000       0.00000000
Ti      -0.00082870      -0.00041435      -0.00041435       0.00000044       0.00000036      -0.00609933       0.00000000       0.00000000       0.00000000
O       -0.00082870      -0.00041435       2.00916742       0.00000047       0.00000040      -0.00425903       0.00000000       0.00000000       0.00100000
O        2.00775307      -0.00041435      -0.00041435       0.00000046       0.00000039       0.00452590       0.00000000       0.00000000       0.00000000
O       -0.00082870       2.00816742      -0.00041435       0.00000047       0.00000039       0.00452593       0.00000000       0.00000000       0.00000000
5
Lattice="4.01716354 0.0 0.0 0.0 4.01716354 0.0 0.0 0.0 4.01716354" Properties=species:S:1:pos:R:3:forces:R:3:displacements:R:3 energy=-254603.180006513 free_energy=-254603.180006513 stress="-1.5e-07 -0.0 -0.0 -0.0 -3.6e-07 -0.0 -0.0 -0.0 -4.5e-07" polarization="-0.000683085276 -3.57153371e-10 -3.57181037e-10" REF_dipole="-0.0027639083495547587 -1.4451185215980682e-09 -1.4452304641198667e-09" pbc="T T T"
Ba       2.00675307       2.00816742       2.00816742       0.00571373      -0.00000234      -0.00000257      -0.00100000       0.00000000       0.00000000
Ti      -0.00082870      -0.00041435      -0.00041435      -0.00326082       0.00000054       0.00000057       0.00000000       0.00000000       0.00000000
O       -0.00082870      -0.00041435       2.00816742      -0.00058069       0.00000060       0.00000066       0.00000000       0.00000000       0.00000000
O        2.00775307      -0.00041435      -0.00041435      -0.00129153       0.00000060       0.00000067       0.00000000       0.00000000       0.00000000
O       -0.00082870       2.00816742      -0.00041435      -0.00058069       0.00000060       0.00000067       0.00000000       0.00000000       0.00000000
5
Lattice="4.01716354 0.0 0.0 0.0 4.01716354 0.0 0.0 0.0 4.01716354" Properties=species:S:1:pos:R:3:forces:R:3:displacements:R:3 energy=-254603.180009983 free_energy=-254603.180009983 stress="-7.4e-07 -0.0 0.0 -0.0 -2.7e-07 -0.0 0.0 -0.0 -3.6e-07" polarization="-0.001835455 -3.57139427e-10 -3.57169298e-10" REF_dipole="-0.0074266414135561445 -1.4450621012075543e-09 -1.445182965628455e-09" pbc="T T T"
Ba       2.00775307       2.00816742       2.00816742      -0.00324117      -0.00000189      -0.00000189       0.00000000       0.00000000       0.00000000
Ti      -0.00182870      -0.00041435      -0.00041435      -0.00143724       0.00000043       0.00000039      -0.00100000       0.00000000       0.00000000
O       -0.00082870      -0.00041435       2.00816742      -0.00070101       0.00000049       0.00000050       0.00000000       0.00000000       0.00000000
O        2.00775307      -0.00041435      -0.00041435       0.00608042       0.00000049       0.00000050       0.00000000       0.00000000       0.00000000
O       -0.00082870       2.00816742      -0.00041435      -0.00070101       0.00000049       0.00000050       0.00000000       0.00000000       0.00000000
5
Lattice="4.01716354 0.0 0.0 0.0 4.01716354 0.0 0.0 0.0 4.01716354" Properties=species:S:1:pos:R:3:forces:R:3:displacements:R:3 energy=-254603.18000671 free_energy=-254603.18000671 stress="-6e-08 0.0 0.0 0.0 -2.3e-07 0.0 0.0 0.0 -2.2e-07" polarization="0.000529924873 -3.57164228e-10 -3.57166212e-10" REF_dipole="0.002144188774933343 -1.445162451329839e-09 -1.4451704790159245e-09" pbc="T T T"
Ba       2.00775307       2.00816742       2.00816742      -0.00058503      -0.00000140      -0.00000235       0.00000000       0.00000000       0.00000000
Ti      -0.00082870      -0.00041435      -0.00041435      -0.00070020       0.00000033       0.00000055       0.00000000       0.00000000       0.00000000
O       -0.00182870      -0.00041435       2.00816742       0.00520304       0.00000036       0.00000060      -0.00100000       0.00000000       0.00000000
O        2.00775307      -0.00041435      -0.00041435      -0.00452343       0.00000036       0.00000060       0.00000000       0.00000000       0.00000000
O       -0.00082870       2.00816742      -0.00041435       0.00060562       0.00000035       0.00000060       0.00000000       0.00000000       0.00000000
5
Lattice="4.01716354 0.0 0.0 0.0 4.01716354 0.0 0.0 0.0 4.01716354" Properties=species:S:1:pos:R:3:forces:R:3:displacements:R:3 energy=-254603.1800072 free_energy=-254603.1800072 stress="-2.6e-07 0.0 0.0 0.0 -4e-07 -0.0 0.0 -0.0 -1.08e-06" polarization="-3.57178943e-10 -3.5716263e-10 0.001458694" REF_dipole="-1.4452219913503788e-09 -1.4451559854818726e-09 0.00590218625360244" pbc="T T T"
Ba       2.00775307       2.00816742       2.00816742      -0.00000150      -0.00000197      -0.00131075       0.00000000       0.00000000       0.00000000
Ti      -0.00082870      -0.00041435      -0.00041435       0.00000038       0.00000048       0.00610036       0.00000000       0.00000000       0.00000000
O       -0.00082870      -0.00041435       2.00716742       0.00000037       0.00000050       0.00426009       0.00000000       0.00000000      -0.00100000
O        2.00775307      -0.00041435      -0.00041435       0.00000037       0.00000050      -0.00452483       0.00000000       0.00000000       0.00000000
O       -0.00082870       2.00816742      -0.00041435       0.00000037       0.00000049      -0.00452486       0.00000000       0.00000000       0.00000000
