5
Lattice="4.035 0.0 0.0 0.0 4.035 0.0 0.0 0.0 4.035" Properties=species:S:1:pos:R:3:displacements:R:3 energy=-254603.174988906 free_energy=-254603.174988906 polarization="-0.000548508095 -0.000274254173 -0.000274254173" REF_dipole="-0.002249074466881545 -0.0011245377480345368 -0.0011245377480345368" pbc="T T T"
Ba       2.01668350       2.01709175       2.01709175      -0.00081650      -0.00040825      -0.00040825
Ti       0.00000000       0.00000000       0.00000000       0.00000000       0.00000000       0.00000000
O        0.00000000       0.00000000       2.01750000       0.00000000       0.00000000       0.00000000
O        2.01750000       0.00000000       0.00000000       0.00000000       0.00000000       0.00000000
O        0.00000000       2.01750000       0.00000000       0.00000000       0.00000000       0.00000000
5
Lattice="4.035 0.0 0.0 0.0 4.035 0.0 0.0 0.0 4.035" Properties=species:S:1:pos:R:3:displacements:R:3 energy=-254603.174992478 free_energy=-254603.174992478 polarization="-0.001481041 -0.00074052108 -0.000740521079" REF_dipole="-0.006072784573042098 -0.0030363946647233085 -0.003036394660622959" pbc="T T T"
Ba       2.01750000       2.01750000       2.01750000       0.00000000       0.00000000       0.00000000
Ti      -0.00081650      -0.00040825      -0.00040825      -0.00081650      -0.00040825      -0.00040825
O        0.00000000       0.00000000       2.01750000       0.00000000       0.00000000       0.00000000
O        2.01750000       0.00000000       0.00000000       0.00000000       0.00000000       0.00000000
O        0.00000000       2.01750000       0.00000000       0.00000000       0.00000000       0.00000000
5
Lattice="4.035 0.0 0.0 0.0 4.035 0.0 0.0 0.0 4.035" Properties=species:S:1:pos:R:3:displacements:R:3 energy=-254603.174988647 free_energy=-254603.174988647 polarization="0.000425360664 0.000425360659 0.000425360658" REF_dipole="0.001744127055441506 0.0017441270349397623 0.0017441270308394135" pbc="T T T"
Ba       2.01750000       2.01750000       2.01750000       0.00000000       0.00000000       0.00000000
Ti       0.00000000       0.00000000       0.00000000       0.00000000       0.00000000       0.00000000
O       -0.00040825      -0.00040825       2.01750000      -0.00040825      -0.00040825       0.00000000
O        2.01750000      -0.00040825      -0.00040825       0.00000000      -0.00040825      -0.00040825
O       -0.00040825       2.01750000      -0.00040825      -0.00040825       0.00000000      -0.00040825
5
Lattice="4.035 0.0 0.0 0.0 4.035 0.0 0.0 0.0 4.035" Properties=species:S:1:pos:R:3:displacements:R:3 energy=-254603.17498981 free_energy=-254603.17498981 polarization="0.000833559829 0.000833559837 0.000833559839" REF_dipole="0.0034178859803738115 0.003417886013176601 0.0034178860213772986" pbc="T T T"
Ba       2.01750000       2.01750000       2.01750000       0.00000000       0.00000000       0.00000000
Ti       0.00000000       0.00000000       0.00000000       0.00000000       0.00000000       0.00000000
O        0.00000000       0.00000000       2.01692265       0.00000000       0.00000000      -0.00057735
O        2.01692265       0.00000000       0.00000000      -0.00057735       0.00000000       0.00000000
O        0.00000000       2.01692265       0.00000000       0.00000000      -0.00057735       0.00000000
5
Lattice="4.035 0.0 0.0 0.0 4.035 0.0 0.0 0.0 4.035" Properties=species:S:1:pos:R:3:displacements:R:3 energy=-254603.174991469 free_energy=-254603.174991469 polarization="-3.714603e-15 1.2673353e-14 -2.840579e-15" REF_dipole="-1.523116766745546e-14 5.196516678951953e-14 -1.164736447519505e-14" pbc="T T T"
Ba       2.01750000       2.01750000       2.01750000       0.00000000       0.00000000       0.00000000
Ti       0.00000000       0.00000000       0.00000000       0.00000000       0.00000000       0.00000000
O        0.00000000       0.00000000       2.01750000       0.00000000       0.00000000       0.00000000
O        2.01750000       0.00000000       0.00000000       0.00000000       0.00000000       0.00000000
O        0.00000000       2.01750000       0.00000000       0.00000000       0.00000000       0.00000000
5
Lattice="4.035 0.0 0.0 0.0 4.035 0.0 0.0 0.0 4.035" Properties=species:S:1:pos:R:3:displacements:R:3 energy=-254603.174989811 free_energy=-254603.174989811 polarization="-0.000833559829 -0.000833559837 -0.000833559839" REF_dipole="-0.0034178859803738115 -0.003417886013176601 -0.0034178860213772986" pbc="T T T"
Ba       2.01750000       2.01750000       2.01750000       0.00000000       0.00000000       0.00000000
Ti       0.00000000       0.00000000       0.00000000       0.00000000       0.00000000       0.00000000
O        0.00000000       0.00000000       2.01807735       0.00000000       0.00000000       0.00057735
O        2.01807735       0.00000000       0.00000000       0.00057735       0.00000000       0.00000000
O        0.00000000       2.01807735       0.00000000       0.00000000       0.00057735       0.00000000
5
Lattice="4.035 0.0 0.0 0.0 4.035 0.0 0.0 0.0 4.035" Properties=species:S:1:pos:R:3:displacements:R:3 energy=-254603.174988647 free_energy=-254603.174988647 polarization="-0.000425360664 -0.000425360659 -0.000425360658" REF_dipole="-0.001744127055441506 -0.0017441270349397623 -0.0017441270308394135" pbc="T T T"
Ba       2.01750000       2.01750000       2.01750000       0.00000000       0.00000000       0.00000000
Ti       0.00000000       0.00000000       0.00000000       0.00000000       0.00000000       0.00000000
O        0.00040825       0.00040825       2.01750000       0.00040825       0.00040825       0.00000000
O        2.01750000       0.00040825       0.00040825       0.00000000       0.00040825       0.00040825
O        0.00040825       2.01750000       0.00040825       0.00040825       0.00000000       0.00040825
5
Lattice="4.035 0.0 0.0 0.0 4.035 0.0 0.0 0.0 4.035" Properties=species:S:1:pos:R:3:displacements:R:3 energy=-254603.174992478 free_energy=-254603.174992478 polarization="0.001481041 0.00074052108 0.000740521079" REF_dipole="0.006072784573042098 0.0030363946647233085 0.003036394660622959" pbc="T T T"
Ba       2.01750000       2.01750000       2.01750000       0.00000000       0.00000000       0.00000000
Ti       0.00081650       0.00040825       0.00040825       0.00081650       0.00040825       0.00040825
O        0.00000000       0.00000000       2.01750000       0.00000000       0.00000000       0.00000000
O        2.01750000       0.00000000       0.00000000       0.00000000       0.00000000       0.00000000
O        0.00000000       2.01750000       0.00000000       0.00000000       0.00000000       0.00000000
5
Lattice="4.035 0.0 0.0 0.0 4.035 0.0 0.0 0.0 4.035" Properties=species:S:1:pos:R:3:displacements:R:3 energy=-254603.174988921 free_energy=-254603.174988921 polarization="0.000548508095 0.000274254173 0.000274254173" REF_dipole="0.002249074466881545 0.0011245377480345368 0.0011245377480345368" pbc="T T T"
Ba       2.01831650       2.01790825       2.01790825       0.00081650       0.00040825       0.00040825
Ti       0.00000000       0.00000000       0.00000000       0.00000000       0.00000000       0.00000000
O        0.00000000       0.00000000       2.01750000       0.00000000       0.00000000       0.00000000
O        2.01750000       0.00000000       0.00000000       0.00000000       0.00000000       0.00000000
O        0.00000000       2.01750000       0.00000000       0.00000000       0.00000000       0.00000000
