5
Lattice="4.035 0.0 0.0 0.0 4.035 0.0 0.0 0.0 4.035" Properties=species:S:1:pos:R:3:spacegroup_kinds:I:1 spacegroup="P m -3 m" unit_cell=conventional occupancy="_JSON {\"0\": {\"Ba\": 1}, \"1\": {\"Ti\": 1}, \"2\": {\"O\": 1}}" pbc="T T T"
Ba       2.01750000       2.01750000       2.01750000        0
Ti       0.00000000       0.00000000       0.00000000        1
O        0.00000000       0.00000000       2.01750000        2
O        2.01750000       0.00000000       0.00000000        2
O        0.00000000       2.01750000       0.00000000        2
