------------------------------------------------------------
          Invoking FHI-aims ...

          When using FHI-aims, please cite the following reference:

            Volker Blum, Ralf Gehrke, Felix Hanke, Paula Havu,
            Ville Havu, Xinguo Ren, Karsten Reuter, and Matthias Scheffler,
            'Ab Initio Molecular Simulations with Numeric Atom-Centered Orbitals',
            Computer Physics Communications 180, 2175-2196 (2009)

          In addition, many other developments in FHI-aims are likely important for
          your particular application. If so, please cite them. A partial list of references
          is written at the end of this file. Thank you for giving credit to the authors
          of these developments.

          For general information about FHI-aims please find us at

            https://fhi-aims.org

          Online tutorials can be found at

            https://fhi-aims-club.gitlab.io/tutorials/tutorials-overview/

          For any questions about FHI-aims, please visit our slack channel at

            https://fhi-aims.slack.com

          and our main development and support site at

            https://aims-git.rz-berlin.mpg.de .

          The latter site, in particular, has a wiki to collect information, as well
          as an issue tracker to log discussions, suggest improvements, and report issues
          or bugs. https://aims-git.rz-berlin.mpg.de is also the main development site
          of the project and all new and updated code versions can be obtained there.
          Please send an email to aims-coordinators@ms1p.org and we will add
          you to these sites. They are for you and everyone is welcome there.

------------------------------------------------------------



  Date     :  20260814, Time     :  171335.326
  Time zero on CPU 1             :   0.220993000000000E+00  s.
  Internal wall clock time zero  :           555959615.326  s.

  FHI-aims created a unique identifier for this run for later identification
  aims_uuid : 0630604A-B303-496A-A970-29D7FD0BC3B9

  Build configuration of the current instance of FHI-aims
  -------------------------------------------------------
  FHI-aims version      : 260527
  Commit number         : 59e070fb4
  CMake host system     : Linux-5.14.0-570.103.1.el9_6.x86_64
  CMake version         : 3.26.5
  OS Distribution       : Red Hat Enterprise Linux 9.6 (Plow)
  Built on              : AMD EPYC 9554 64-Core Processor
  Fortran compiler      : /mpcdf/soft/RHEL_9/packages/x86_64/intel_oneapi/2024.0/mpi/2021.11/bin/mpiifort (Intel) version 2021.1.0.20231117
  Fortran compiler flags: -O3 -ip -fp-model precise -diag-disable=10448
  C compiler            : /mpcdf/soft/RHEL_9/packages/x86_64/intel/2024.0.2/bin/icx (IntelLLVM) version 2024.0.2
  C compiler flags      : -O3 -std=gnu99
  C++ compiler          : /mpcdf/soft/RHEL_9/packages/x86_64/intel/2024.0.2/bin/icpx (IntelLLVM) version 2024.0.2
  C++ compiler flags    : -O3 -std=c++14
  HIP compiler          :
  HIP compiler flags    :
  HIP GPU arch          :
  Using MPI
  Using ScaLAPACK
  Using LibXC
  Using i-PI
  Using RLSY
  Using GREENX
  Linking against: /mpcdf/soft/RHEL_9/packages/x86_64/intel_oneapi/2024.0/mkl/latest/lib/libmkl_intel_lp64.so
                   /mpcdf/soft/RHEL_9/packages/x86_64/intel_oneapi/2024.0/mkl/latest/lib/libmkl_sequential.so
                   /mpcdf/soft/RHEL_9/packages/x86_64/intel_oneapi/2024.0/mkl/latest/lib/libmkl_core.so
                   /mpcdf/soft/RHEL_9/packages/x86_64/intel_oneapi/2024.0/mkl/latest/lib/libmkl_blacs_intelmpi_lp64.so
                   /mpcdf/soft/RHEL_9/packages/x86_64/intel_oneapi/2024.0/mkl/latest/lib/libmkl_scalapack_lp64.so

  Using      256 parallel tasks.
  Task        0 on host vipc2301 reporting.
  Task        1 on host vipc2301 reporting.
  Task        2 on host vipc2301 reporting.
  Task        3 on host vipc2301 reporting.
  Task        4 on host vipc2301 reporting.
  Task        5 on host vipc2301 reporting.
  Task        6 on host vipc2301 reporting.
  Task        7 on host vipc2301 reporting.
  Task        8 on host vipc2301 reporting.
  Task        9 on host vipc2301 reporting.
  Task       10 on host vipc2301 reporting.
  Task       11 on host vipc2301 reporting.
  Task       12 on host vipc2301 reporting.
  Task       13 on host vipc2301 reporting.
  Task       14 on host vipc2301 reporting.
  Task       15 on host vipc2301 reporting.
  Task       16 on host vipc2301 reporting.
  Task       17 on host vipc2301 reporting.
  Task       18 on host vipc2301 reporting.
  Task       19 on host vipc2301 reporting.
  Task       20 on host vipc2301 reporting.
  Task       21 on host vipc2301 reporting.
  Task       22 on host vipc2301 reporting.
  Task       23 on host vipc2301 reporting.
  Task       24 on host vipc2301 reporting.
  Task       25 on host vipc2301 reporting.
  Task       26 on host vipc2301 reporting.
  Task       27 on host vipc2301 reporting.
  Task       28 on host vipc2301 reporting.
  Task       29 on host vipc2301 reporting.
  Task       30 on host vipc2301 reporting.
  Task       31 on host vipc2301 reporting.
  Task       32 on host vipc2301 reporting.
  Task       33 on host vipc2301 reporting.
  Task       34 on host vipc2301 reporting.
  Task       35 on host vipc2301 reporting.
  Task       36 on host vipc2301 reporting.
  Task       37 on host vipc2301 reporting.
  Task       38 on host vipc2301 reporting.
  Task       39 on host vipc2301 reporting.
  Task       40 on host vipc2301 reporting.
  Task       41 on host vipc2301 reporting.
  Task       42 on host vipc2301 reporting.
  Task       43 on host vipc2301 reporting.
  Task       44 on host vipc2301 reporting.
  Task       45 on host vipc2301 reporting.
  Task       46 on host vipc2301 reporting.
  Task       47 on host vipc2301 reporting.
  Task       48 on host vipc2301 reporting.
  Task       49 on host vipc2301 reporting.
  Task       50 on host vipc2301 reporting.
  Task       51 on host vipc2301 reporting.
  Task       52 on host vipc2301 reporting.
  Task       53 on host vipc2301 reporting.
  Task       54 on host vipc2301 reporting.
  Task       55 on host vipc2301 reporting.
  Task       56 on host vipc2301 reporting.
  Task       57 on host vipc2301 reporting.
  Task       58 on host vipc2301 reporting.
  Task       59 on host vipc2301 reporting.
  Task       60 on host vipc2301 reporting.
  Task       61 on host vipc2301 reporting.
  Task       62 on host vipc2301 reporting.
  Task       63 on host vipc2301 reporting.
  Task       64 on host vipc2301 reporting.
  Task       65 on host vipc2301 reporting.
  Task       66 on host vipc2301 reporting.
  Task       67 on host vipc2301 reporting.
  Task       68 on host vipc2301 reporting.
  Task       69 on host vipc2301 reporting.
  Task       70 on host vipc2301 reporting.
  Task       71 on host vipc2301 reporting.
  Task       72 on host vipc2301 reporting.
  Task       73 on host vipc2301 reporting.
  Task       74 on host vipc2301 reporting.
  Task       75 on host vipc2301 reporting.
  Task       76 on host vipc2301 reporting.
  Task       77 on host vipc2301 reporting.
  Task       78 on host vipc2301 reporting.
  Task       79 on host vipc2301 reporting.
  Task       80 on host vipc2301 reporting.
  Task       81 on host vipc2301 reporting.
  Task       82 on host vipc2301 reporting.
  Task       83 on host vipc2301 reporting.
  Task       84 on host vipc2301 reporting.
  Task       85 on host vipc2301 reporting.
  Task       86 on host vipc2301 reporting.
  Task       87 on host vipc2301 reporting.
  Task       88 on host vipc2301 reporting.
  Task       89 on host vipc2301 reporting.
  Task       90 on host vipc2301 reporting.
  Task       91 on host vipc2301 reporting.
  Task       92 on host vipc2301 reporting.
  Task       93 on host vipc2301 reporting.
  Task       94 on host vipc2301 reporting.
  Task       95 on host vipc2301 reporting.
  Task       96 on host vipc2301 reporting.
  Task       97 on host vipc2301 reporting.
  Task       98 on host vipc2301 reporting.
  Task       99 on host vipc2301 reporting.
  Task      100 on host vipc2301 reporting.
  Task      101 on host vipc2301 reporting.
  Task      102 on host vipc2301 reporting.
  Task      103 on host vipc2301 reporting.
  Task      104 on host vipc2301 reporting.
  Task      105 on host vipc2301 reporting.
  Task      106 on host vipc2301 reporting.
  Task      107 on host vipc2301 reporting.
  Task      108 on host vipc2301 reporting.
  Task      109 on host vipc2301 reporting.
  Task      110 on host vipc2301 reporting.
  Task      111 on host vipc2301 reporting.
  Task      112 on host vipc2301 reporting.
  Task      113 on host vipc2301 reporting.
  Task      114 on host vipc2301 reporting.
  Task      115 on host vipc2301 reporting.
  Task      116 on host vipc2301 reporting.
  Task      117 on host vipc2301 reporting.
  Task      118 on host vipc2301 reporting.
  Task      119 on host vipc2301 reporting.
  Task      120 on host vipc2301 reporting.
  Task      121 on host vipc2301 reporting.
  Task      122 on host vipc2301 reporting.
  Task      123 on host vipc2301 reporting.
  Task      124 on host vipc2301 reporting.
  Task      125 on host vipc2301 reporting.
  Task      126 on host vipc2301 reporting.
  Task      127 on host vipc2301 reporting.
  Task      128 on host vipc2331 reporting.
  Task      129 on host vipc2331 reporting.
  Task      130 on host vipc2331 reporting.
  Task      131 on host vipc2331 reporting.
  Task      132 on host vipc2331 reporting.
  Task      133 on host vipc2331 reporting.
  Task      134 on host vipc2331 reporting.
  Task      135 on host vipc2331 reporting.
  Task      136 on host vipc2331 reporting.
  Task      137 on host vipc2331 reporting.
  Task      138 on host vipc2331 reporting.
  Task      139 on host vipc2331 reporting.
  Task      140 on host vipc2331 reporting.
  Task      141 on host vipc2331 reporting.
  Task      142 on host vipc2331 reporting.
  Task      143 on host vipc2331 reporting.
  Task      144 on host vipc2331 reporting.
  Task      145 on host vipc2331 reporting.
  Task      146 on host vipc2331 reporting.
  Task      147 on host vipc2331 reporting.
  Task      148 on host vipc2331 reporting.
  Task      149 on host vipc2331 reporting.
  Task      150 on host vipc2331 reporting.
  Task      151 on host vipc2331 reporting.
  Task      152 on host vipc2331 reporting.
  Task      153 on host vipc2331 reporting.
  Task      154 on host vipc2331 reporting.
  Task      155 on host vipc2331 reporting.
  Task      156 on host vipc2331 reporting.
  Task      157 on host vipc2331 reporting.
  Task      158 on host vipc2331 reporting.
  Task      159 on host vipc2331 reporting.
  Task      160 on host vipc2331 reporting.
  Task      161 on host vipc2331 reporting.
  Task      162 on host vipc2331 reporting.
  Task      163 on host vipc2331 reporting.
  Task      164 on host vipc2331 reporting.
  Task      165 on host vipc2331 reporting.
  Task      166 on host vipc2331 reporting.
  Task      167 on host vipc2331 reporting.
  Task      168 on host vipc2331 reporting.
  Task      169 on host vipc2331 reporting.
  Task      170 on host vipc2331 reporting.
  Task      171 on host vipc2331 reporting.
  Task      172 on host vipc2331 reporting.
  Task      173 on host vipc2331 reporting.
  Task      174 on host vipc2331 reporting.
  Task      175 on host vipc2331 reporting.
  Task      176 on host vipc2331 reporting.
  Task      177 on host vipc2331 reporting.
  Task      178 on host vipc2331 reporting.
  Task      179 on host vipc2331 reporting.
  Task      180 on host vipc2331 reporting.
  Task      181 on host vipc2331 reporting.
  Task      182 on host vipc2331 reporting.
  Task      183 on host vipc2331 reporting.
  Task      184 on host vipc2331 reporting.
  Task      185 on host vipc2331 reporting.
  Task      186 on host vipc2331 reporting.
  Task      187 on host vipc2331 reporting.
  Task      188 on host vipc2331 reporting.
  Task      189 on host vipc2331 reporting.
  Task      190 on host vipc2331 reporting.
  Task      191 on host vipc2331 reporting.
  Task      192 on host vipc2331 reporting.
  Task      193 on host vipc2331 reporting.
  Task      194 on host vipc2331 reporting.
  Task      195 on host vipc2331 reporting.
  Task      196 on host vipc2331 reporting.
  Task      197 on host vipc2331 reporting.
  Task      198 on host vipc2331 reporting.
  Task      199 on host vipc2331 reporting.
  Task      200 on host vipc2331 reporting.
  Task      201 on host vipc2331 reporting.
  Task      202 on host vipc2331 reporting.
  Task      203 on host vipc2331 reporting.
  Task      204 on host vipc2331 reporting.
  Task      205 on host vipc2331 reporting.
  Task      206 on host vipc2331 reporting.
  Task      207 on host vipc2331 reporting.
  Task      208 on host vipc2331 reporting.
  Task      209 on host vipc2331 reporting.
  Task      210 on host vipc2331 reporting.
  Task      211 on host vipc2331 reporting.
  Task      212 on host vipc2331 reporting.
  Task      213 on host vipc2331 reporting.
  Task      214 on host vipc2331 reporting.
  Task      215 on host vipc2331 reporting.
  Task      216 on host vipc2331 reporting.
  Task      217 on host vipc2331 reporting.
  Task      218 on host vipc2331 reporting.
  Task      219 on host vipc2331 reporting.
  Task      220 on host vipc2331 reporting.
  Task      221 on host vipc2331 reporting.
  Task      222 on host vipc2331 reporting.
  Task      223 on host vipc2331 reporting.
  Task      224 on host vipc2331 reporting.
  Task      225 on host vipc2331 reporting.
  Task      226 on host vipc2331 reporting.
  Task      227 on host vipc2331 reporting.
  Task      228 on host vipc2331 reporting.
  Task      229 on host vipc2331 reporting.
  Task      230 on host vipc2331 reporting.
  Task      231 on host vipc2331 reporting.
  Task      232 on host vipc2331 reporting.
  Task      233 on host vipc2331 reporting.
  Task      234 on host vipc2331 reporting.
  Task      235 on host vipc2331 reporting.
  Task      236 on host vipc2331 reporting.
  Task      237 on host vipc2331 reporting.
  Task      238 on host vipc2331 reporting.
  Task      239 on host vipc2331 reporting.
  Task      240 on host vipc2331 reporting.
  Task      241 on host vipc2331 reporting.
  Task      242 on host vipc2331 reporting.
  Task      243 on host vipc2331 reporting.
  Task      244 on host vipc2331 reporting.
  Task      245 on host vipc2331 reporting.
  Task      246 on host vipc2331 reporting.
  Task      247 on host vipc2331 reporting.
  Task      248 on host vipc2331 reporting.
  Task      249 on host vipc2331 reporting.
  Task      250 on host vipc2331 reporting.
  Task      251 on host vipc2331 reporting.
  Task      252 on host vipc2331 reporting.
  Task      253 on host vipc2331 reporting.
  Task      254 on host vipc2331 reporting.
  Task      255 on host vipc2331 reporting.

  Obtaining array dimensions for all initial allocations:
  
  -----------------------------------------------------------------------
  Parsing control.in (first pass over file, find array dimensions only).
  The contents of control.in will be repeated verbatim below
  unless switched off by setting 'verbatim_writeout .false.' .
  in the first line of control.in .
  -----------------------------------------------------------------------
  
  xc                           pw-lda
  relativistic                 atomic_zora scalar
  spin                         none
  k_grid                       2 2 2
  sc_accuracy_rho              1d-2
  elsi_restart                 read
  KS_method                    serial
  output polarization          3 2 2 2
  
  
  ################################################################################
  #
  #  FHI-aims code project
  #  VB, Fritz-Haber Institut, 2009
  #
  #  Suggested "light" defaults for Mg atom (to be pasted into control.in file)
  #  Be sure to double-check any results obtained with these settings for post-processing,
  #  e.g., with the "tight" defaults and larger basis sets.
  #
  ################################################################################
    species        Mg
  #     global species definitions
      nucleus             12
      mass                24.3050
  #
      l_hartree           4
  #
      cut_pot             4.0          1.5  1.0
      basis_dep_cutoff    1e-4
  #
      radial_base         40 5.5
      radial_multiplier   1
      angular_grids       specified
        division   0.7029   50
        division   0.9689  110
        division   1.1879  194
        division   1.3129  302
  #      division   1.4867  434
  #      division   1.6018  590
  #      division   1.8611  770
  #      division   1.9576  974
  #      division   2.2261 1202
  #      outer_grid   974
        outer_grid   302
  ################################################################################
  #
  #  Definition of "minimal" basis
  #
  ################################################################################
  #     valence basis states
      valence      3  s   2.
      valence      2  p   6.
  #     ion occupancy
      ion_occ      2  s   2.
      ion_occ      2  p   6.
  ################################################################################
  #
  #  Suggested additional basis functions. For production calculations,
  #  uncomment them one after another (the most important basis functions are
  #  listed first).
  #
  #  Constructed for dimers: 2.125 A, 2.375 A, 2.875 A, 3.375 A, 4.5 A
  #
  ################################################################################
  #  "First tier" - improvements: -230.76 meV to -21.94 meV
       hydro 2 p 1.5
       ionic 3 d auto
       hydro 3 s 2.4
  #  "Second tier" - improvements: -5.43 meV to -1.64 meV
  #     hydro 4 f 4.3
  #     hydro 2 p 3.4
  #     hydro 4 s 11.2
  #     hydro 3 d 6.2
  #  "Third tier" - improvements: -0.92 meV to -0.22 meV
  #     hydro 2 s 0.6
  #     hydro 3 p 4.8
  #     hydro 4 f 7.4
  #     hydro 5 g 6.6
  #     hydro 2 p 1.6
  #     hydro 3 d 1.8
  #  "Fourth tier" - improvements: -0.09 meV to -0.05 meV
  #     hydro 4 p 0.45
  #     hydro 5 g 10.4
  #     hydro 2 s 12.4
  #     hydro 4 d 1.7
  ################################################################################
  #
  #  FHI-aims code project
  #  VB, Fritz-Haber Institut, 2009
  #
  #  Suggested "light" defaults for O atom (to be pasted into control.in file)
  #  Be sure to double-check any results obtained with these settings for post-processing,
  #  e.g., with the "tight" defaults and larger basis sets.
  #
  ################################################################################
    species        O
  #     global species definitions
      nucleus             8
      mass                15.9994
  #
      l_hartree           4
  #
      cut_pot             3.5  1.5  1.0
      basis_dep_cutoff    1e-4
  #
      radial_base         36 5.0
      radial_multiplier   1
       angular_grids specified
        division   0.2659   50
        division   0.4451  110
        division   0.6052  194
        division   0.7543  302
  #      division   0.8014  434
  #      division   0.8507  590
  #      division   0.8762  770
  #      division   0.9023  974
  #      division   1.2339 1202
  #      outer_grid 974
        outer_grid 302
  ################################################################################
  #
  #  Definition of "minimal" basis
  #
  ################################################################################
  #     valence basis states
      valence      2  s   2.
      valence      2  p   4.
  #     ion occupancy
      ion_occ      2  s   1.
      ion_occ      2  p   3.
  ################################################################################
  #
  #  Suggested additional basis functions. For production calculations,
  #  uncomment them one after another (the most important basis functions are
  #  listed first).
  #
  #  Constructed for dimers: 1.0 A, 1.208 A, 1.5 A, 2.0 A, 3.0 A
  #
  ################################################################################
  #  "First tier" - improvements: -699.05 meV to -159.38 meV
       hydro 2 p 1.8
       hydro 3 d 7.6
       hydro 3 s 6.4
  #  "Second tier" - improvements: -49.91 meV to -5.39 meV
  #     hydro 4 f 11.6
  #     hydro 3 p 6.2
  #     hydro 3 d 5.6
  #     hydro 5 g 17.6
  #     hydro 1 s 0.75
  #  "Third tier" - improvements: -2.83 meV to -0.50 meV
  #     ionic 2 p auto
  #     hydro 4 f 10.8
  #     hydro 4 d 4.7
  #     hydro 2 s 6.8
  #  "Fourth tier" - improvements: -0.40 meV to -0.12 meV
  #     hydro 3 p 5
  #     hydro 3 s 3.3
  #     hydro 5 g 15.6
  #     hydro 4 f 17.6
  #     hydro 4 d 14
  # Further basis functions - -0.08 meV and below
  #     hydro 3 s 2.1
  #     hydro 4 d 11.6
  #     hydro 3 p 16
  #     hydro 2 s 17.2
  
  -----------------------------------------------------------------------
  Completed first pass over input file control.in .
  -----------------------------------------------------------------------
  
  
  -----------------------------------------------------------------------
  Parsing geometry.in (first pass over file, find array dimensions only).
  The contents of geometry.in will be repeated verbatim below
  unless switched off by setting 'verbatim_writeout .false.' .
  in the first line of geometry.in .
  -----------------------------------------------------------------------
  
  #===============================================================================
  # Created using the Atomic Simulation Environment (ASE)
  
  # Sun May 17 15:17:32 2026
  
  #=======================================================
  lattice_vector -0.0000004035770000 2.1104318837479998 2.1104318837760001
  lattice_vector 2.1104324127499998 0.0000002017810000 2.1104321609930001
  lattice_vector 2.1104324127140002 2.1104321609280001 0.0000002017100000
  atom 0.0000000000780860 0.0000000000400982 0.0000000000801964 Mg
  atom 2.1104322108654139 2.1104321231884016 2.1104321231593035 O
  
  -----------------------------------------------------------------------
  Completed first pass over input file geometry.in .
  -----------------------------------------------------------------------
  

  Basic array size parameters:
  | Number of species                 :        2
  | Number of atoms                   :        2
  | Number of lattice vectors         :        3
  | Max. basis fn. angular momentum   :        2
  | Max. atomic/ionic basis occupied n:        3
  | Max. number of basis fn. types    :        3
  | Max. radial fns per species/type  :        4
  | Max. logarithmic grid size        :     1334
  | Max. radial integration grid size :       40
  | Max. angular integration grid size:      302
  | Max. angular grid division number :        8
  | Radial grid for Hartree potential :     1334
  | Number of spin channels           :        1

  Definition of standardized fundamental physical constants in this FHI-aims run:
  | Using the set of values used in FHI-aims up to 2024, which combines values from
  | different CODATA sets - see constants.f90.
  | Use the 'codata' keyword in control.in to change this selection.

  Memory overcommitment is allowed on your operating system.

------------------------------------------------------------
          Reading file control.in.
------------------------------------------------------------
  XC: Using Perdew-Wang parametrisation of Ceperley-Alder LDA.
  Scalar relativistic treatment of kinetic energy: on-site free-atom approximation to ZORA.
  Spin treatment: No spin polarisation.
  Found k-point grid:         2         2         2
  Convergence accuracy of self-consistent charge density:  0.1000E-01
  Using elsi_restart infrastructure.
  Restarting calculation from saved density matrices.
  Kohn-Sham eigenvalues and eigenfunctions calculated by LAPACK via ELSI.

  Polarization directive number:    1
  | Calculating polarization along reciprocal lattice vector 3 using    2 k-points parallel to this direction.
  | Full Brillouin zone sampling is thus performed on a     2 x     2 x     2 grid
 
  Reading configuration options for species Mg                  .
  | Found nuclear charge :  12.0000
  | Found atomic mass :    24.3050000000000      amu
  | Found l_max for Hartree potential  :   4
  | Found cutoff potl. onset [A], width [A], scale factor :    4.00000    1.50000    1.00000
  | Threshold for basis-dependent cutoff potential is   0.100000E-03
  | Found data for basic radial integration grid :    40 points, outermost radius =    5.500 A
  | Found multiplier for basic radial grid :   1
  | Found angular grid specification: user-specified.
  | Specified grid contains     5 separate shells.
  | Check grid settings after all constraints further below.
  | Found free-atom valence shell :  3 s   2.000
  | Found free-atom valence shell :  2 p   6.000
  | Found free-ion valence shell :  2 s   2.000
  | Found free-ion valence shell :  2 p   6.000
  | Found hydrogenic basis function :  2 p   1.500
  | Found ionic basis function :  3 d , default cutoff radius.
  | Found hydrogenic basis function :  3 s   2.400
 | Encountered keyword species, ending the description of species Mg                  .
  Species Mg                  : Missing cutoff potential type.
  Defaulting to exp(1/x)/(1-x)^2 type cutoff potential.
  Species Mg: No 'logarithmic' tag. Using default grid for free atom:
  | Default logarithmic grid data [bohr] : 0.1000E-03 0.1000E+03 0.1012E+01
  | Will include ionic basis functions of  2.0-fold positive Mg                   ion.
  Species Mg: On-site basis accuracy parameter (for Gram-Schmidt orthonormalisation) not specified.
  Using default value basis_acc =  0.1000000E-03.
  Species Mg                  : Using default innermost maximum threshold i_radial=  2 for radial functions.
  Species Mg                  : Default cutoff onset for free atom density etc. : 0.40000000E+01 AA.
  Species Mg                  : Basic radial grid will be enhanced according to radial_multiplier =   1, to contain    40 grid points.
 
  Reading configuration options for species O                   .
  | Found nuclear charge :   8.0000
  | Found atomic mass :    15.9994000000000      amu
  | Found l_max for Hartree potential  :   4
  | Found cutoff potl. onset [A], width [A], scale factor :    3.50000    1.50000    1.00000
  | Threshold for basis-dependent cutoff potential is   0.100000E-03
  | Found data for basic radial integration grid :    36 points, outermost radius =    5.000 A
  | Found multiplier for basic radial grid :   1
  | Found angular grid specification: user-specified.
  | Specified grid contains     5 separate shells.
  | Check grid settings after all constraints further below.
  | Found free-atom valence shell :  2 s   2.000
  | Found free-atom valence shell :  2 p   4.000
  | Found free-ion valence shell :  2 s   1.000
  | Found free-ion valence shell :  2 p   3.000
  | Found hydrogenic basis function :  2 p   1.800
  | Found hydrogenic basis function :  3 d   7.600
  | Found hydrogenic basis function :  3 s   6.400
  Species O                   : Missing cutoff potential type.
  Defaulting to exp(1/x)/(1-x)^2 type cutoff potential.
  Species O : No 'logarithmic' tag. Using default grid for free atom:
  | Default logarithmic grid data [bohr] : 0.1000E-03 0.1000E+03 0.1012E+01
  Species O : On-site basis accuracy parameter (for Gram-Schmidt orthonormalisation) not specified.
  Using default value basis_acc =  0.1000000E-03.
  Species O                   : Using default innermost maximum threshold i_radial=  2 for radial functions.
  Species O                   : Default cutoff onset for free atom density etc. : 0.35000000E+01 AA.
  Species O                   : Basic radial grid will be enhanced according to radial_multiplier =   1, to contain    36 grid points.
 
  Finished reading input file 'control.in'.
 
------------------------------------------------------------


------------------------------------------------------------
          Reading geometry description geometry.in.
------------------------------------------------------------
  | The smallest distance between any two atoms is         2.11043192 AA.
  | The first atom of this pair is atom number                      1 .
  | The second atom of this pair is atom number                     2 .
  | Wigner-Seitz cell of the first atom image           0     1     0 .
  | (The Wigner-Seitz cell of the second atom is 0 0 0  by definition.)

  Symmetry information by spglib:
  | Precision set to  0.1E-04
  | Number of Operations  : 48
  | Space group           : 225
  | International         : Fm-3m   Dv
  | Schoenflies           : Oh^5
  Input structure read successfully.
  The structure contains        2 atoms,  and a total of         20.000 electrons.

  Input geometry:
  | Unit cell:
  |       -0.00000040        2.11043188        2.11043188
  |        2.11043241        0.00000020        2.11043216
  |        2.11043241        2.11043216        0.00000020
  | Atomic structure:
  |       Atom                x [A]            y [A]            z [A]
  |    1: Species Mg            0.00000000        0.00000000        0.00000000
  |    2: Species O             2.11043221        2.11043212        2.11043212

  Lattice parameters for 3D lattice (in Angstroms) :     2.984601    2.984602    2.984602
  Angle(s) between unit vectors (in degrees)       :    59.999990   60.000005   60.000005


  Quantities derived from the lattice vectors (in Angstrom^-1):
  | Reciprocal lattice vector 1: -1.488602  1.488602  1.488602
  | Reciprocal lattice vector 2:  1.488601 -1.488602  1.488602
  | Reciprocal lattice vector 3:  1.488601  1.488602 -1.488602
  | Unit cell volume                               :   0.187994E+02  Angstrom^3

  Fractional coordinates:
                         L1                L2                L3
       atom_frac         0.00000000        0.00000000        0.00000000  Mg
       atom_frac         0.50000000        0.50000000        0.50000000  O

  Slab Identifier: This seems to be a bulk system.
 
  Finished reading input file 'geometry.in'.
 

 
  Consistency checks for stacksize environment parameter are next.
 
  | Maximum stacksize for task 0: unlimited
  | Maximum stacksize for task 1: unlimited
  | Maximum stacksize for task 2: unlimited
  | Maximum stacksize for task 3: unlimited
  | Maximum stacksize for task 4: unlimited
  | Maximum stacksize for task 5: unlimited
  | Maximum stacksize for task 6: unlimited
  | Maximum stacksize for task 7: unlimited
  | Maximum stacksize for task 8: unlimited
  | Maximum stacksize for task 9: unlimited
  | Maximum stacksize for task 10: unlimited
  | Maximum stacksize for task 11: unlimited
  | Maximum stacksize for task 12: unlimited
  | Maximum stacksize for task 13: unlimited
  | Maximum stacksize for task 14: unlimited
  | Maximum stacksize for task 15: unlimited
  | Maximum stacksize for task 16: unlimited
  | Maximum stacksize for task 17: unlimited
  | Maximum stacksize for task 18: unlimited
  | Maximum stacksize for task 19: unlimited
  | Maximum stacksize for task 20: unlimited
  | Maximum stacksize for task 21: unlimited
  | Maximum stacksize for task 22: unlimited
  | Maximum stacksize for task 23: unlimited
  | Maximum stacksize for task 24: unlimited
  | Maximum stacksize for task 25: unlimited
  | Maximum stacksize for task 26: unlimited
  | Maximum stacksize for task 27: unlimited
  | Maximum stacksize for task 28: unlimited
  | Maximum stacksize for task 29: unlimited
  | Maximum stacksize for task 30: unlimited
  | Maximum stacksize for task 31: unlimited
  | Maximum stacksize for task 32: unlimited
  | Maximum stacksize for task 33: unlimited
  | Maximum stacksize for task 34: unlimited
  | Maximum stacksize for task 35: unlimited
  | Maximum stacksize for task 36: unlimited
  | Maximum stacksize for task 37: unlimited
  | Maximum stacksize for task 38: unlimited
  | Maximum stacksize for task 39: unlimited
  | Maximum stacksize for task 40: unlimited
  | Maximum stacksize for task 41: unlimited
  | Maximum stacksize for task 42: unlimited
  | Maximum stacksize for task 43: unlimited
  | Maximum stacksize for task 44: unlimited
  | Maximum stacksize for task 45: unlimited
  | Maximum stacksize for task 46: unlimited
  | Maximum stacksize for task 47: unlimited
  | Maximum stacksize for task 48: unlimited
  | Maximum stacksize for task 49: unlimited
  | Maximum stacksize for task 50: unlimited
  | Maximum stacksize for task 51: unlimited
  | Maximum stacksize for task 52: unlimited
  | Maximum stacksize for task 53: unlimited
  | Maximum stacksize for task 54: unlimited
  | Maximum stacksize for task 55: unlimited
  | Maximum stacksize for task 56: unlimited
  | Maximum stacksize for task 57: unlimited
  | Maximum stacksize for task 58: unlimited
  | Maximum stacksize for task 59: unlimited
  | Maximum stacksize for task 60: unlimited
  | Maximum stacksize for task 61: unlimited
  | Maximum stacksize for task 62: unlimited
  | Maximum stacksize for task 63: unlimited
  | Maximum stacksize for task 64: unlimited
  | Maximum stacksize for task 65: unlimited
  | Maximum stacksize for task 66: unlimited
  | Maximum stacksize for task 67: unlimited
  | Maximum stacksize for task 68: unlimited
  | Maximum stacksize for task 69: unlimited
  | Maximum stacksize for task 70: unlimited
  | Maximum stacksize for task 71: unlimited
  | Maximum stacksize for task 72: unlimited
  | Maximum stacksize for task 73: unlimited
  | Maximum stacksize for task 74: unlimited
  | Maximum stacksize for task 75: unlimited
  | Maximum stacksize for task 76: unlimited
  | Maximum stacksize for task 77: unlimited
  | Maximum stacksize for task 78: unlimited
  | Maximum stacksize for task 79: unlimited
  | Maximum stacksize for task 80: unlimited
  | Maximum stacksize for task 81: unlimited
  | Maximum stacksize for task 82: unlimited
  | Maximum stacksize for task 83: unlimited
  | Maximum stacksize for task 84: unlimited
  | Maximum stacksize for task 85: unlimited
  | Maximum stacksize for task 86: unlimited
  | Maximum stacksize for task 87: unlimited
  | Maximum stacksize for task 88: unlimited
  | Maximum stacksize for task 89: unlimited
  | Maximum stacksize for task 90: unlimited
  | Maximum stacksize for task 91: unlimited
  | Maximum stacksize for task 92: unlimited
  | Maximum stacksize for task 93: unlimited
  | Maximum stacksize for task 94: unlimited
  | Maximum stacksize for task 95: unlimited
  | Maximum stacksize for task 96: unlimited
  | Maximum stacksize for task 97: unlimited
  | Maximum stacksize for task 98: unlimited
  | Maximum stacksize for task 99: unlimited
  | Maximum stacksize for task 100: unlimited
  | Maximum stacksize for task 101: unlimited
  | Maximum stacksize for task 102: unlimited
  | Maximum stacksize for task 103: unlimited
  | Maximum stacksize for task 104: unlimited
  | Maximum stacksize for task 105: unlimited
  | Maximum stacksize for task 106: unlimited
  | Maximum stacksize for task 107: unlimited
  | Maximum stacksize for task 108: unlimited
  | Maximum stacksize for task 109: unlimited
  | Maximum stacksize for task 110: unlimited
  | Maximum stacksize for task 111: unlimited
  | Maximum stacksize for task 112: unlimited
  | Maximum stacksize for task 113: unlimited
  | Maximum stacksize for task 114: unlimited
  | Maximum stacksize for task 115: unlimited
  | Maximum stacksize for task 116: unlimited
  | Maximum stacksize for task 117: unlimited
  | Maximum stacksize for task 118: unlimited
  | Maximum stacksize for task 119: unlimited
  | Maximum stacksize for task 120: unlimited
  | Maximum stacksize for task 121: unlimited
  | Maximum stacksize for task 122: unlimited
  | Maximum stacksize for task 123: unlimited
  | Maximum stacksize for task 124: unlimited
  | Maximum stacksize for task 125: unlimited
  | Maximum stacksize for task 126: unlimited
  | Maximum stacksize for task 127: unlimited
  | Maximum stacksize for task 128: unlimited
  | Maximum stacksize for task 129: unlimited
  | Maximum stacksize for task 130: unlimited
  | Maximum stacksize for task 131: unlimited
  | Maximum stacksize for task 132: unlimited
  | Maximum stacksize for task 133: unlimited
  | Maximum stacksize for task 134: unlimited
  | Maximum stacksize for task 135: unlimited
  | Maximum stacksize for task 136: unlimited
  | Maximum stacksize for task 137: unlimited
  | Maximum stacksize for task 138: unlimited
  | Maximum stacksize for task 139: unlimited
  | Maximum stacksize for task 140: unlimited
  | Maximum stacksize for task 141: unlimited
  | Maximum stacksize for task 142: unlimited
  | Maximum stacksize for task 143: unlimited
  | Maximum stacksize for task 144: unlimited
  | Maximum stacksize for task 145: unlimited
  | Maximum stacksize for task 146: unlimited
  | Maximum stacksize for task 147: unlimited
  | Maximum stacksize for task 148: unlimited
  | Maximum stacksize for task 149: unlimited
  | Maximum stacksize for task 150: unlimited
  | Maximum stacksize for task 151: unlimited
  | Maximum stacksize for task 152: unlimited
  | Maximum stacksize for task 153: unlimited
  | Maximum stacksize for task 154: unlimited
  | Maximum stacksize for task 155: unlimited
  | Maximum stacksize for task 156: unlimited
  | Maximum stacksize for task 157: unlimited
  | Maximum stacksize for task 158: unlimited
  | Maximum stacksize for task 159: unlimited
  | Maximum stacksize for task 160: unlimited
  | Maximum stacksize for task 161: unlimited
  | Maximum stacksize for task 162: unlimited
  | Maximum stacksize for task 163: unlimited
  | Maximum stacksize for task 164: unlimited
  | Maximum stacksize for task 165: unlimited
  | Maximum stacksize for task 166: unlimited
  | Maximum stacksize for task 167: unlimited
  | Maximum stacksize for task 168: unlimited
  | Maximum stacksize for task 169: unlimited
  | Maximum stacksize for task 170: unlimited
  | Maximum stacksize for task 171: unlimited
  | Maximum stacksize for task 172: unlimited
  | Maximum stacksize for task 173: unlimited
  | Maximum stacksize for task 174: unlimited
  | Maximum stacksize for task 175: unlimited
  | Maximum stacksize for task 176: unlimited
  | Maximum stacksize for task 177: unlimited
  | Maximum stacksize for task 178: unlimited
  | Maximum stacksize for task 179: unlimited
  | Maximum stacksize for task 180: unlimited
  | Maximum stacksize for task 181: unlimited
  | Maximum stacksize for task 182: unlimited
  | Maximum stacksize for task 183: unlimited
  | Maximum stacksize for task 184: unlimited
  | Maximum stacksize for task 185: unlimited
  | Maximum stacksize for task 186: unlimited
  | Maximum stacksize for task 187: unlimited
  | Maximum stacksize for task 188: unlimited
  | Maximum stacksize for task 189: unlimited
  | Maximum stacksize for task 190: unlimited
  | Maximum stacksize for task 191: unlimited
  | Maximum stacksize for task 192: unlimited
  | Maximum stacksize for task 193: unlimited
  | Maximum stacksize for task 194: unlimited
  | Maximum stacksize for task 195: unlimited
  | Maximum stacksize for task 196: unlimited
  | Maximum stacksize for task 197: unlimited
  | Maximum stacksize for task 198: unlimited
  | Maximum stacksize for task 199: unlimited
  | Maximum stacksize for task 200: unlimited
  | Maximum stacksize for task 201: unlimited
  | Maximum stacksize for task 202: unlimited
  | Maximum stacksize for task 203: unlimited
  | Maximum stacksize for task 204: unlimited
  | Maximum stacksize for task 205: unlimited
  | Maximum stacksize for task 206: unlimited
  | Maximum stacksize for task 207: unlimited
  | Maximum stacksize for task 208: unlimited
  | Maximum stacksize for task 209: unlimited
  | Maximum stacksize for task 210: unlimited
  | Maximum stacksize for task 211: unlimited
  | Maximum stacksize for task 212: unlimited
  | Maximum stacksize for task 213: unlimited
  | Maximum stacksize for task 214: unlimited
  | Maximum stacksize for task 215: unlimited
  | Maximum stacksize for task 216: unlimited
  | Maximum stacksize for task 217: unlimited
  | Maximum stacksize for task 218: unlimited
  | Maximum stacksize for task 219: unlimited
  | Maximum stacksize for task 220: unlimited
  | Maximum stacksize for task 221: unlimited
  | Maximum stacksize for task 222: unlimited
  | Maximum stacksize for task 223: unlimited
  | Maximum stacksize for task 224: unlimited
  | Maximum stacksize for task 225: unlimited
  | Maximum stacksize for task 226: unlimited
  | Maximum stacksize for task 227: unlimited
  | Maximum stacksize for task 228: unlimited
  | Maximum stacksize for task 229: unlimited
  | Maximum stacksize for task 230: unlimited
  | Maximum stacksize for task 231: unlimited
  | Maximum stacksize for task 232: unlimited
  | Maximum stacksize for task 233: unlimited
  | Maximum stacksize for task 234: unlimited
  | Maximum stacksize for task 235: unlimited
  | Maximum stacksize for task 236: unlimited
  | Maximum stacksize for task 237: unlimited
  | Maximum stacksize for task 238: unlimited
  | Maximum stacksize for task 239: unlimited
  | Maximum stacksize for task 240: unlimited
  | Maximum stacksize for task 241: unlimited
  | Maximum stacksize for task 242: unlimited
  | Maximum stacksize for task 243: unlimited
  | Maximum stacksize for task 244: unlimited
  | Maximum stacksize for task 245: unlimited
  | Maximum stacksize for task 246: unlimited
  | Maximum stacksize for task 247: unlimited
  | Maximum stacksize for task 248: unlimited
  | Maximum stacksize for task 249: unlimited
  | Maximum stacksize for task 250: unlimited
  | Maximum stacksize for task 251: unlimited
  | Maximum stacksize for task 252: unlimited
  | Maximum stacksize for task 253: unlimited
  | Maximum stacksize for task 254: unlimited
  | Maximum stacksize for task 255: unlimited
  | Current stacksize for task 0: unlimited
  | Current stacksize for task 1: unlimited
  | Current stacksize for task 2: unlimited
  | Current stacksize for task 3: unlimited
  | Current stacksize for task 4: unlimited
  | Current stacksize for task 5: unlimited
  | Current stacksize for task 6: unlimited
  | Current stacksize for task 7: unlimited
  | Current stacksize for task 8: unlimited
  | Current stacksize for task 9: unlimited
  | Current stacksize for task 10: unlimited
  | Current stacksize for task 11: unlimited
  | Current stacksize for task 12: unlimited
  | Current stacksize for task 13: unlimited
  | Current stacksize for task 14: unlimited
  | Current stacksize for task 15: unlimited
  | Current stacksize for task 16: unlimited
  | Current stacksize for task 17: unlimited
  | Current stacksize for task 18: unlimited
  | Current stacksize for task 19: unlimited
  | Current stacksize for task 20: unlimited
  | Current stacksize for task 21: unlimited
  | Current stacksize for task 22: unlimited
  | Current stacksize for task 23: unlimited
  | Current stacksize for task 24: unlimited
  | Current stacksize for task 25: unlimited
  | Current stacksize for task 26: unlimited
  | Current stacksize for task 27: unlimited
  | Current stacksize for task 28: unlimited
  | Current stacksize for task 29: unlimited
  | Current stacksize for task 30: unlimited
  | Current stacksize for task 31: unlimited
  | Current stacksize for task 32: unlimited
  | Current stacksize for task 33: unlimited
  | Current stacksize for task 34: unlimited
  | Current stacksize for task 35: unlimited
  | Current stacksize for task 36: unlimited
  | Current stacksize for task 37: unlimited
  | Current stacksize for task 38: unlimited
  | Current stacksize for task 39: unlimited
  | Current stacksize for task 40: unlimited
  | Current stacksize for task 41: unlimited
  | Current stacksize for task 42: unlimited
  | Current stacksize for task 43: unlimited
  | Current stacksize for task 44: unlimited
  | Current stacksize for task 45: unlimited
  | Current stacksize for task 46: unlimited
  | Current stacksize for task 47: unlimited
  | Current stacksize for task 48: unlimited
  | Current stacksize for task 49: unlimited
  | Current stacksize for task 50: unlimited
  | Current stacksize for task 51: unlimited
  | Current stacksize for task 52: unlimited
  | Current stacksize for task 53: unlimited
  | Current stacksize for task 54: unlimited
  | Current stacksize for task 55: unlimited
  | Current stacksize for task 56: unlimited
  | Current stacksize for task 57: unlimited
  | Current stacksize for task 58: unlimited
  | Current stacksize for task 59: unlimited
  | Current stacksize for task 60: unlimited
  | Current stacksize for task 61: unlimited
  | Current stacksize for task 62: unlimited
  | Current stacksize for task 63: unlimited
  | Current stacksize for task 64: unlimited
  | Current stacksize for task 65: unlimited
  | Current stacksize for task 66: unlimited
  | Current stacksize for task 67: unlimited
  | Current stacksize for task 68: unlimited
  | Current stacksize for task 69: unlimited
  | Current stacksize for task 70: unlimited
  | Current stacksize for task 71: unlimited
  | Current stacksize for task 72: unlimited
  | Current stacksize for task 73: unlimited
  | Current stacksize for task 74: unlimited
  | Current stacksize for task 75: unlimited
  | Current stacksize for task 76: unlimited
  | Current stacksize for task 77: unlimited
  | Current stacksize for task 78: unlimited
  | Current stacksize for task 79: unlimited
  | Current stacksize for task 80: unlimited
  | Current stacksize for task 81: unlimited
  | Current stacksize for task 82: unlimited
  | Current stacksize for task 83: unlimited
  | Current stacksize for task 84: unlimited
  | Current stacksize for task 85: unlimited
  | Current stacksize for task 86: unlimited
  | Current stacksize for task 87: unlimited
  | Current stacksize for task 88: unlimited
  | Current stacksize for task 89: unlimited
  | Current stacksize for task 90: unlimited
  | Current stacksize for task 91: unlimited
  | Current stacksize for task 92: unlimited
  | Current stacksize for task 93: unlimited
  | Current stacksize for task 94: unlimited
  | Current stacksize for task 95: unlimited
  | Current stacksize for task 96: unlimited
  | Current stacksize for task 97: unlimited
  | Current stacksize for task 98: unlimited
  | Current stacksize for task 99: unlimited
  | Current stacksize for task 100: unlimited
  | Current stacksize for task 101: unlimited
  | Current stacksize for task 102: unlimited
  | Current stacksize for task 103: unlimited
  | Current stacksize for task 104: unlimited
  | Current stacksize for task 105: unlimited
  | Current stacksize for task 106: unlimited
  | Current stacksize for task 107: unlimited
  | Current stacksize for task 108: unlimited
  | Current stacksize for task 109: unlimited
  | Current stacksize for task 110: unlimited
  | Current stacksize for task 111: unlimited
  | Current stacksize for task 112: unlimited
  | Current stacksize for task 113: unlimited
  | Current stacksize for task 114: unlimited
  | Current stacksize for task 115: unlimited
  | Current stacksize for task 116: unlimited
  | Current stacksize for task 117: unlimited
  | Current stacksize for task 118: unlimited
  | Current stacksize for task 119: unlimited
  | Current stacksize for task 120: unlimited
  | Current stacksize for task 121: unlimited
  | Current stacksize for task 122: unlimited
  | Current stacksize for task 123: unlimited
  | Current stacksize for task 124: unlimited
  | Current stacksize for task 125: unlimited
  | Current stacksize for task 126: unlimited
  | Current stacksize for task 127: unlimited
  | Current stacksize for task 128: unlimited
  | Current stacksize for task 129: unlimited
  | Current stacksize for task 130: unlimited
  | Current stacksize for task 131: unlimited
  | Current stacksize for task 132: unlimited
  | Current stacksize for task 133: unlimited
  | Current stacksize for task 134: unlimited
  | Current stacksize for task 135: unlimited
  | Current stacksize for task 136: unlimited
  | Current stacksize for task 137: unlimited
  | Current stacksize for task 138: unlimited
  | Current stacksize for task 139: unlimited
  | Current stacksize for task 140: unlimited
  | Current stacksize for task 141: unlimited
  | Current stacksize for task 142: unlimited
  | Current stacksize for task 143: unlimited
  | Current stacksize for task 144: unlimited
  | Current stacksize for task 145: unlimited
  | Current stacksize for task 146: unlimited
  | Current stacksize for task 147: unlimited
  | Current stacksize for task 148: unlimited
  | Current stacksize for task 149: unlimited
  | Current stacksize for task 150: unlimited
  | Current stacksize for task 151: unlimited
  | Current stacksize for task 152: unlimited
  | Current stacksize for task 153: unlimited
  | Current stacksize for task 154: unlimited
  | Current stacksize for task 155: unlimited
  | Current stacksize for task 156: unlimited
  | Current stacksize for task 157: unlimited
  | Current stacksize for task 158: unlimited
  | Current stacksize for task 159: unlimited
  | Current stacksize for task 160: unlimited
  | Current stacksize for task 161: unlimited
  | Current stacksize for task 162: unlimited
  | Current stacksize for task 163: unlimited
  | Current stacksize for task 164: unlimited
  | Current stacksize for task 165: unlimited
  | Current stacksize for task 166: unlimited
  | Current stacksize for task 167: unlimited
  | Current stacksize for task 168: unlimited
  | Current stacksize for task 169: unlimited
  | Current stacksize for task 170: unlimited
  | Current stacksize for task 171: unlimited
  | Current stacksize for task 172: unlimited
  | Current stacksize for task 173: unlimited
  | Current stacksize for task 174: unlimited
  | Current stacksize for task 175: unlimited
  | Current stacksize for task 176: unlimited
  | Current stacksize for task 177: unlimited
  | Current stacksize for task 178: unlimited
  | Current stacksize for task 179: unlimited
  | Current stacksize for task 180: unlimited
  | Current stacksize for task 181: unlimited
  | Current stacksize for task 182: unlimited
  | Current stacksize for task 183: unlimited
  | Current stacksize for task 184: unlimited
  | Current stacksize for task 185: unlimited
  | Current stacksize for task 186: unlimited
  | Current stacksize for task 187: unlimited
  | Current stacksize for task 188: unlimited
  | Current stacksize for task 189: unlimited
  | Current stacksize for task 190: unlimited
  | Current stacksize for task 191: unlimited
  | Current stacksize for task 192: unlimited
  | Current stacksize for task 193: unlimited
  | Current stacksize for task 194: unlimited
  | Current stacksize for task 195: unlimited
  | Current stacksize for task 196: unlimited
  | Current stacksize for task 197: unlimited
  | Current stacksize for task 198: unlimited
  | Current stacksize for task 199: unlimited
  | Current stacksize for task 200: unlimited
  | Current stacksize for task 201: unlimited
  | Current stacksize for task 202: unlimited
  | Current stacksize for task 203: unlimited
  | Current stacksize for task 204: unlimited
  | Current stacksize for task 205: unlimited
  | Current stacksize for task 206: unlimited
  | Current stacksize for task 207: unlimited
  | Current stacksize for task 208: unlimited
  | Current stacksize for task 209: unlimited
  | Current stacksize for task 210: unlimited
  | Current stacksize for task 211: unlimited
  | Current stacksize for task 212: unlimited
  | Current stacksize for task 213: unlimited
  | Current stacksize for task 214: unlimited
  | Current stacksize for task 215: unlimited
  | Current stacksize for task 216: unlimited
  | Current stacksize for task 217: unlimited
  | Current stacksize for task 218: unlimited
  | Current stacksize for task 219: unlimited
  | Current stacksize for task 220: unlimited
  | Current stacksize for task 221: unlimited
  | Current stacksize for task 222: unlimited
  | Current stacksize for task 223: unlimited
  | Current stacksize for task 224: unlimited
  | Current stacksize for task 225: unlimited
  | Current stacksize for task 226: unlimited
  | Current stacksize for task 227: unlimited
  | Current stacksize for task 228: unlimited
  | Current stacksize for task 229: unlimited
  | Current stacksize for task 230: unlimited
  | Current stacksize for task 231: unlimited
  | Current stacksize for task 232: unlimited
  | Current stacksize for task 233: unlimited
  | Current stacksize for task 234: unlimited
  | Current stacksize for task 235: unlimited
  | Current stacksize for task 236: unlimited
  | Current stacksize for task 237: unlimited
  | Current stacksize for task 238: unlimited
  | Current stacksize for task 239: unlimited
  | Current stacksize for task 240: unlimited
  | Current stacksize for task 241: unlimited
  | Current stacksize for task 242: unlimited
  | Current stacksize for task 243: unlimited
  | Current stacksize for task 244: unlimited
  | Current stacksize for task 245: unlimited
  | Current stacksize for task 246: unlimited
  | Current stacksize for task 247: unlimited
  | Current stacksize for task 248: unlimited
  | Current stacksize for task 249: unlimited
  | Current stacksize for task 250: unlimited
  | Current stacksize for task 251: unlimited
  | Current stacksize for task 252: unlimited
  | Current stacksize for task 253: unlimited
  | Current stacksize for task 254: unlimited
  | Current stacksize for task 255: unlimited
 
  Consistency checks for the contents of control.in are next.
 
  MPI_IN_PLACE appears to work with this MPI implementation.
  | Keeping use_mpi_in_place .true. (see manual).
  Target number of points in a grid batch is not set. Defaulting to  100
  Method for grid partitioning is not set. Defaulting to parallel hash+maxmin partitioning.
  Batch size limit is not set. Defaulting to    200
  By default, will store active basis functions for each batch.
  If in need of memory, prune_basis_once .false. can be used to disable this option.
  communication_type for Hartree potential was not specified.
  Defaulting to calc_hartree .
  Defaulting to Pulay charge density mixer.
  Pulay mixer: Number of relevant iterations not set.
  Defaulting to    8 iterations.
  Pulay mixer: Number of initial linear mixing iterations not set.
  Defaulting to    0 iterations.
  Work space size for distributed Hartree potential not set.
  Defaulting to   0.200000E+03 MB.
  Mixing parameter for charge density mixing has not been set.
  Using default: charge_mix_param =     0.0500.
  The mixing parameter will be adjusted in iteration number     2 of each s.c.f. cycle (i.e., each geometry step).
  Algorithm-dependent basis array size parameters:
  | n_max_pulay                         :        8
  Maximum number of self-consistency iterations not provided.
  Presetting  1000 iterations.
  Presetting      1001 iterations before the initial mixing cycle
  is restarted anyway using the sc_init_iter criterion / keyword.
  Presetting a factor      1.000 between actual scf density residual
  and density convergence criterion sc_accuracy_rho below which sc_init_iter
  takes no effect.
  Calculation of forces was not defined in control.in. No forces will be calculated.
  Geometry relaxation not requested: no relaxation will be performed.
  No accuracy limit for integral partition fn. given. Defaulting to  0.1000E-14.
  No threshold value for u(r) in integrations given. Defaulting to  0.1000E-05.
  No occupation type (smearing scheme) given. Defaulting to Gaussian broadening, width =  0.1000E-01 eV.
  The width will be adjusted in iteration number     2 of each s.c.f. cycle (i.e., each geometry step).
  No accuracy for occupation numbers given. Defaulting to  0.1000E-12.
  No threshold value for occupation numbers given. Defaulting to  0.0000E+00.
  No accuracy for fermi level given. Defaulting to  0.1000E-19.
  Maximum # of iterations to find E_F not set. Defaulting to  200.
  Threshold for basis singularities not set.
  Default threshold for basis singularities:  0.1000E-04
  partition_type (choice of integration weights) for integrals was not specified.
  | Using a version of the partition function of Stratmann and coworkers ('stratmann_sparse').
  | At each grid point, the set of atoms used to build the partition table is smoothly restricted to
  | only those atoms whose free-atom density would be non-zero at that grid point.
  Partitioning for Hartree potential was not defined. Using partition_type for integrals.
  | Adjusted default value of keyword multip_moments_threshold to:       0.10000000E-11
  | This value may affect high angular momentum components of the Hartree potential in periodic systems.
  Using 2025 definition of centers list for evaluation of the Stratmann partition function.
  No q(lm)/r^(l+1) cutoff set for long-range Hartree potential.
  | Using default value of  0.100000E-09 .
  | Verify using the multipole_threshold keyword.
  Defaulting to new monopole extrapolation.
  Density update method: automatic selection selected.
  Using density matrix based charge density update.
  Using density matrix based charge density update.
  Using packed matrix style: index .
  Threshold of packed matrixes:  0.000000E+00
  Defaulting to use time-reversal symmetry for k-point grid.
  Charge integration errors on the 3D integration grid will be compensated
  by explicit normalization and distribution of residual charges.
  Use the "compensate_multipole_errors" flag to change this behaviour.
  You have selected one (or more) of: output band; output band_mulliken; output polarization
  output Z2_invariant; and use_spin_texture_scf in your control.in
  Therefore COMPLEX eigenvectors will be used in the calculation.
  Set 'collect_eigenvectors' to be '.true.' for all serial calculations. This is mandatory.
  Set 'collect_eigenvectors' to be '.true.' for KS_method lapack_fast and serial.
  Found potential conflicts with setting 'use_local_index' for this calculation. Will not set it.
 
  Consistency checks for the contents of geometry.in are next.
 

  Range separation radius for Ewald summation (hartree_convergence_parameter):      2.90111125 bohr.
  Number of empty states per atom not set in control.in - providing a guess from actual geometry.
  | Total number of empty states used during s.c.f. cycle:        6
  If you use a very high smearing, use empty_states (per atom!) in control.in to increase this value.

  Structure-dependent array size parameters: 
  | Maximum number of distinct radial functions  :       13
  | Maximum number of basis functions            :       29
  | Number of Kohn-Sham states (occupied + empty):       16
------------------------------------------------------------

  Checking k-grid inconsistencies now:
  | k-point density for reciprocal lattice vector 1 is    0.78 nkpts / Angstrom^-1
  | k-point density for reciprocal lattice vector 2 is    0.78 nkpts / Angstrom^-1
  | k-point density for reciprocal lattice vector 3 is    0.78 nkpts / Angstrom^-1

  | Ratio of k-point densities for reciprocal lattice vectors 1 vs 2 is    1.00
  | Ratio of k-point densities for reciprocal lattice vectors 1 vs 3 is    1.00
  | Ratio of k-point densities for reciprocal lattice vectors 2 vs 3 is    1.00

  * The specified k_grid leads to a nearly homogenous k-grid density in non-vacuum directions,
  * and seems sensible.

  | Checks passed.
  After read_input_data [GB]:    496.19

  Performing system and environment tests:
  | Environment variable OMP_NUM_THREADS correctly set to 1.
  | Checking for ScaLAPACK...
  | Testing pdtran()...
  | All pdtran() tests passed.
  | Testing CPU compatibility for run-time vs. build-time.
  | Reading /proc/cpuinfo for CPU information ...
  | Built for  : AMD EPYC 9554 64-Core Processor
  | Running on : AMD EPYC 9554 64-Core Processor
  | Runtime CPU compatibility verified.
  
  After prepare_system [GB]:    496.04

------------------------------------------------------------
          Preparing all fixed parts of the calculation.
------------------------------------------------------------
  Determining machine precision:
    2.225073858507201E-308
  Setting up grids for atomic and cluster calculations.

  Creating wave function, potential, and density for free atoms.
  Runtime choices for atomic solver:
  | atomic solver xc        : PW-LDA
  | compute density gradient: 0
  | compute kinetic density : F

  Species: Mg

  List of occupied orbitals and eigenvalues:
    n    l              occ      energy [Ha]    energy [eV]
    1    0           2.0000       -46.129861     -1255.2574
    2    0           2.0000        -2.907634       -79.1207
    3    0           2.0000        -0.170951        -4.6518
    2    1           6.0000        -1.710478       -46.5445


  Species: O

  List of occupied orbitals and eigenvalues:
    n    l              occ      energy [Ha]    energy [eV]
    1    0           2.0000       -18.786109      -511.1960
    2    0           2.0000        -0.872635       -23.7456
    2    1           4.0000        -0.337687        -9.1889


  Adding cutoff potential to free-atom effective potential.
  Creating fixed part of basis set: Ionic, confined, hydrogenic.
 
  Mg                   ion:
  Runtime choices for ionic solver:
  | ionic solver xc        : PW-LDA

  List of free ionic orbitals and eigenvalues:
    n    l      energy [Ha]    energy [eV]
    1    0       -46.892989     -1276.0232
    2    0        -3.655333       -99.4667
    2    1        -2.456328       -66.8401


  List of ionic basis orbitals and eigenvalues:
    n    l      energy [Ha]    energy [eV]    outer radius [A]
    3    2        -0.247637        -6.7386       5.100062

 
  Mg                   hydrogenic:
 
  List of hydrogenic basis orbitals: 
    n    l      effective z      eigenvalue [eV]  inner max. [A]     outer max. [A]     outer radius [A]   
    2    1         1.500000        -7.5955           1.395712           1.395712           5.100062
    3    0         2.400000        -8.0111           0.162319           2.734035           5.100062
 
 
  O                    hydrogenic:
 
  List of hydrogenic basis orbitals: 
    n    l      effective z      eigenvalue [eV]  inner max. [A]     outer max. [A]     outer radius [A]   
    2    1         1.800000       -10.9749           1.164242           1.164242           4.578029
    3    2         7.600000       -87.3180           0.624125           0.624125           3.251020
    3    0         6.400000       -61.9207           0.061167           1.081902           4.001998
 
  Creating atomic-like basis functions for current effective potential.

  Species Mg                  :

  List of atomic basis orbitals and eigenvalues:
    n    l      energy [Ha]    energy [eV]    outer radius [A]
    1    0       -46.129861     -1255.2574       0.932375
    2    0        -2.907634       -79.1207       3.621735
    3    0        -0.170951        -4.6518       5.100062
    2    1        -1.710478       -46.5445       4.404175


  Species O                   :

  List of atomic basis orbitals and eigenvalues:
    n    l      energy [Ha]    energy [eV]    outer radius [A]
    1    0       -18.786109      -511.1960       1.433179
    2    0        -0.872635       -23.7456       4.413171
    2    1        -0.337687        -9.1889       4.522403

  Assembling full basis from fixed parts.
  | Species Mg :   atomic orbital   1 s accepted.
  | Species Mg :   atomic orbital   2 s accepted.
  | Species Mg :   atomic orbital   3 s accepted.
  | Species Mg :    hydro orbital   3 s accepted.
  | Species Mg :   atomic orbital   2 p accepted.
  | Species Mg :    hydro orbital   2 p accepted.
  | Species Mg :    ionic orbital   3 d accepted.
  | Species O :   atomic orbital   1 s accepted.
  | Species O :    hydro orbital   3 s accepted.
  | Species O :   atomic orbital   2 s accepted.
  | Species O :   atomic orbital   2 p accepted.
  | Species O :    hydro orbital   2 p accepted.
  | Species O :    hydro orbital   3 d accepted.
 
  Basis size parameters after reduction:
  | Total number of radial functions:       13
  | Total number of basis functions :       29
 
  Per-task memory consumption for arrays in subroutine allocate_ext:
  |           4.441052MB.
  Testing on-site integration grid accuracy.
  |  Species  Function  <phi|h_atom|phi> (log., in eV)  <phi|h_atom|phi> (rad., in eV)
           1        1              -1255.2573828358              -1255.2567939601
           1        2                -79.1207430359                -79.1207405119
           1        3                 -4.6571725871                 -4.6569780729
           1        4                  4.1187689111                  4.1137116114
           1        5                -46.5444712533                -46.5444712057
           1        6                 -0.6243571790                 -0.6243097782
           1        7                  3.8072935088                  3.8058082227
           2        8               -511.1960429777               -511.1959399133
           2        9                 14.8973166466                 14.8974402823
           2       10                -21.2682165807                -21.2682317485
           2       11                 -9.1890598667                 -9.1892026751
           2       12                  8.1915160719                  8.1720639763
           2       13                 45.8005976646                 45.8005620229

  Preparing densities etc. for the partition functions (integrals / Hartree potential).

  Preparations completed.
  max(cpu_time)          :      0.116 s.
  Wall clock time (cpu1) :      0.115 s.
------------------------------------------------------------
  After prepare_scf [GB]:    491.16

  Initializing index lists of integration centers etc. from given atomic structure:
  Mapping all atomic coordinates to central unit cell.

  Initializing the k-points
  Using symmetry for reducing the k-points
  | k-points reduced from:        8 to        8
  | Number of k-points                             :         8
  The eigenvectors in the calculations are COMPLEX.
  | K-points in task   0:         0
  | K-points in task   1:         1
  | K-points in task   2:         1
  | K-points in task   3:         1
  | K-points in task   4:         1
  | K-points in task   5:         1
  | K-points in task   6:         1
  | K-points in task   7:         1
  | K-points in task   8:         1
  | K-points in task   9:         0
  | K-points in task  10:         0
  | K-points in task  11:         0
  | K-points in task  12:         0
  | K-points in task  13:         0
  | K-points in task  14:         0
  | K-points in task  15:         0
  | K-points in task  16:         0
  | K-points in task  17:         0
  | K-points in task  18:         0
  | K-points in task  19:         0
  | K-points in task  20:         0
  | K-points in task  21:         0
  | K-points in task  22:         0
  | K-points in task  23:         0
  | K-points in task  24:         0
  | K-points in task  25:         0
  | K-points in task  26:         0
  | K-points in task  27:         0
  | K-points in task  28:         0
  | K-points in task  29:         0
  | K-points in task  30:         0
  | K-points in task  31:         0
  | K-points in task  32:         0
  | K-points in task  33:         0
  | K-points in task  34:         0
  | K-points in task  35:         0
  | K-points in task  36:         0
  | K-points in task  37:         0
  | K-points in task  38:         0
  | K-points in task  39:         0
  | K-points in task  40:         0
  | K-points in task  41:         0
  | K-points in task  42:         0
  | K-points in task  43:         0
  | K-points in task  44:         0
  | K-points in task  45:         0
  | K-points in task  46:         0
  | K-points in task  47:         0
  | K-points in task  48:         0
  | K-points in task  49:         0
  | K-points in task  50:         0
  | K-points in task  51:         0
  | K-points in task  52:         0
  | K-points in task  53:         0
  | K-points in task  54:         0
  | K-points in task  55:         0
  | K-points in task  56:         0
  | K-points in task  57:         0
  | K-points in task  58:         0
  | K-points in task  59:         0
  | K-points in task  60:         0
  | K-points in task  61:         0
  | K-points in task  62:         0
  | K-points in task  63:         0
  | K-points in task  64:         0
  | K-points in task  65:         0
  | K-points in task  66:         0
  | K-points in task  67:         0
  | K-points in task  68:         0
  | K-points in task  69:         0
  | K-points in task  70:         0
  | K-points in task  71:         0
  | K-points in task  72:         0
  | K-points in task  73:         0
  | K-points in task  74:         0
  | K-points in task  75:         0
  | K-points in task  76:         0
  | K-points in task  77:         0
  | K-points in task  78:         0
  | K-points in task  79:         0
  | K-points in task  80:         0
  | K-points in task  81:         0
  | K-points in task  82:         0
  | K-points in task  83:         0
  | K-points in task  84:         0
  | K-points in task  85:         0
  | K-points in task  86:         0
  | K-points in task  87:         0
  | K-points in task  88:         0
  | K-points in task  89:         0
  | K-points in task  90:         0
  | K-points in task  91:         0
  | K-points in task  92:         0
  | K-points in task  93:         0
  | K-points in task  94:         0
  | K-points in task  95:         0
  | K-points in task  96:         0
  | K-points in task  97:         0
  | K-points in task  98:         0
  | K-points in task  99:         0
  | K-points in task 100:         0
  | K-points in task 101:         0
  | K-points in task 102:         0
  | K-points in task 103:         0
  | K-points in task 104:         0
  | K-points in task 105:         0
  | K-points in task 106:         0
  | K-points in task 107:         0
  | K-points in task 108:         0
  | K-points in task 109:         0
  | K-points in task 110:         0
  | K-points in task 111:         0
  | K-points in task 112:         0
  | K-points in task 113:         0
  | K-points in task 114:         0
  | K-points in task 115:         0
  | K-points in task 116:         0
  | K-points in task 117:         0
  | K-points in task 118:         0
  | K-points in task 119:         0
  | K-points in task 120:         0
  | K-points in task 121:         0
  | K-points in task 122:         0
  | K-points in task 123:         0
  | K-points in task 124:         0
  | K-points in task 125:         0
  | K-points in task 126:         0
  | K-points in task 127:         0
  | K-points in task 128:         0
  | K-points in task 129:         0
  | K-points in task 130:         0
  | K-points in task 131:         0
  | K-points in task 132:         0
  | K-points in task 133:         0
  | K-points in task 134:         0
  | K-points in task 135:         0
  | K-points in task 136:         0
  | K-points in task 137:         0
  | K-points in task 138:         0
  | K-points in task 139:         0
  | K-points in task 140:         0
  | K-points in task 141:         0
  | K-points in task 142:         0
  | K-points in task 143:         0
  | K-points in task 144:         0
  | K-points in task 145:         0
  | K-points in task 146:         0
  | K-points in task 147:         0
  | K-points in task 148:         0
  | K-points in task 149:         0
  | K-points in task 150:         0
  | K-points in task 151:         0
  | K-points in task 152:         0
  | K-points in task 153:         0
  | K-points in task 154:         0
  | K-points in task 155:         0
  | K-points in task 156:         0
  | K-points in task 157:         0
  | K-points in task 158:         0
  | K-points in task 159:         0
  | K-points in task 160:         0
  | K-points in task 161:         0
  | K-points in task 162:         0
  | K-points in task 163:         0
  | K-points in task 164:         0
  | K-points in task 165:         0
  | K-points in task 166:         0
  | K-points in task 167:         0
  | K-points in task 168:         0
  | K-points in task 169:         0
  | K-points in task 170:         0
  | K-points in task 171:         0
  | K-points in task 172:         0
  | K-points in task 173:         0
  | K-points in task 174:         0
  | K-points in task 175:         0
  | K-points in task 176:         0
  | K-points in task 177:         0
  | K-points in task 178:         0
  | K-points in task 179:         0
  | K-points in task 180:         0
  | K-points in task 181:         0
  | K-points in task 182:         0
  | K-points in task 183:         0
  | K-points in task 184:         0
  | K-points in task 185:         0
  | K-points in task 186:         0
  | K-points in task 187:         0
  | K-points in task 188:         0
  | K-points in task 189:         0
  | K-points in task 190:         0
  | K-points in task 191:         0
  | K-points in task 192:         0
  | K-points in task 193:         0
  | K-points in task 194:         0
  | K-points in task 195:         0
  | K-points in task 196:         0
  | K-points in task 197:         0
  | K-points in task 198:         0
  | K-points in task 199:         0
  | K-points in task 200:         0
  | K-points in task 201:         0
  | K-points in task 202:         0
  | K-points in task 203:         0
  | K-points in task 204:         0
  | K-points in task 205:         0
  | K-points in task 206:         0
  | K-points in task 207:         0
  | K-points in task 208:         0
  | K-points in task 209:         0
  | K-points in task 210:         0
  | K-points in task 211:         0
  | K-points in task 212:         0
  | K-points in task 213:         0
  | K-points in task 214:         0
  | K-points in task 215:         0
  | K-points in task 216:         0
  | K-points in task 217:         0
  | K-points in task 218:         0
  | K-points in task 219:         0
  | K-points in task 220:         0
  | K-points in task 221:         0
  | K-points in task 222:         0
  | K-points in task 223:         0
  | K-points in task 224:         0
  | K-points in task 225:         0
  | K-points in task 226:         0
  | K-points in task 227:         0
  | K-points in task 228:         0
  | K-points in task 229:         0
  | K-points in task 230:         0
  | K-points in task 231:         0
  | K-points in task 232:         0
  | K-points in task 233:         0
  | K-points in task 234:         0
  | K-points in task 235:         0
  | K-points in task 236:         0
  | K-points in task 237:         0
  | K-points in task 238:         0
  | K-points in task 239:         0
  | K-points in task 240:         0
  | K-points in task 241:         0
  | K-points in task 242:         0
  | K-points in task 243:         0
  | K-points in task 244:         0
  | K-points in task 245:         0
  | K-points in task 246:         0
  | K-points in task 247:         0
  | K-points in task 248:         0
  | K-points in task 249:         0
  | K-points in task 250:         0
  | K-points in task 251:         0
  | K-points in task 252:         0
  | K-points in task 253:         0
  | K-points in task 254:         0
  | K-points in task 255:         0
  | Number of basis functions in the Hamiltonian integrals       :      1961
  | Number of basis functions in a single unit cell              :        29
  | Number of centers in hartree potential                       :      1097
  | Number of centers in hartree multipole                       :       842
  | Number of centers in electron density summation              :       585
  | Number of centers in basis integrals                         :       633
  | Number of centers in integrals                               :       203
  | Number of centers in hamiltonian                             :       654
  | Number of centers in partition table from touching 0-cell    :       203
  | Number of centers in partition table total                   :       633
  | Consuming         50 KiB for k_phase.
  | Number of super-cells (origin) [n_cells]                     :        2197
  | Number of super-cells (after PM_index) [n_cells]             :         406
  | Number of super-cells in hamiltonian [n_cells_in_hamiltonian]:         406
  | Size of matrix packed + index [n_hamiltonian_matrix_size]    :       71260
  After initialize_bc_dependent_lists [GB]:    491.08

------------------------------------------------------------
          Begin self-consistency loop: Initialization.

          Date     :  20260814, Time     :  171336.874
------------------------------------------------------------
  Available memory per node after initialize_hartree_non_periodic_ewald [GB]:    491.08
  | Estimated reciprocal-space cutoff momentum G_max:         3.26283811 bohr^-1 .
  | Reciprocal lattice points for long-range Hartree potential:      64
  Available memory per node after initialize_recip_hartree_potential [GB]:    491.08
  Available memory per node after initialize_scalapack [GB]:    491.08
  Available memory per node after aims_elsi_init_scf [GB]:    491.08
 ***
 *** Error - the expected file 'D_spin_01_kpt_000001.csc' does not exist.
 *** Error - the expected file 'D_spin_01_kpt_000002.csc' does not exist.
 *** Error - the expected file 'D_spin_01_kpt_000003.csc' does not exist.
 *** Error - the expected file 'D_spin_01_kpt_000004.csc' does not exist.
 *** Error - the expected file 'D_spin_01_kpt_000005.csc' does not exist.
 *** Error - the expected file 'D_spin_01_kpt_000006.csc' does not exist.
 *** Error - the expected file 'D_spin_01_kpt_000007.csc' does not exist.
 *** Error - the expected file 'D_spin_01_kpt_000008.csc' does not exist.
 ***
 *** 8 file(s) expected by 'elsi_restart read' could not be found.
 ***
 *** If you have these files available, copy them to the present working directory.
 *** Otherwise, remove 'elsi_restart read from' your 'control.in'.
 ***
 *** The file(s) needed by 'elsi_restart read' could not be found.
 
 *** The file(s) needed by 'elsi_restart read' could not be found.
 
