2
Lattice="2.94329513 -0.0 -0.0 1.47164756 2.54896835 -0.0 1.47164756 0.84965612 2.40319041" Properties=species:S:1:pos:R:3:displacements:R:3 energy=-7474.03189724634 free_energy=-7474.03189724634 polarization="-3.030241e-09 8.075672e-09 7.788128e-09" REF_dipole="-3.4099953260185945e-09 9.087727271348789e-09 8.764147827989434e-09" pbc="T T T"
Mg       0.00000000       0.00000000       0.00000000       0.00000000       0.00000000       0.00000000
O        2.94329513       1.69931223       1.20159520       0.00000000       0.00000000       0.00000000
2
Lattice="2.94329513 -0.0 -0.0 1.47164756 2.54896835 -0.0 1.47164756 0.84965612 2.40319041" Properties=species:S:1:pos:R:3:displacements:R:3 energy=-7474.03189429254 free_energy=-7474.03189429254 polarization="0.001754669 8.090135e-09 7.801964e-09" REF_dipole="0.0019745667386553475 9.104002796100848e-09 8.779717776165435e-09" pbc="T T T"
Mg       0.00100000       0.00000000       0.00000000       0.00100000       0.00000000       0.00000000
O        2.94329513       1.69931223       1.20159520       0.00000000       0.00000000       0.00000000
2
Lattice="2.94329513 -0.0 -0.0 1.47164756 2.54896835 -0.0 1.47164756 0.84965612 2.40319041" Properties=species:S:1:pos:R:3:displacements:R:3 energy=-7474.03189429249 free_energy=-7474.03189429249 polarization="-0.001754675 8.089359e-09 7.801462e-09" REF_dipole="-0.001974573490584305 9.103129546622347e-09 8.779152864775992e-09" pbc="T T T"
Mg       0.00000000       0.00000000       0.00000000       0.00000000       0.00000000       0.00000000
O        2.94429513       1.69931223       1.20159520       0.00100000       0.00000000       0.00000000
2
Lattice="2.94329513 -0.0 -0.0 1.47164756 2.54896835 -0.0 1.47164756 0.84965612 2.40319041" Properties=species:S:1:pos:R:3:displacements:R:3 energy=-7474.0318942925 free_energy=-7474.0318942925 polarization="-0.001754675 8.089346e-09 7.801414e-09" REF_dipole="-0.0019745734905843053 9.103114917442937e-09 8.779098849344332e-09" pbc="T T T"
Mg      -0.00100000       0.00000000       0.00000000      -0.00100000       0.00000000       0.00000000
O        2.94329513       1.69931223       1.20159520       0.00000000       0.00000000       0.00000000
2
Lattice="2.94329513 -0.0 -0.0 1.47164756 2.54896835 -0.0 1.47164756 0.84965612 2.40319041" Properties=species:S:1:pos:R:3:displacements:R:3 energy=-7474.03189429253 free_energy=-7474.03189429253 polarization="0.001754669 8.090152e-09 7.801973e-09" REF_dipole="0.0019745667386553475 9.10402192656623e-09 8.779727904058872e-09" pbc="T T T"
Mg       0.00000000       0.00000000       0.00000000       0.00000000       0.00000000       0.00000000
O        2.94229513       1.69931223       1.20159520      -0.00100000       0.00000000       0.00000000
