2
Lattice="2.943295128269905 -3.7429183854063043e-16 -8.076237620203459e-16 1.4716475641349525 2.5489683519167152 -7.434590664482464e-17 1.4716475641349527 0.8496561173055716 2.40319040889361" Properties=species:S:1:pos:R:3:forces:R:3 energy=-7474.0323179380275 free_energy=-7474.0323179380275 stress="4.933212941038424e-05 1.1652605682655284e-12 -1.1153855887114207e-11 1.1652605682655284e-12 1.2353681964290296e-05 5.8933313775601686e-05 -1.1153855887114207e-11 5.8933313775601686e-05 -6.168671460466706e-05" pbc="T T T"
Mg       0.00000000       0.00000000       0.00000000       0.00000000       0.00000000      -0.00000000
O        2.94329513       1.69931223       1.20159520      -0.00000000      -0.00000000       0.00000000
