------------------------------------------------------------
          Invoking FHI-aims ...

          When using FHI-aims, please cite the following reference:

            Volker Blum, Ralf Gehrke, Felix Hanke, Paula Havu,
            Ville Havu, Xinguo Ren, Karsten Reuter, and Matthias Scheffler,
            'Ab Initio Molecular Simulations with Numeric Atom-Centered Orbitals',
            Computer Physics Communications 180, 2175-2196 (2009)

          In addition, many other developments in FHI-aims are likely important for
          your particular application. If so, please cite them. A partial list of references
          is written at the end of this file. Thank you for giving credit to the authors
          of these developments.

          For general information about FHI-aims please find us at

            https://fhi-aims.org

          Online tutorials can be found at

            https://fhi-aims-club.gitlab.io/tutorials/tutorials-overview/

          For any questions about FHI-aims, please visit our slack channel at

            https://fhi-aims.slack.com

          and our main development and support site at

            https://aims-git.rz-berlin.mpg.de .

          The latter site, in particular, has a wiki to collect information, as well
          as an issue tracker to log discussions, suggest improvements, and report issues
          or bugs. https://aims-git.rz-berlin.mpg.de is also the main development site
          of the project and all new and updated code versions can be obtained there.
          Please send an email to aims-coordinators@ms1p.org and we will add
          you to these sites. They are for you and everyone is welcome there.

------------------------------------------------------------



  Date     :  20260819, Time     :  150403.355
  Time zero on CPU 1             :   0.219579000000000E+00  s.
  Internal wall clock time zero  :           556383843.355  s.

  FHI-aims created a unique identifier for this run for later identification
  aims_uuid : 59DF570C-04C2-4697-AEC2-AA7B992ED08E

  Build configuration of the current instance of FHI-aims
  -------------------------------------------------------
  FHI-aims version      : 260527
  Commit number         : 59e070fb4
  CMake host system     : Linux-5.14.0-570.103.1.el9_6.x86_64
  CMake version         : 3.26.5
  OS Distribution       : Red Hat Enterprise Linux 9.6 (Plow)
  Built on              : AMD EPYC 9554 64-Core Processor
  Fortran compiler      : /mpcdf/soft/RHEL_9/packages/x86_64/intel_oneapi/2024.0/mpi/2021.11/bin/mpiifort (Intel) version 2021.1.0.20231117
  Fortran compiler flags: -O3 -ip -fp-model precise -diag-disable=10448
  C compiler            : /mpcdf/soft/RHEL_9/packages/x86_64/intel/2024.0.2/bin/icx (IntelLLVM) version 2024.0.2
  C compiler flags      : -O3 -std=gnu99
  C++ compiler          : /mpcdf/soft/RHEL_9/packages/x86_64/intel/2024.0.2/bin/icpx (IntelLLVM) version 2024.0.2
  C++ compiler flags    : -O3 -std=c++14
  HIP compiler          :
  HIP compiler flags    :
  HIP GPU arch          :
  Using MPI
  Using ScaLAPACK
  Using LibXC
  Using i-PI
  Using RLSY
  Using GREENX
  Linking against: /mpcdf/soft/RHEL_9/packages/x86_64/intel_oneapi/2024.0/mkl/latest/lib/libmkl_intel_lp64.so
                   /mpcdf/soft/RHEL_9/packages/x86_64/intel_oneapi/2024.0/mkl/latest/lib/libmkl_sequential.so
                   /mpcdf/soft/RHEL_9/packages/x86_64/intel_oneapi/2024.0/mkl/latest/lib/libmkl_core.so
                   /mpcdf/soft/RHEL_9/packages/x86_64/intel_oneapi/2024.0/mkl/latest/lib/libmkl_blacs_intelmpi_lp64.so
                   /mpcdf/soft/RHEL_9/packages/x86_64/intel_oneapi/2024.0/mkl/latest/lib/libmkl_scalapack_lp64.so

  Using      512 parallel tasks.
  Task        0 on host vipc2510 reporting.
  Task        1 on host vipc2510 reporting.
  Task        2 on host vipc2510 reporting.
  Task        3 on host vipc2510 reporting.
  Task        4 on host vipc2510 reporting.
  Task        5 on host vipc2510 reporting.
  Task        6 on host vipc2510 reporting.
  Task        7 on host vipc2510 reporting.
  Task        8 on host vipc2510 reporting.
  Task        9 on host vipc2510 reporting.
  Task       10 on host vipc2510 reporting.
  Task       11 on host vipc2510 reporting.
  Task       12 on host vipc2510 reporting.
  Task       13 on host vipc2510 reporting.
  Task       14 on host vipc2510 reporting.
  Task       15 on host vipc2510 reporting.
  Task       16 on host vipc2510 reporting.
  Task       17 on host vipc2510 reporting.
  Task       18 on host vipc2510 reporting.
  Task       19 on host vipc2510 reporting.
  Task       20 on host vipc2510 reporting.
  Task       21 on host vipc2510 reporting.
  Task       22 on host vipc2510 reporting.
  Task       23 on host vipc2510 reporting.
  Task       24 on host vipc2510 reporting.
  Task       25 on host vipc2510 reporting.
  Task       26 on host vipc2510 reporting.
  Task       27 on host vipc2510 reporting.
  Task       28 on host vipc2510 reporting.
  Task       29 on host vipc2510 reporting.
  Task       30 on host vipc2510 reporting.
  Task       31 on host vipc2510 reporting.
  Task       32 on host vipc2510 reporting.
  Task       33 on host vipc2510 reporting.
  Task       34 on host vipc2510 reporting.
  Task       35 on host vipc2510 reporting.
  Task       36 on host vipc2510 reporting.
  Task       37 on host vipc2510 reporting.
  Task       38 on host vipc2510 reporting.
  Task       39 on host vipc2510 reporting.
  Task       40 on host vipc2510 reporting.
  Task       41 on host vipc2510 reporting.
  Task       42 on host vipc2510 reporting.
  Task       43 on host vipc2510 reporting.
  Task       44 on host vipc2510 reporting.
  Task       45 on host vipc2510 reporting.
  Task       46 on host vipc2510 reporting.
  Task       47 on host vipc2510 reporting.
  Task       48 on host vipc2510 reporting.
  Task       49 on host vipc2510 reporting.
  Task       50 on host vipc2510 reporting.
  Task       51 on host vipc2510 reporting.
  Task       52 on host vipc2510 reporting.
  Task       53 on host vipc2510 reporting.
  Task       54 on host vipc2510 reporting.
  Task       55 on host vipc2510 reporting.
  Task       56 on host vipc2510 reporting.
  Task       57 on host vipc2510 reporting.
  Task       58 on host vipc2510 reporting.
  Task       59 on host vipc2510 reporting.
  Task       60 on host vipc2510 reporting.
  Task       61 on host vipc2510 reporting.
  Task       62 on host vipc2510 reporting.
  Task       63 on host vipc2510 reporting.
  Task       64 on host vipc2510 reporting.
  Task       65 on host vipc2510 reporting.
  Task       66 on host vipc2510 reporting.
  Task       67 on host vipc2510 reporting.
  Task       68 on host vipc2510 reporting.
  Task       69 on host vipc2510 reporting.
  Task       70 on host vipc2510 reporting.
  Task       71 on host vipc2510 reporting.
  Task       72 on host vipc2510 reporting.
  Task       73 on host vipc2510 reporting.
  Task       74 on host vipc2510 reporting.
  Task       75 on host vipc2510 reporting.
  Task       76 on host vipc2510 reporting.
  Task       77 on host vipc2510 reporting.
  Task       78 on host vipc2510 reporting.
  Task       79 on host vipc2510 reporting.
  Task       80 on host vipc2510 reporting.
  Task       81 on host vipc2510 reporting.
  Task       82 on host vipc2510 reporting.
  Task       83 on host vipc2510 reporting.
  Task       84 on host vipc2510 reporting.
  Task       85 on host vipc2510 reporting.
  Task       86 on host vipc2510 reporting.
  Task       87 on host vipc2510 reporting.
  Task       88 on host vipc2510 reporting.
  Task       89 on host vipc2510 reporting.
  Task       90 on host vipc2510 reporting.
  Task       91 on host vipc2510 reporting.
  Task       92 on host vipc2510 reporting.
  Task       93 on host vipc2510 reporting.
  Task       94 on host vipc2510 reporting.
  Task       95 on host vipc2510 reporting.
  Task       96 on host vipc2510 reporting.
  Task       97 on host vipc2510 reporting.
  Task       98 on host vipc2510 reporting.
  Task       99 on host vipc2510 reporting.
  Task      100 on host vipc2510 reporting.
  Task      101 on host vipc2510 reporting.
  Task      102 on host vipc2510 reporting.
  Task      103 on host vipc2510 reporting.
  Task      104 on host vipc2510 reporting.
  Task      105 on host vipc2510 reporting.
  Task      106 on host vipc2510 reporting.
  Task      107 on host vipc2510 reporting.
  Task      108 on host vipc2510 reporting.
  Task      109 on host vipc2510 reporting.
  Task      110 on host vipc2510 reporting.
  Task      111 on host vipc2510 reporting.
  Task      112 on host vipc2510 reporting.
  Task      113 on host vipc2510 reporting.
  Task      114 on host vipc2510 reporting.
  Task      115 on host vipc2510 reporting.
  Task      116 on host vipc2510 reporting.
  Task      117 on host vipc2510 reporting.
  Task      118 on host vipc2510 reporting.
  Task      119 on host vipc2510 reporting.
  Task      120 on host vipc2510 reporting.
  Task      121 on host vipc2510 reporting.
  Task      122 on host vipc2510 reporting.
  Task      123 on host vipc2510 reporting.
  Task      124 on host vipc2510 reporting.
  Task      125 on host vipc2510 reporting.
  Task      126 on host vipc2510 reporting.
  Task      127 on host vipc2510 reporting.
  Task      128 on host vipc2517 reporting.
  Task      129 on host vipc2517 reporting.
  Task      130 on host vipc2517 reporting.
  Task      131 on host vipc2517 reporting.
  Task      132 on host vipc2517 reporting.
  Task      133 on host vipc2517 reporting.
  Task      134 on host vipc2517 reporting.
  Task      135 on host vipc2517 reporting.
  Task      136 on host vipc2517 reporting.
  Task      137 on host vipc2517 reporting.
  Task      138 on host vipc2517 reporting.
  Task      139 on host vipc2517 reporting.
  Task      140 on host vipc2517 reporting.
  Task      141 on host vipc2517 reporting.
  Task      142 on host vipc2517 reporting.
  Task      143 on host vipc2517 reporting.
  Task      144 on host vipc2517 reporting.
  Task      145 on host vipc2517 reporting.
  Task      146 on host vipc2517 reporting.
  Task      147 on host vipc2517 reporting.
  Task      148 on host vipc2517 reporting.
  Task      149 on host vipc2517 reporting.
  Task      150 on host vipc2517 reporting.
  Task      151 on host vipc2517 reporting.
  Task      152 on host vipc2517 reporting.
  Task      153 on host vipc2517 reporting.
  Task      154 on host vipc2517 reporting.
  Task      155 on host vipc2517 reporting.
  Task      156 on host vipc2517 reporting.
  Task      157 on host vipc2517 reporting.
  Task      158 on host vipc2517 reporting.
  Task      159 on host vipc2517 reporting.
  Task      160 on host vipc2517 reporting.
  Task      161 on host vipc2517 reporting.
  Task      162 on host vipc2517 reporting.
  Task      163 on host vipc2517 reporting.
  Task      164 on host vipc2517 reporting.
  Task      165 on host vipc2517 reporting.
  Task      166 on host vipc2517 reporting.
  Task      167 on host vipc2517 reporting.
  Task      168 on host vipc2517 reporting.
  Task      169 on host vipc2517 reporting.
  Task      170 on host vipc2517 reporting.
  Task      171 on host vipc2517 reporting.
  Task      172 on host vipc2517 reporting.
  Task      173 on host vipc2517 reporting.
  Task      174 on host vipc2517 reporting.
  Task      175 on host vipc2517 reporting.
  Task      176 on host vipc2517 reporting.
  Task      177 on host vipc2517 reporting.
  Task      178 on host vipc2517 reporting.
  Task      179 on host vipc2517 reporting.
  Task      180 on host vipc2517 reporting.
  Task      181 on host vipc2517 reporting.
  Task      182 on host vipc2517 reporting.
  Task      183 on host vipc2517 reporting.
  Task      184 on host vipc2517 reporting.
  Task      185 on host vipc2517 reporting.
  Task      186 on host vipc2517 reporting.
  Task      187 on host vipc2517 reporting.
  Task      188 on host vipc2517 reporting.
  Task      189 on host vipc2517 reporting.
  Task      190 on host vipc2517 reporting.
  Task      191 on host vipc2517 reporting.
  Task      192 on host vipc2517 reporting.
  Task      193 on host vipc2517 reporting.
  Task      194 on host vipc2517 reporting.
  Task      195 on host vipc2517 reporting.
  Task      196 on host vipc2517 reporting.
  Task      197 on host vipc2517 reporting.
  Task      198 on host vipc2517 reporting.
  Task      199 on host vipc2517 reporting.
  Task      200 on host vipc2517 reporting.
  Task      201 on host vipc2517 reporting.
  Task      202 on host vipc2517 reporting.
  Task      203 on host vipc2517 reporting.
  Task      204 on host vipc2517 reporting.
  Task      205 on host vipc2517 reporting.
  Task      206 on host vipc2517 reporting.
  Task      207 on host vipc2517 reporting.
  Task      208 on host vipc2517 reporting.
  Task      209 on host vipc2517 reporting.
  Task      210 on host vipc2517 reporting.
  Task      211 on host vipc2517 reporting.
  Task      212 on host vipc2517 reporting.
  Task      213 on host vipc2517 reporting.
  Task      214 on host vipc2517 reporting.
  Task      215 on host vipc2517 reporting.
  Task      216 on host vipc2517 reporting.
  Task      217 on host vipc2517 reporting.
  Task      218 on host vipc2517 reporting.
  Task      219 on host vipc2517 reporting.
  Task      220 on host vipc2517 reporting.
  Task      221 on host vipc2517 reporting.
  Task      222 on host vipc2517 reporting.
  Task      223 on host vipc2517 reporting.
  Task      224 on host vipc2517 reporting.
  Task      225 on host vipc2517 reporting.
  Task      226 on host vipc2517 reporting.
  Task      227 on host vipc2517 reporting.
  Task      228 on host vipc2517 reporting.
  Task      229 on host vipc2517 reporting.
  Task      230 on host vipc2517 reporting.
  Task      231 on host vipc2517 reporting.
  Task      232 on host vipc2517 reporting.
  Task      233 on host vipc2517 reporting.
  Task      234 on host vipc2517 reporting.
  Task      235 on host vipc2517 reporting.
  Task      236 on host vipc2517 reporting.
  Task      237 on host vipc2517 reporting.
  Task      238 on host vipc2517 reporting.
  Task      239 on host vipc2517 reporting.
  Task      240 on host vipc2517 reporting.
  Task      241 on host vipc2517 reporting.
  Task      242 on host vipc2517 reporting.
  Task      243 on host vipc2517 reporting.
  Task      244 on host vipc2517 reporting.
  Task      245 on host vipc2517 reporting.
  Task      246 on host vipc2517 reporting.
  Task      247 on host vipc2517 reporting.
  Task      248 on host vipc2517 reporting.
  Task      249 on host vipc2517 reporting.
  Task      250 on host vipc2517 reporting.
  Task      251 on host vipc2517 reporting.
  Task      252 on host vipc2517 reporting.
  Task      253 on host vipc2517 reporting.
  Task      254 on host vipc2517 reporting.
  Task      255 on host vipc2517 reporting.
  Task      256 on host vipc2520 reporting.
  Task      257 on host vipc2520 reporting.
  Task      258 on host vipc2520 reporting.
  Task      259 on host vipc2520 reporting.
  Task      260 on host vipc2520 reporting.
  Task      261 on host vipc2520 reporting.
  Task      262 on host vipc2520 reporting.
  Task      263 on host vipc2520 reporting.
  Task      264 on host vipc2520 reporting.
  Task      265 on host vipc2520 reporting.
  Task      266 on host vipc2520 reporting.
  Task      267 on host vipc2520 reporting.
  Task      268 on host vipc2520 reporting.
  Task      269 on host vipc2520 reporting.
  Task      270 on host vipc2520 reporting.
  Task      271 on host vipc2520 reporting.
  Task      272 on host vipc2520 reporting.
  Task      273 on host vipc2520 reporting.
  Task      274 on host vipc2520 reporting.
  Task      275 on host vipc2520 reporting.
  Task      276 on host vipc2520 reporting.
  Task      277 on host vipc2520 reporting.
  Task      278 on host vipc2520 reporting.
  Task      279 on host vipc2520 reporting.
  Task      280 on host vipc2520 reporting.
  Task      281 on host vipc2520 reporting.
  Task      282 on host vipc2520 reporting.
  Task      283 on host vipc2520 reporting.
  Task      284 on host vipc2520 reporting.
  Task      285 on host vipc2520 reporting.
  Task      286 on host vipc2520 reporting.
  Task      287 on host vipc2520 reporting.
  Task      288 on host vipc2520 reporting.
  Task      289 on host vipc2520 reporting.
  Task      290 on host vipc2520 reporting.
  Task      291 on host vipc2520 reporting.
  Task      292 on host vipc2520 reporting.
  Task      293 on host vipc2520 reporting.
  Task      294 on host vipc2520 reporting.
  Task      295 on host vipc2520 reporting.
  Task      296 on host vipc2520 reporting.
  Task      297 on host vipc2520 reporting.
  Task      298 on host vipc2520 reporting.
  Task      299 on host vipc2520 reporting.
  Task      300 on host vipc2520 reporting.
  Task      301 on host vipc2520 reporting.
  Task      302 on host vipc2520 reporting.
  Task      303 on host vipc2520 reporting.
  Task      304 on host vipc2520 reporting.
  Task      305 on host vipc2520 reporting.
  Task      306 on host vipc2520 reporting.
  Task      307 on host vipc2520 reporting.
  Task      308 on host vipc2520 reporting.
  Task      309 on host vipc2520 reporting.
  Task      310 on host vipc2520 reporting.
  Task      311 on host vipc2520 reporting.
  Task      312 on host vipc2520 reporting.
  Task      313 on host vipc2520 reporting.
  Task      314 on host vipc2520 reporting.
  Task      315 on host vipc2520 reporting.
  Task      316 on host vipc2520 reporting.
  Task      317 on host vipc2520 reporting.
  Task      318 on host vipc2520 reporting.
  Task      319 on host vipc2520 reporting.
  Task      320 on host vipc2520 reporting.
  Task      321 on host vipc2520 reporting.
  Task      322 on host vipc2520 reporting.
  Task      323 on host vipc2520 reporting.
  Task      324 on host vipc2520 reporting.
  Task      325 on host vipc2520 reporting.
  Task      326 on host vipc2520 reporting.
  Task      327 on host vipc2520 reporting.
  Task      328 on host vipc2520 reporting.
  Task      329 on host vipc2520 reporting.
  Task      330 on host vipc2520 reporting.
  Task      331 on host vipc2520 reporting.
  Task      332 on host vipc2520 reporting.
  Task      333 on host vipc2520 reporting.
  Task      334 on host vipc2520 reporting.
  Task      335 on host vipc2520 reporting.
  Task      336 on host vipc2520 reporting.
  Task      337 on host vipc2520 reporting.
  Task      338 on host vipc2520 reporting.
  Task      339 on host vipc2520 reporting.
  Task      340 on host vipc2520 reporting.
  Task      341 on host vipc2520 reporting.
  Task      342 on host vipc2520 reporting.
  Task      343 on host vipc2520 reporting.
  Task      344 on host vipc2520 reporting.
  Task      345 on host vipc2520 reporting.
  Task      346 on host vipc2520 reporting.
  Task      347 on host vipc2520 reporting.
  Task      348 on host vipc2520 reporting.
  Task      349 on host vipc2520 reporting.
  Task      350 on host vipc2520 reporting.
  Task      351 on host vipc2520 reporting.
  Task      352 on host vipc2520 reporting.
  Task      353 on host vipc2520 reporting.
  Task      354 on host vipc2520 reporting.
  Task      355 on host vipc2520 reporting.
  Task      356 on host vipc2520 reporting.
  Task      357 on host vipc2520 reporting.
  Task      358 on host vipc2520 reporting.
  Task      359 on host vipc2520 reporting.
  Task      360 on host vipc2520 reporting.
  Task      361 on host vipc2520 reporting.
  Task      362 on host vipc2520 reporting.
  Task      363 on host vipc2520 reporting.
  Task      364 on host vipc2520 reporting.
  Task      365 on host vipc2520 reporting.
  Task      366 on host vipc2520 reporting.
  Task      367 on host vipc2520 reporting.
  Task      368 on host vipc2520 reporting.
  Task      369 on host vipc2520 reporting.
  Task      370 on host vipc2520 reporting.
  Task      371 on host vipc2520 reporting.
  Task      372 on host vipc2520 reporting.
  Task      373 on host vipc2520 reporting.
  Task      374 on host vipc2520 reporting.
  Task      375 on host vipc2520 reporting.
  Task      376 on host vipc2520 reporting.
  Task      377 on host vipc2520 reporting.
  Task      378 on host vipc2520 reporting.
  Task      379 on host vipc2520 reporting.
  Task      380 on host vipc2520 reporting.
  Task      381 on host vipc2520 reporting.
  Task      382 on host vipc2520 reporting.
  Task      383 on host vipc2520 reporting.
  Task      384 on host vipc2522 reporting.
  Task      385 on host vipc2522 reporting.
  Task      386 on host vipc2522 reporting.
  Task      387 on host vipc2522 reporting.
  Task      388 on host vipc2522 reporting.
  Task      389 on host vipc2522 reporting.
  Task      390 on host vipc2522 reporting.
  Task      391 on host vipc2522 reporting.
  Task      392 on host vipc2522 reporting.
  Task      393 on host vipc2522 reporting.
  Task      394 on host vipc2522 reporting.
  Task      395 on host vipc2522 reporting.
  Task      396 on host vipc2522 reporting.
  Task      397 on host vipc2522 reporting.
  Task      398 on host vipc2522 reporting.
  Task      399 on host vipc2522 reporting.
  Task      400 on host vipc2522 reporting.
  Task      401 on host vipc2522 reporting.
  Task      402 on host vipc2522 reporting.
  Task      403 on host vipc2522 reporting.
  Task      404 on host vipc2522 reporting.
  Task      405 on host vipc2522 reporting.
  Task      406 on host vipc2522 reporting.
  Task      407 on host vipc2522 reporting.
  Task      408 on host vipc2522 reporting.
  Task      409 on host vipc2522 reporting.
  Task      410 on host vipc2522 reporting.
  Task      411 on host vipc2522 reporting.
  Task      412 on host vipc2522 reporting.
  Task      413 on host vipc2522 reporting.
  Task      414 on host vipc2522 reporting.
  Task      415 on host vipc2522 reporting.
  Task      416 on host vipc2522 reporting.
  Task      417 on host vipc2522 reporting.
  Task      418 on host vipc2522 reporting.
  Task      419 on host vipc2522 reporting.
  Task      420 on host vipc2522 reporting.
  Task      421 on host vipc2522 reporting.
  Task      422 on host vipc2522 reporting.
  Task      423 on host vipc2522 reporting.
  Task      424 on host vipc2522 reporting.
  Task      425 on host vipc2522 reporting.
  Task      426 on host vipc2522 reporting.
  Task      427 on host vipc2522 reporting.
  Task      428 on host vipc2522 reporting.
  Task      429 on host vipc2522 reporting.
  Task      430 on host vipc2522 reporting.
  Task      431 on host vipc2522 reporting.
  Task      432 on host vipc2522 reporting.
  Task      433 on host vipc2522 reporting.
  Task      434 on host vipc2522 reporting.
  Task      435 on host vipc2522 reporting.
  Task      436 on host vipc2522 reporting.
  Task      437 on host vipc2522 reporting.
  Task      438 on host vipc2522 reporting.
  Task      439 on host vipc2522 reporting.
  Task      440 on host vipc2522 reporting.
  Task      441 on host vipc2522 reporting.
  Task      442 on host vipc2522 reporting.
  Task      443 on host vipc2522 reporting.
  Task      444 on host vipc2522 reporting.
  Task      445 on host vipc2522 reporting.
  Task      446 on host vipc2522 reporting.
  Task      447 on host vipc2522 reporting.
  Task      448 on host vipc2522 reporting.
  Task      449 on host vipc2522 reporting.
  Task      450 on host vipc2522 reporting.
  Task      451 on host vipc2522 reporting.
  Task      452 on host vipc2522 reporting.
  Task      453 on host vipc2522 reporting.
  Task      454 on host vipc2522 reporting.
  Task      455 on host vipc2522 reporting.
  Task      456 on host vipc2522 reporting.
  Task      457 on host vipc2522 reporting.
  Task      458 on host vipc2522 reporting.
  Task      459 on host vipc2522 reporting.
  Task      460 on host vipc2522 reporting.
  Task      461 on host vipc2522 reporting.
  Task      462 on host vipc2522 reporting.
  Task      463 on host vipc2522 reporting.
  Task      464 on host vipc2522 reporting.
  Task      465 on host vipc2522 reporting.
  Task      466 on host vipc2522 reporting.
  Task      467 on host vipc2522 reporting.
  Task      468 on host vipc2522 reporting.
  Task      469 on host vipc2522 reporting.
  Task      470 on host vipc2522 reporting.
  Task      471 on host vipc2522 reporting.
  Task      472 on host vipc2522 reporting.
  Task      473 on host vipc2522 reporting.
  Task      474 on host vipc2522 reporting.
  Task      475 on host vipc2522 reporting.
  Task      476 on host vipc2522 reporting.
  Task      477 on host vipc2522 reporting.
  Task      478 on host vipc2522 reporting.
  Task      479 on host vipc2522 reporting.
  Task      480 on host vipc2522 reporting.
  Task      481 on host vipc2522 reporting.
  Task      482 on host vipc2522 reporting.
  Task      483 on host vipc2522 reporting.
  Task      484 on host vipc2522 reporting.
  Task      485 on host vipc2522 reporting.
  Task      486 on host vipc2522 reporting.
  Task      487 on host vipc2522 reporting.
  Task      488 on host vipc2522 reporting.
  Task      489 on host vipc2522 reporting.
  Task      490 on host vipc2522 reporting.
  Task      491 on host vipc2522 reporting.
  Task      492 on host vipc2522 reporting.
  Task      493 on host vipc2522 reporting.
  Task      494 on host vipc2522 reporting.
  Task      495 on host vipc2522 reporting.
  Task      496 on host vipc2522 reporting.
  Task      497 on host vipc2522 reporting.
  Task      498 on host vipc2522 reporting.
  Task      499 on host vipc2522 reporting.
  Task      500 on host vipc2522 reporting.
  Task      501 on host vipc2522 reporting.
  Task      502 on host vipc2522 reporting.
  Task      503 on host vipc2522 reporting.
  Task      504 on host vipc2522 reporting.
  Task      505 on host vipc2522 reporting.
  Task      506 on host vipc2522 reporting.
  Task      507 on host vipc2522 reporting.
  Task      508 on host vipc2522 reporting.
  Task      509 on host vipc2522 reporting.
  Task      510 on host vipc2522 reporting.
  Task      511 on host vipc2522 reporting.

  Obtaining array dimensions for all initial allocations:
  
  -----------------------------------------------------------------------
  Parsing control.in (first pass over file, find array dimensions only).
  The contents of control.in will be repeated verbatim below
  unless switched off by setting 'verbatim_writeout .false.' .
  in the first line of control.in .
  -----------------------------------------------------------------------
  
  xc                           pw-lda
  relativistic                 atomic_zora scalar
  spin                         none
  k_grid                       4 8 8
  sc_accuracy_rho              1d-2
  elsi_restart                 read
  KS_method                    parallel
  
  
  ################################################################################
  #
  #  FHI-aims code project
  #  VB, Fritz-Haber Institut, 2009
  #
  #  Suggested "light" defaults for Mg atom (to be pasted into control.in file)
  #  Be sure to double-check any results obtained with these settings for post-processing,
  #  e.g., with the "tight" defaults and larger basis sets.
  #
  ################################################################################
    species        Mg
  #     global species definitions
      nucleus             12
      mass                24.3050
  #
      l_hartree           4
  #
      cut_pot             4.0          1.5  1.0
      basis_dep_cutoff    1e-4
  #
      radial_base         40 5.5
      radial_multiplier   1
      angular_grids       specified
        division   0.7029   50
        division   0.9689  110
        division   1.1879  194
        division   1.3129  302
  #      division   1.4867  434
  #      division   1.6018  590
  #      division   1.8611  770
  #      division   1.9576  974
  #      division   2.2261 1202
  #      outer_grid   974
        outer_grid   302
  ################################################################################
  #
  #  Definition of "minimal" basis
  #
  ################################################################################
  #     valence basis states
      valence      3  s   2.
      valence      2  p   6.
  #     ion occupancy
      ion_occ      2  s   2.
      ion_occ      2  p   6.
  ################################################################################
  #
  #  Suggested additional basis functions. For production calculations,
  #  uncomment them one after another (the most important basis functions are
  #  listed first).
  #
  #  Constructed for dimers: 2.125 A, 2.375 A, 2.875 A, 3.375 A, 4.5 A
  #
  ################################################################################
  #  "First tier" - improvements: -230.76 meV to -21.94 meV
       hydro 2 p 1.5
       ionic 3 d auto
       hydro 3 s 2.4
  #  "Second tier" - improvements: -5.43 meV to -1.64 meV
  #     hydro 4 f 4.3
  #     hydro 2 p 3.4
  #     hydro 4 s 11.2
  #     hydro 3 d 6.2
  #  "Third tier" - improvements: -0.92 meV to -0.22 meV
  #     hydro 2 s 0.6
  #     hydro 3 p 4.8
  #     hydro 4 f 7.4
  #     hydro 5 g 6.6
  #     hydro 2 p 1.6
  #     hydro 3 d 1.8
  #  "Fourth tier" - improvements: -0.09 meV to -0.05 meV
  #     hydro 4 p 0.45
  #     hydro 5 g 10.4
  #     hydro 2 s 12.4
  #     hydro 4 d 1.7
  ################################################################################
  #
  #  FHI-aims code project
  #  VB, Fritz-Haber Institut, 2009
  #
  #  Suggested "light" defaults for O atom (to be pasted into control.in file)
  #  Be sure to double-check any results obtained with these settings for post-processing,
  #  e.g., with the "tight" defaults and larger basis sets.
  #
  ################################################################################
    species        O
  #     global species definitions
      nucleus             8
      mass                15.9994
  #
      l_hartree           4
  #
      cut_pot             3.5  1.5  1.0
      basis_dep_cutoff    1e-4
  #
      radial_base         36 5.0
      radial_multiplier   1
       angular_grids specified
        division   0.2659   50
        division   0.4451  110
        division   0.6052  194
        division   0.7543  302
  #      division   0.8014  434
  #      division   0.8507  590
  #      division   0.8762  770
  #      division   0.9023  974
  #      division   1.2339 1202
  #      outer_grid 974
        outer_grid 302
  ################################################################################
  #
  #  Definition of "minimal" basis
  #
  ################################################################################
  #     valence basis states
      valence      2  s   2.
      valence      2  p   4.
  #     ion occupancy
      ion_occ      2  s   1.
      ion_occ      2  p   3.
  ################################################################################
  #
  #  Suggested additional basis functions. For production calculations,
  #  uncomment them one after another (the most important basis functions are
  #  listed first).
  #
  #  Constructed for dimers: 1.0 A, 1.208 A, 1.5 A, 2.0 A, 3.0 A
  #
  ################################################################################
  #  "First tier" - improvements: -699.05 meV to -159.38 meV
       hydro 2 p 1.8
       hydro 3 d 7.6
       hydro 3 s 6.4
  #  "Second tier" - improvements: -49.91 meV to -5.39 meV
  #     hydro 4 f 11.6
  #     hydro 3 p 6.2
  #     hydro 3 d 5.6
  #     hydro 5 g 17.6
  #     hydro 1 s 0.75
  #  "Third tier" - improvements: -2.83 meV to -0.50 meV
  #     ionic 2 p auto
  #     hydro 4 f 10.8
  #     hydro 4 d 4.7
  #     hydro 2 s 6.8
  #  "Fourth tier" - improvements: -0.40 meV to -0.12 meV
  #     hydro 3 p 5
  #     hydro 3 s 3.3
  #     hydro 5 g 15.6
  #     hydro 4 f 17.6
  #     hydro 4 d 14
  # Further basis functions - -0.08 meV and below
  #     hydro 3 s 2.1
  #     hydro 4 d 11.6
  #     hydro 3 p 16
  #     hydro 2 s 17.2
  
  -----------------------------------------------------------------------
  Completed first pass over input file control.in .
  -----------------------------------------------------------------------
  
  
  -----------------------------------------------------------------------
  Parsing geometry.in (first pass over file, find array dimensions only).
  The contents of geometry.in will be repeated verbatim below
  unless switched off by setting 'verbatim_writeout .false.' .
  in the first line of geometry.in .
  -----------------------------------------------------------------------
  
  #===============================================================================
  # Created using the Atomic Simulation Environment (ASE)
  
  # Wed Aug 19 13:51:46 2026
  
  #=======================================================
  lattice_vector 11.9384055699233880 0.0000000000000000 0.0000000000000000
  lattice_vector 2.9846014991816490 5.1694825070639610 0.0000000000000000
  lattice_vector 2.9846014989497176 1.7231622624901628 4.8738343434763252
  atom_frac  0.000250000000  0.000000000000  0.000000000000 Mg
  atom_frac  0.250250000000  0.000000000000  0.000000000000 Mg
  atom_frac  0.500250000000  0.000000000000  0.000000000000 Mg
  atom_frac  0.750250000000  0.000000000000  0.000000000000 Mg
  atom_frac  0.000250000000  0.500000000000  0.000000000000 Mg
  atom_frac  0.250250000000  0.500000000000  0.000000000000 Mg
  atom_frac  0.500250000000  0.500000000000  0.000000000000 Mg
  atom_frac  0.750250000000  0.500000000000  0.000000000000 Mg
  atom_frac  0.000250000000  0.000000000000  0.500000000000 Mg
  atom_frac  0.250250000000  0.000000000000  0.500000000000 Mg
  atom_frac  0.500250000000  0.000000000000  0.500000000000 Mg
  atom_frac  0.750250000000  0.000000000000  0.500000000000 Mg
  atom_frac  0.000250000000  0.500000000000  0.500000000000 Mg
  atom_frac  0.250250000000  0.500000000000  0.500000000000 Mg
  atom_frac  0.500250000000  0.500000000000  0.500000000000 Mg
  atom_frac  0.750250000000  0.500000000000  0.500000000000 Mg
  atom_frac  0.125000000000  0.250000000000  0.250000000000 O
  atom_frac  0.375000000000  0.250000000000  0.250000000000 O
  atom_frac  0.625000000000  0.250000000000  0.250000000000 O
  atom_frac  0.875000000000  0.250000000000  0.250000000000 O
  atom_frac  0.125000000000  0.750000000000  0.250000000000 O
  atom_frac  0.375000000000  0.750000000000  0.250000000000 O
  atom_frac  0.625000000000  0.750000000000  0.250000000000 O
  atom_frac  0.875000000000  0.750000000000  0.250000000000 O
  atom_frac  0.125000000000  0.250000000000  0.750000000000 O
  atom_frac  0.375000000000  0.250000000000  0.750000000000 O
  atom_frac  0.625000000000  0.250000000000  0.750000000000 O
  atom_frac  0.875000000000  0.250000000000  0.750000000000 O
  atom_frac  0.125000000000  0.750000000000  0.750000000000 O
  atom_frac  0.375000000000  0.750000000000  0.750000000000 O
  atom_frac  0.625000000000  0.750000000000  0.750000000000 O
  atom_frac  0.875000000000  0.750000000000  0.750000000000 O
  
  -----------------------------------------------------------------------
  Completed first pass over input file geometry.in .
  -----------------------------------------------------------------------
  

  Basic array size parameters:
  | Number of species                 :        2
  | Number of atoms                   :       32
  | Number of lattice vectors         :        3
  | Max. basis fn. angular momentum   :        2
  | Max. atomic/ionic basis occupied n:        3
  | Max. number of basis fn. types    :        3
  | Max. radial fns per species/type  :        4
  | Max. logarithmic grid size        :     1334
  | Max. radial integration grid size :       40
  | Max. angular integration grid size:      302
  | Max. angular grid division number :        8
  | Radial grid for Hartree potential :     1334
  | Number of spin channels           :        1

  Definition of standardized fundamental physical constants in this FHI-aims run:
  | Using the set of values used in FHI-aims up to 2024, which combines values from
  | different CODATA sets - see constants.f90.
  | Use the 'codata' keyword in control.in to change this selection.

  Memory overcommitment is allowed on your operating system.

------------------------------------------------------------
          Reading file control.in.
------------------------------------------------------------
  XC: Using Perdew-Wang parametrisation of Ceperley-Alder LDA.
  Scalar relativistic treatment of kinetic energy: on-site free-atom approximation to ZORA.
  Spin treatment: No spin polarisation.
  Found k-point grid:         4         8         8
  Convergence accuracy of self-consistent charge density:  0.1000E-01
  Using elsi_restart infrastructure.
  Restarting calculation from saved density matrices.
  Kohn-Sham electronic structure solved by the ELSI library.
 
  Reading configuration options for species Mg                  .
  | Found nuclear charge :  12.0000
  | Found atomic mass :    24.3050000000000      amu
  | Found l_max for Hartree potential  :   4
  | Found cutoff potl. onset [A], width [A], scale factor :    4.00000    1.50000    1.00000
  | Threshold for basis-dependent cutoff potential is   0.100000E-03
  | Found data for basic radial integration grid :    40 points, outermost radius =    5.500 A
  | Found multiplier for basic radial grid :   1
  | Found angular grid specification: user-specified.
  | Specified grid contains     5 separate shells.
  | Check grid settings after all constraints further below.
  | Found free-atom valence shell :  3 s   2.000
  | Found free-atom valence shell :  2 p   6.000
  | Found free-ion valence shell :  2 s   2.000
  | Found free-ion valence shell :  2 p   6.000
  | Found hydrogenic basis function :  2 p   1.500
  | Found ionic basis function :  3 d , default cutoff radius.
  | Found hydrogenic basis function :  3 s   2.400
 | Encountered keyword species, ending the description of species Mg                  .
  Species Mg                  : Missing cutoff potential type.
  Defaulting to exp(1/x)/(1-x)^2 type cutoff potential.
  Species Mg: No 'logarithmic' tag. Using default grid for free atom:
  | Default logarithmic grid data [bohr] : 0.1000E-03 0.1000E+03 0.1012E+01
  | Will include ionic basis functions of  2.0-fold positive Mg                   ion.
  Species Mg: On-site basis accuracy parameter (for Gram-Schmidt orthonormalisation) not specified.
  Using default value basis_acc =  0.1000000E-03.
  Species Mg                  : Using default innermost maximum threshold i_radial=  2 for radial functions.
  Species Mg                  : Default cutoff onset for free atom density etc. : 0.40000000E+01 AA.
  Species Mg                  : Basic radial grid will be enhanced according to radial_multiplier =   1, to contain    40 grid points.
 
  Reading configuration options for species O                   .
  | Found nuclear charge :   8.0000
  | Found atomic mass :    15.9994000000000      amu
  | Found l_max for Hartree potential  :   4
  | Found cutoff potl. onset [A], width [A], scale factor :    3.50000    1.50000    1.00000
  | Threshold for basis-dependent cutoff potential is   0.100000E-03
  | Found data for basic radial integration grid :    36 points, outermost radius =    5.000 A
  | Found multiplier for basic radial grid :   1
  | Found angular grid specification: user-specified.
  | Specified grid contains     5 separate shells.
  | Check grid settings after all constraints further below.
  | Found free-atom valence shell :  2 s   2.000
  | Found free-atom valence shell :  2 p   4.000
  | Found free-ion valence shell :  2 s   1.000
  | Found free-ion valence shell :  2 p   3.000
  | Found hydrogenic basis function :  2 p   1.800
  | Found hydrogenic basis function :  3 d   7.600
  | Found hydrogenic basis function :  3 s   6.400
  Species O                   : Missing cutoff potential type.
  Defaulting to exp(1/x)/(1-x)^2 type cutoff potential.
  Species O : No 'logarithmic' tag. Using default grid for free atom:
  | Default logarithmic grid data [bohr] : 0.1000E-03 0.1000E+03 0.1012E+01
  Species O : On-site basis accuracy parameter (for Gram-Schmidt orthonormalisation) not specified.
  Using default value basis_acc =  0.1000000E-03.
  Species O                   : Using default innermost maximum threshold i_radial=  2 for radial functions.
  Species O                   : Default cutoff onset for free atom density etc. : 0.35000000E+01 AA.
  Species O                   : Basic radial grid will be enhanced according to radial_multiplier =   1, to contain    36 grid points.
 
  Finished reading input file 'control.in'.
 
------------------------------------------------------------


------------------------------------------------------------
          Reading geometry description geometry.in.
------------------------------------------------------------
  | The smallest distance between any two atoms is         2.10832255 AA.
  | The first atom of this pair is atom number                     29 .
  | The second atom of this pair is atom number                     9 .
  | Wigner-Seitz cell of the first atom image           0     0     1 .
  | (The Wigner-Seitz cell of the second atom is 0 0 0  by definition.)

  Symmetry information by spglib:
  | Precision set to  0.1E-04
  | Number of Operations  : 32
  | Space group           : 44
  | International         : Imm2    Dv
  | Schoenflies           : C2v^20
  Input structure read successfully.
  The structure contains       32 atoms,  and a total of        320.000 electrons.

  Input geometry:
  | Unit cell:
  |       11.93840557        0.00000000        0.00000000
  |        2.98460150        5.16948251        0.00000000
  |        2.98460150        1.72316226        4.87383434
  | Atomic structure:
  |       Atom                x [A]            y [A]            z [A]
  |    1: Species Mg            0.00298460        0.00000000        0.00000000
  |    2: Species Mg            2.98758599        0.00000000        0.00000000
  |    3: Species Mg            5.97218739        0.00000000        0.00000000
  |    4: Species Mg            8.95678878        0.00000000        0.00000000
  |    5: Species Mg            1.49528535        2.58474125        0.00000000
  |    6: Species Mg            4.47988674        2.58474125        0.00000000
  |    7: Species Mg            7.46448814        2.58474125        0.00000000
  |    8: Species Mg           10.44908953        2.58474125        0.00000000
  |    9: Species Mg            1.49528535        0.86158113        2.43691717
  |   10: Species Mg            4.47988674        0.86158113        2.43691717
  |   11: Species Mg            7.46448814        0.86158113        2.43691717
  |   12: Species Mg           10.44908953        0.86158113        2.43691717
  |   13: Species Mg            2.98758610        3.44632238        2.43691717
  |   14: Species Mg            5.97218749        3.44632238        2.43691717
  |   15: Species Mg            8.95678889        3.44632238        2.43691717
  |   16: Species Mg           11.94139028        3.44632238        2.43691717
  |   17: Species O             2.98460145        1.72316119        1.21845859
  |   18: Species O             5.96920284        1.72316119        1.21845859
  |   19: Species O             8.95380423        1.72316119        1.21845859
  |   20: Species O            11.93840562        1.72316119        1.21845859
  |   21: Species O             4.47690220        4.30790245        1.21845859
  |   22: Species O             7.46150359        4.30790245        1.21845859
  |   23: Species O            10.44610498        4.30790245        1.21845859
  |   24: Species O            13.43070637        4.30790245        1.21845859
  |   25: Species O             4.47690220        2.58474232        3.65537576
  |   26: Species O             7.46150359        2.58474232        3.65537576
  |   27: Species O            10.44610498        2.58474232        3.65537576
  |   28: Species O            13.43070637        2.58474232        3.65537576
  |   29: Species O             5.96920294        5.16948358        3.65537576
  |   30: Species O             8.95380434        5.16948358        3.65537576
  |   31: Species O            11.93840573        5.16948358        3.65537576
  |   32: Species O            14.92300712        5.16948358        3.65537576

  Lattice parameters for 3D lattice (in Angstroms) :    11.938406    5.969204    5.969204
  Angle(s) between unit vectors (in degrees)       :    59.999990   60.000005   60.000005


  Quantities derived from the lattice vectors (in Angstrom^-1):
  | Reciprocal lattice vector 1:  0.526300 -0.303860 -0.214861
  | Reciprocal lattice vector 2: -0.000000  1.215438 -0.429723
  | Reciprocal lattice vector 3: -0.000000  0.000000  1.289167
  | Unit cell volume                               :   0.300791E+03  Angstrom^3

  Fractional coordinates:
                         L1                L2                L3
       atom_frac         0.00025000       -0.00000000       -0.00000000  Mg
       atom_frac         0.25025000       -0.00000000       -0.00000000  Mg
       atom_frac         0.50025000       -0.00000000       -0.00000000  Mg
       atom_frac         0.75025000       -0.00000000       -0.00000000  Mg
       atom_frac         0.00025000        0.50000000       -0.00000000  Mg
       atom_frac         0.25025000        0.50000000       -0.00000000  Mg
       atom_frac         0.50025000        0.50000000       -0.00000000  Mg
       atom_frac         0.75025000        0.50000000       -0.00000000  Mg
       atom_frac         0.00025000        0.00000000        0.50000000  Mg
       atom_frac         0.25025000        0.00000000        0.50000000  Mg
       atom_frac         0.50025000        0.00000000        0.50000000  Mg
       atom_frac         0.75025000        0.00000000        0.50000000  Mg
       atom_frac         0.00025000        0.50000000        0.50000000  Mg
       atom_frac         0.25025000        0.50000000        0.50000000  Mg
       atom_frac         0.50025000        0.50000000        0.50000000  Mg
       atom_frac         0.75025000        0.50000000        0.50000000  Mg
       atom_frac         0.12500000        0.25000000        0.25000000  O
       atom_frac         0.37500000        0.25000000        0.25000000  O
       atom_frac         0.62500000        0.25000000        0.25000000  O
       atom_frac         0.87500000        0.25000000        0.25000000  O
       atom_frac         0.12500000        0.75000000        0.25000000  O
       atom_frac         0.37500000        0.75000000        0.25000000  O
       atom_frac         0.62500000        0.75000000        0.25000000  O
       atom_frac         0.87500000        0.75000000        0.25000000  O
       atom_frac         0.12500000        0.25000000        0.75000000  O
       atom_frac         0.37500000        0.25000000        0.75000000  O
       atom_frac         0.62500000        0.25000000        0.75000000  O
       atom_frac         0.87500000        0.25000000        0.75000000  O
       atom_frac         0.12500000        0.75000000        0.75000000  O
       atom_frac         0.37500000        0.75000000        0.75000000  O
       atom_frac         0.62500000        0.75000000        0.75000000  O
       atom_frac         0.87500000        0.75000000        0.75000000  O

  Slab Identifier: This seems to be a bulk system.
 
  Finished reading input file 'geometry.in'.
 

 
  Consistency checks for stacksize environment parameter are next.
 
  | Maximum stacksize for task 0: unlimited
  | Maximum stacksize for task 1: unlimited
  | Maximum stacksize for task 2: unlimited
  | Maximum stacksize for task 3: unlimited
  | Maximum stacksize for task 4: unlimited
  | Maximum stacksize for task 5: unlimited
  | Maximum stacksize for task 6: unlimited
  | Maximum stacksize for task 7: unlimited
  | Maximum stacksize for task 8: unlimited
  | Maximum stacksize for task 9: unlimited
  | Maximum stacksize for task 10: unlimited
  | Maximum stacksize for task 11: unlimited
  | Maximum stacksize for task 12: unlimited
  | Maximum stacksize for task 13: unlimited
  | Maximum stacksize for task 14: unlimited
  | Maximum stacksize for task 15: unlimited
  | Maximum stacksize for task 16: unlimited
  | Maximum stacksize for task 17: unlimited
  | Maximum stacksize for task 18: unlimited
  | Maximum stacksize for task 19: unlimited
  | Maximum stacksize for task 20: unlimited
  | Maximum stacksize for task 21: unlimited
  | Maximum stacksize for task 22: unlimited
  | Maximum stacksize for task 23: unlimited
  | Maximum stacksize for task 24: unlimited
  | Maximum stacksize for task 25: unlimited
  | Maximum stacksize for task 26: unlimited
  | Maximum stacksize for task 27: unlimited
  | Maximum stacksize for task 28: unlimited
  | Maximum stacksize for task 29: unlimited
  | Maximum stacksize for task 30: unlimited
  | Maximum stacksize for task 31: unlimited
  | Maximum stacksize for task 32: unlimited
  | Maximum stacksize for task 33: unlimited
  | Maximum stacksize for task 34: unlimited
  | Maximum stacksize for task 35: unlimited
  | Maximum stacksize for task 36: unlimited
  | Maximum stacksize for task 37: unlimited
  | Maximum stacksize for task 38: unlimited
  | Maximum stacksize for task 39: unlimited
  | Maximum stacksize for task 40: unlimited
  | Maximum stacksize for task 41: unlimited
  | Maximum stacksize for task 42: unlimited
  | Maximum stacksize for task 43: unlimited
  | Maximum stacksize for task 44: unlimited
  | Maximum stacksize for task 45: unlimited
  | Maximum stacksize for task 46: unlimited
  | Maximum stacksize for task 47: unlimited
  | Maximum stacksize for task 48: unlimited
  | Maximum stacksize for task 49: unlimited
  | Maximum stacksize for task 50: unlimited
  | Maximum stacksize for task 51: unlimited
  | Maximum stacksize for task 52: unlimited
  | Maximum stacksize for task 53: unlimited
  | Maximum stacksize for task 54: unlimited
  | Maximum stacksize for task 55: unlimited
  | Maximum stacksize for task 56: unlimited
  | Maximum stacksize for task 57: unlimited
  | Maximum stacksize for task 58: unlimited
  | Maximum stacksize for task 59: unlimited
  | Maximum stacksize for task 60: unlimited
  | Maximum stacksize for task 61: unlimited
  | Maximum stacksize for task 62: unlimited
  | Maximum stacksize for task 63: unlimited
  | Maximum stacksize for task 64: unlimited
  | Maximum stacksize for task 65: unlimited
  | Maximum stacksize for task 66: unlimited
  | Maximum stacksize for task 67: unlimited
  | Maximum stacksize for task 68: unlimited
  | Maximum stacksize for task 69: unlimited
  | Maximum stacksize for task 70: unlimited
  | Maximum stacksize for task 71: unlimited
  | Maximum stacksize for task 72: unlimited
  | Maximum stacksize for task 73: unlimited
  | Maximum stacksize for task 74: unlimited
  | Maximum stacksize for task 75: unlimited
  | Maximum stacksize for task 76: unlimited
  | Maximum stacksize for task 77: unlimited
  | Maximum stacksize for task 78: unlimited
  | Maximum stacksize for task 79: unlimited
  | Maximum stacksize for task 80: unlimited
  | Maximum stacksize for task 81: unlimited
  | Maximum stacksize for task 82: unlimited
  | Maximum stacksize for task 83: unlimited
  | Maximum stacksize for task 84: unlimited
  | Maximum stacksize for task 85: unlimited
  | Maximum stacksize for task 86: unlimited
  | Maximum stacksize for task 87: unlimited
  | Maximum stacksize for task 88: unlimited
  | Maximum stacksize for task 89: unlimited
  | Maximum stacksize for task 90: unlimited
  | Maximum stacksize for task 91: unlimited
  | Maximum stacksize for task 92: unlimited
  | Maximum stacksize for task 93: unlimited
  | Maximum stacksize for task 94: unlimited
  | Maximum stacksize for task 95: unlimited
  | Maximum stacksize for task 96: unlimited
  | Maximum stacksize for task 97: unlimited
  | Maximum stacksize for task 98: unlimited
  | Maximum stacksize for task 99: unlimited
  | Maximum stacksize for task 100: unlimited
  | Maximum stacksize for task 101: unlimited
  | Maximum stacksize for task 102: unlimited
  | Maximum stacksize for task 103: unlimited
  | Maximum stacksize for task 104: unlimited
  | Maximum stacksize for task 105: unlimited
  | Maximum stacksize for task 106: unlimited
  | Maximum stacksize for task 107: unlimited
  | Maximum stacksize for task 108: unlimited
  | Maximum stacksize for task 109: unlimited
  | Maximum stacksize for task 110: unlimited
  | Maximum stacksize for task 111: unlimited
  | Maximum stacksize for task 112: unlimited
  | Maximum stacksize for task 113: unlimited
  | Maximum stacksize for task 114: unlimited
  | Maximum stacksize for task 115: unlimited
  | Maximum stacksize for task 116: unlimited
  | Maximum stacksize for task 117: unlimited
  | Maximum stacksize for task 118: unlimited
  | Maximum stacksize for task 119: unlimited
  | Maximum stacksize for task 120: unlimited
  | Maximum stacksize for task 121: unlimited
  | Maximum stacksize for task 122: unlimited
  | Maximum stacksize for task 123: unlimited
  | Maximum stacksize for task 124: unlimited
  | Maximum stacksize for task 125: unlimited
  | Maximum stacksize for task 126: unlimited
  | Maximum stacksize for task 127: unlimited
  | Maximum stacksize for task 128: unlimited
  | Maximum stacksize for task 129: unlimited
  | Maximum stacksize for task 130: unlimited
  | Maximum stacksize for task 131: unlimited
  | Maximum stacksize for task 132: unlimited
  | Maximum stacksize for task 133: unlimited
  | Maximum stacksize for task 134: unlimited
  | Maximum stacksize for task 135: unlimited
  | Maximum stacksize for task 136: unlimited
  | Maximum stacksize for task 137: unlimited
  | Maximum stacksize for task 138: unlimited
  | Maximum stacksize for task 139: unlimited
  | Maximum stacksize for task 140: unlimited
  | Maximum stacksize for task 141: unlimited
  | Maximum stacksize for task 142: unlimited
  | Maximum stacksize for task 143: unlimited
  | Maximum stacksize for task 144: unlimited
  | Maximum stacksize for task 145: unlimited
  | Maximum stacksize for task 146: unlimited
  | Maximum stacksize for task 147: unlimited
  | Maximum stacksize for task 148: unlimited
  | Maximum stacksize for task 149: unlimited
  | Maximum stacksize for task 150: unlimited
  | Maximum stacksize for task 151: unlimited
  | Maximum stacksize for task 152: unlimited
  | Maximum stacksize for task 153: unlimited
  | Maximum stacksize for task 154: unlimited
  | Maximum stacksize for task 155: unlimited
  | Maximum stacksize for task 156: unlimited
  | Maximum stacksize for task 157: unlimited
  | Maximum stacksize for task 158: unlimited
  | Maximum stacksize for task 159: unlimited
  | Maximum stacksize for task 160: unlimited
  | Maximum stacksize for task 161: unlimited
  | Maximum stacksize for task 162: unlimited
  | Maximum stacksize for task 163: unlimited
  | Maximum stacksize for task 164: unlimited
  | Maximum stacksize for task 165: unlimited
  | Maximum stacksize for task 166: unlimited
  | Maximum stacksize for task 167: unlimited
  | Maximum stacksize for task 168: unlimited
  | Maximum stacksize for task 169: unlimited
  | Maximum stacksize for task 170: unlimited
  | Maximum stacksize for task 171: unlimited
  | Maximum stacksize for task 172: unlimited
  | Maximum stacksize for task 173: unlimited
  | Maximum stacksize for task 174: unlimited
  | Maximum stacksize for task 175: unlimited
  | Maximum stacksize for task 176: unlimited
  | Maximum stacksize for task 177: unlimited
  | Maximum stacksize for task 178: unlimited
  | Maximum stacksize for task 179: unlimited
  | Maximum stacksize for task 180: unlimited
  | Maximum stacksize for task 181: unlimited
  | Maximum stacksize for task 182: unlimited
  | Maximum stacksize for task 183: unlimited
  | Maximum stacksize for task 184: unlimited
  | Maximum stacksize for task 185: unlimited
  | Maximum stacksize for task 186: unlimited
  | Maximum stacksize for task 187: unlimited
  | Maximum stacksize for task 188: unlimited
  | Maximum stacksize for task 189: unlimited
  | Maximum stacksize for task 190: unlimited
  | Maximum stacksize for task 191: unlimited
  | Maximum stacksize for task 192: unlimited
  | Maximum stacksize for task 193: unlimited
  | Maximum stacksize for task 194: unlimited
  | Maximum stacksize for task 195: unlimited
  | Maximum stacksize for task 196: unlimited
  | Maximum stacksize for task 197: unlimited
  | Maximum stacksize for task 198: unlimited
  | Maximum stacksize for task 199: unlimited
  | Maximum stacksize for task 200: unlimited
  | Maximum stacksize for task 201: unlimited
  | Maximum stacksize for task 202: unlimited
  | Maximum stacksize for task 203: unlimited
  | Maximum stacksize for task 204: unlimited
  | Maximum stacksize for task 205: unlimited
  | Maximum stacksize for task 206: unlimited
  | Maximum stacksize for task 207: unlimited
  | Maximum stacksize for task 208: unlimited
  | Maximum stacksize for task 209: unlimited
  | Maximum stacksize for task 210: unlimited
  | Maximum stacksize for task 211: unlimited
  | Maximum stacksize for task 212: unlimited
  | Maximum stacksize for task 213: unlimited
  | Maximum stacksize for task 214: unlimited
  | Maximum stacksize for task 215: unlimited
  | Maximum stacksize for task 216: unlimited
  | Maximum stacksize for task 217: unlimited
  | Maximum stacksize for task 218: unlimited
  | Maximum stacksize for task 219: unlimited
  | Maximum stacksize for task 220: unlimited
  | Maximum stacksize for task 221: unlimited
  | Maximum stacksize for task 222: unlimited
  | Maximum stacksize for task 223: unlimited
  | Maximum stacksize for task 224: unlimited
  | Maximum stacksize for task 225: unlimited
  | Maximum stacksize for task 226: unlimited
  | Maximum stacksize for task 227: unlimited
  | Maximum stacksize for task 228: unlimited
  | Maximum stacksize for task 229: unlimited
  | Maximum stacksize for task 230: unlimited
  | Maximum stacksize for task 231: unlimited
  | Maximum stacksize for task 232: unlimited
  | Maximum stacksize for task 233: unlimited
  | Maximum stacksize for task 234: unlimited
  | Maximum stacksize for task 235: unlimited
  | Maximum stacksize for task 236: unlimited
  | Maximum stacksize for task 237: unlimited
  | Maximum stacksize for task 238: unlimited
  | Maximum stacksize for task 239: unlimited
  | Maximum stacksize for task 240: unlimited
  | Maximum stacksize for task 241: unlimited
  | Maximum stacksize for task 242: unlimited
  | Maximum stacksize for task 243: unlimited
  | Maximum stacksize for task 244: unlimited
  | Maximum stacksize for task 245: unlimited
  | Maximum stacksize for task 246: unlimited
  | Maximum stacksize for task 247: unlimited
  | Maximum stacksize for task 248: unlimited
  | Maximum stacksize for task 249: unlimited
  | Maximum stacksize for task 250: unlimited
  | Maximum stacksize for task 251: unlimited
  | Maximum stacksize for task 252: unlimited
  | Maximum stacksize for task 253: unlimited
  | Maximum stacksize for task 254: unlimited
  | Maximum stacksize for task 255: unlimited
  | Maximum stacksize for task 256: unlimited
  | Maximum stacksize for task 257: unlimited
  | Maximum stacksize for task 258: unlimited
  | Maximum stacksize for task 259: unlimited
  | Maximum stacksize for task 260: unlimited
  | Maximum stacksize for task 261: unlimited
  | Maximum stacksize for task 262: unlimited
  | Maximum stacksize for task 263: unlimited
  | Maximum stacksize for task 264: unlimited
  | Maximum stacksize for task 265: unlimited
  | Maximum stacksize for task 266: unlimited
  | Maximum stacksize for task 267: unlimited
  | Maximum stacksize for task 268: unlimited
  | Maximum stacksize for task 269: unlimited
  | Maximum stacksize for task 270: unlimited
  | Maximum stacksize for task 271: unlimited
  | Maximum stacksize for task 272: unlimited
  | Maximum stacksize for task 273: unlimited
  | Maximum stacksize for task 274: unlimited
  | Maximum stacksize for task 275: unlimited
  | Maximum stacksize for task 276: unlimited
  | Maximum stacksize for task 277: unlimited
  | Maximum stacksize for task 278: unlimited
  | Maximum stacksize for task 279: unlimited
  | Maximum stacksize for task 280: unlimited
  | Maximum stacksize for task 281: unlimited
  | Maximum stacksize for task 282: unlimited
  | Maximum stacksize for task 283: unlimited
  | Maximum stacksize for task 284: unlimited
  | Maximum stacksize for task 285: unlimited
  | Maximum stacksize for task 286: unlimited
  | Maximum stacksize for task 287: unlimited
  | Maximum stacksize for task 288: unlimited
  | Maximum stacksize for task 289: unlimited
  | Maximum stacksize for task 290: unlimited
  | Maximum stacksize for task 291: unlimited
  | Maximum stacksize for task 292: unlimited
  | Maximum stacksize for task 293: unlimited
  | Maximum stacksize for task 294: unlimited
  | Maximum stacksize for task 295: unlimited
  | Maximum stacksize for task 296: unlimited
  | Maximum stacksize for task 297: unlimited
  | Maximum stacksize for task 298: unlimited
  | Maximum stacksize for task 299: unlimited
  | Maximum stacksize for task 300: unlimited
  | Maximum stacksize for task 301: unlimited
  | Maximum stacksize for task 302: unlimited
  | Maximum stacksize for task 303: unlimited
  | Maximum stacksize for task 304: unlimited
  | Maximum stacksize for task 305: unlimited
  | Maximum stacksize for task 306: unlimited
  | Maximum stacksize for task 307: unlimited
  | Maximum stacksize for task 308: unlimited
  | Maximum stacksize for task 309: unlimited
  | Maximum stacksize for task 310: unlimited
  | Maximum stacksize for task 311: unlimited
  | Maximum stacksize for task 312: unlimited
  | Maximum stacksize for task 313: unlimited
  | Maximum stacksize for task 314: unlimited
  | Maximum stacksize for task 315: unlimited
  | Maximum stacksize for task 316: unlimited
  | Maximum stacksize for task 317: unlimited
  | Maximum stacksize for task 318: unlimited
  | Maximum stacksize for task 319: unlimited
  | Maximum stacksize for task 320: unlimited
  | Maximum stacksize for task 321: unlimited
  | Maximum stacksize for task 322: unlimited
  | Maximum stacksize for task 323: unlimited
  | Maximum stacksize for task 324: unlimited
  | Maximum stacksize for task 325: unlimited
  | Maximum stacksize for task 326: unlimited
  | Maximum stacksize for task 327: unlimited
  | Maximum stacksize for task 328: unlimited
  | Maximum stacksize for task 329: unlimited
  | Maximum stacksize for task 330: unlimited
  | Maximum stacksize for task 331: unlimited
  | Maximum stacksize for task 332: unlimited
  | Maximum stacksize for task 333: unlimited
  | Maximum stacksize for task 334: unlimited
  | Maximum stacksize for task 335: unlimited
  | Maximum stacksize for task 336: unlimited
  | Maximum stacksize for task 337: unlimited
  | Maximum stacksize for task 338: unlimited
  | Maximum stacksize for task 339: unlimited
  | Maximum stacksize for task 340: unlimited
  | Maximum stacksize for task 341: unlimited
  | Maximum stacksize for task 342: unlimited
  | Maximum stacksize for task 343: unlimited
  | Maximum stacksize for task 344: unlimited
  | Maximum stacksize for task 345: unlimited
  | Maximum stacksize for task 346: unlimited
  | Maximum stacksize for task 347: unlimited
  | Maximum stacksize for task 348: unlimited
  | Maximum stacksize for task 349: unlimited
  | Maximum stacksize for task 350: unlimited
  | Maximum stacksize for task 351: unlimited
  | Maximum stacksize for task 352: unlimited
  | Maximum stacksize for task 353: unlimited
  | Maximum stacksize for task 354: unlimited
  | Maximum stacksize for task 355: unlimited
  | Maximum stacksize for task 356: unlimited
  | Maximum stacksize for task 357: unlimited
  | Maximum stacksize for task 358: unlimited
  | Maximum stacksize for task 359: unlimited
  | Maximum stacksize for task 360: unlimited
  | Maximum stacksize for task 361: unlimited
  | Maximum stacksize for task 362: unlimited
  | Maximum stacksize for task 363: unlimited
  | Maximum stacksize for task 364: unlimited
  | Maximum stacksize for task 365: unlimited
  | Maximum stacksize for task 366: unlimited
  | Maximum stacksize for task 367: unlimited
  | Maximum stacksize for task 368: unlimited
  | Maximum stacksize for task 369: unlimited
  | Maximum stacksize for task 370: unlimited
  | Maximum stacksize for task 371: unlimited
  | Maximum stacksize for task 372: unlimited
  | Maximum stacksize for task 373: unlimited
  | Maximum stacksize for task 374: unlimited
  | Maximum stacksize for task 375: unlimited
  | Maximum stacksize for task 376: unlimited
  | Maximum stacksize for task 377: unlimited
  | Maximum stacksize for task 378: unlimited
  | Maximum stacksize for task 379: unlimited
  | Maximum stacksize for task 380: unlimited
  | Maximum stacksize for task 381: unlimited
  | Maximum stacksize for task 382: unlimited
  | Maximum stacksize for task 383: unlimited
  | Maximum stacksize for task 384: unlimited
  | Maximum stacksize for task 385: unlimited
  | Maximum stacksize for task 386: unlimited
  | Maximum stacksize for task 387: unlimited
  | Maximum stacksize for task 388: unlimited
  | Maximum stacksize for task 389: unlimited
  | Maximum stacksize for task 390: unlimited
  | Maximum stacksize for task 391: unlimited
  | Maximum stacksize for task 392: unlimited
  | Maximum stacksize for task 393: unlimited
  | Maximum stacksize for task 394: unlimited
  | Maximum stacksize for task 395: unlimited
  | Maximum stacksize for task 396: unlimited
  | Maximum stacksize for task 397: unlimited
  | Maximum stacksize for task 398: unlimited
  | Maximum stacksize for task 399: unlimited
  | Maximum stacksize for task 400: unlimited
  | Maximum stacksize for task 401: unlimited
  | Maximum stacksize for task 402: unlimited
  | Maximum stacksize for task 403: unlimited
  | Maximum stacksize for task 404: unlimited
  | Maximum stacksize for task 405: unlimited
  | Maximum stacksize for task 406: unlimited
  | Maximum stacksize for task 407: unlimited
  | Maximum stacksize for task 408: unlimited
  | Maximum stacksize for task 409: unlimited
  | Maximum stacksize for task 410: unlimited
  | Maximum stacksize for task 411: unlimited
  | Maximum stacksize for task 412: unlimited
  | Maximum stacksize for task 413: unlimited
  | Maximum stacksize for task 414: unlimited
  | Maximum stacksize for task 415: unlimited
  | Maximum stacksize for task 416: unlimited
  | Maximum stacksize for task 417: unlimited
  | Maximum stacksize for task 418: unlimited
  | Maximum stacksize for task 419: unlimited
  | Maximum stacksize for task 420: unlimited
  | Maximum stacksize for task 421: unlimited
  | Maximum stacksize for task 422: unlimited
  | Maximum stacksize for task 423: unlimited
  | Maximum stacksize for task 424: unlimited
  | Maximum stacksize for task 425: unlimited
  | Maximum stacksize for task 426: unlimited
  | Maximum stacksize for task 427: unlimited
  | Maximum stacksize for task 428: unlimited
  | Maximum stacksize for task 429: unlimited
  | Maximum stacksize for task 430: unlimited
  | Maximum stacksize for task 431: unlimited
  | Maximum stacksize for task 432: unlimited
  | Maximum stacksize for task 433: unlimited
  | Maximum stacksize for task 434: unlimited
  | Maximum stacksize for task 435: unlimited
  | Maximum stacksize for task 436: unlimited
  | Maximum stacksize for task 437: unlimited
  | Maximum stacksize for task 438: unlimited
  | Maximum stacksize for task 439: unlimited
  | Maximum stacksize for task 440: unlimited
  | Maximum stacksize for task 441: unlimited
  | Maximum stacksize for task 442: unlimited
  | Maximum stacksize for task 443: unlimited
  | Maximum stacksize for task 444: unlimited
  | Maximum stacksize for task 445: unlimited
  | Maximum stacksize for task 446: unlimited
  | Maximum stacksize for task 447: unlimited
  | Maximum stacksize for task 448: unlimited
  | Maximum stacksize for task 449: unlimited
  | Maximum stacksize for task 450: unlimited
  | Maximum stacksize for task 451: unlimited
  | Maximum stacksize for task 452: unlimited
  | Maximum stacksize for task 453: unlimited
  | Maximum stacksize for task 454: unlimited
  | Maximum stacksize for task 455: unlimited
  | Maximum stacksize for task 456: unlimited
  | Maximum stacksize for task 457: unlimited
  | Maximum stacksize for task 458: unlimited
  | Maximum stacksize for task 459: unlimited
  | Maximum stacksize for task 460: unlimited
  | Maximum stacksize for task 461: unlimited
  | Maximum stacksize for task 462: unlimited
  | Maximum stacksize for task 463: unlimited
  | Maximum stacksize for task 464: unlimited
  | Maximum stacksize for task 465: unlimited
  | Maximum stacksize for task 466: unlimited
  | Maximum stacksize for task 467: unlimited
  | Maximum stacksize for task 468: unlimited
  | Maximum stacksize for task 469: unlimited
  | Maximum stacksize for task 470: unlimited
  | Maximum stacksize for task 471: unlimited
  | Maximum stacksize for task 472: unlimited
  | Maximum stacksize for task 473: unlimited
  | Maximum stacksize for task 474: unlimited
  | Maximum stacksize for task 475: unlimited
  | Maximum stacksize for task 476: unlimited
  | Maximum stacksize for task 477: unlimited
  | Maximum stacksize for task 478: unlimited
  | Maximum stacksize for task 479: unlimited
  | Maximum stacksize for task 480: unlimited
  | Maximum stacksize for task 481: unlimited
  | Maximum stacksize for task 482: unlimited
  | Maximum stacksize for task 483: unlimited
  | Maximum stacksize for task 484: unlimited
  | Maximum stacksize for task 485: unlimited
  | Maximum stacksize for task 486: unlimited
  | Maximum stacksize for task 487: unlimited
  | Maximum stacksize for task 488: unlimited
  | Maximum stacksize for task 489: unlimited
  | Maximum stacksize for task 490: unlimited
  | Maximum stacksize for task 491: unlimited
  | Maximum stacksize for task 492: unlimited
  | Maximum stacksize for task 493: unlimited
  | Maximum stacksize for task 494: unlimited
  | Maximum stacksize for task 495: unlimited
  | Maximum stacksize for task 496: unlimited
  | Maximum stacksize for task 497: unlimited
  | Maximum stacksize for task 498: unlimited
  | Maximum stacksize for task 499: unlimited
  | Maximum stacksize for task 500: unlimited
  | Maximum stacksize for task 501: unlimited
  | Maximum stacksize for task 502: unlimited
  | Maximum stacksize for task 503: unlimited
  | Maximum stacksize for task 504: unlimited
  | Maximum stacksize for task 505: unlimited
  | Maximum stacksize for task 506: unlimited
  | Maximum stacksize for task 507: unlimited
  | Maximum stacksize for task 508: unlimited
  | Maximum stacksize for task 509: unlimited
  | Maximum stacksize for task 510: unlimited
  | Maximum stacksize for task 511: unlimited
  | Current stacksize for task 0: unlimited
  | Current stacksize for task 1: unlimited
  | Current stacksize for task 2: unlimited
  | Current stacksize for task 3: unlimited
  | Current stacksize for task 4: unlimited
  | Current stacksize for task 5: unlimited
  | Current stacksize for task 6: unlimited
  | Current stacksize for task 7: unlimited
  | Current stacksize for task 8: unlimited
  | Current stacksize for task 9: unlimited
  | Current stacksize for task 10: unlimited
  | Current stacksize for task 11: unlimited
  | Current stacksize for task 12: unlimited
  | Current stacksize for task 13: unlimited
  | Current stacksize for task 14: unlimited
  | Current stacksize for task 15: unlimited
  | Current stacksize for task 16: unlimited
  | Current stacksize for task 17: unlimited
  | Current stacksize for task 18: unlimited
  | Current stacksize for task 19: unlimited
  | Current stacksize for task 20: unlimited
  | Current stacksize for task 21: unlimited
  | Current stacksize for task 22: unlimited
  | Current stacksize for task 23: unlimited
  | Current stacksize for task 24: unlimited
  | Current stacksize for task 25: unlimited
  | Current stacksize for task 26: unlimited
  | Current stacksize for task 27: unlimited
  | Current stacksize for task 28: unlimited
  | Current stacksize for task 29: unlimited
  | Current stacksize for task 30: unlimited
  | Current stacksize for task 31: unlimited
  | Current stacksize for task 32: unlimited
  | Current stacksize for task 33: unlimited
  | Current stacksize for task 34: unlimited
  | Current stacksize for task 35: unlimited
  | Current stacksize for task 36: unlimited
  | Current stacksize for task 37: unlimited
  | Current stacksize for task 38: unlimited
  | Current stacksize for task 39: unlimited
  | Current stacksize for task 40: unlimited
  | Current stacksize for task 41: unlimited
  | Current stacksize for task 42: unlimited
  | Current stacksize for task 43: unlimited
  | Current stacksize for task 44: unlimited
  | Current stacksize for task 45: unlimited
  | Current stacksize for task 46: unlimited
  | Current stacksize for task 47: unlimited
  | Current stacksize for task 48: unlimited
  | Current stacksize for task 49: unlimited
  | Current stacksize for task 50: unlimited
  | Current stacksize for task 51: unlimited
  | Current stacksize for task 52: unlimited
  | Current stacksize for task 53: unlimited
  | Current stacksize for task 54: unlimited
  | Current stacksize for task 55: unlimited
  | Current stacksize for task 56: unlimited
  | Current stacksize for task 57: unlimited
  | Current stacksize for task 58: unlimited
  | Current stacksize for task 59: unlimited
  | Current stacksize for task 60: unlimited
  | Current stacksize for task 61: unlimited
  | Current stacksize for task 62: unlimited
  | Current stacksize for task 63: unlimited
  | Current stacksize for task 64: unlimited
  | Current stacksize for task 65: unlimited
  | Current stacksize for task 66: unlimited
  | Current stacksize for task 67: unlimited
  | Current stacksize for task 68: unlimited
  | Current stacksize for task 69: unlimited
  | Current stacksize for task 70: unlimited
  | Current stacksize for task 71: unlimited
  | Current stacksize for task 72: unlimited
  | Current stacksize for task 73: unlimited
  | Current stacksize for task 74: unlimited
  | Current stacksize for task 75: unlimited
  | Current stacksize for task 76: unlimited
  | Current stacksize for task 77: unlimited
  | Current stacksize for task 78: unlimited
  | Current stacksize for task 79: unlimited
  | Current stacksize for task 80: unlimited
  | Current stacksize for task 81: unlimited
  | Current stacksize for task 82: unlimited
  | Current stacksize for task 83: unlimited
  | Current stacksize for task 84: unlimited
  | Current stacksize for task 85: unlimited
  | Current stacksize for task 86: unlimited
  | Current stacksize for task 87: unlimited
  | Current stacksize for task 88: unlimited
  | Current stacksize for task 89: unlimited
  | Current stacksize for task 90: unlimited
  | Current stacksize for task 91: unlimited
  | Current stacksize for task 92: unlimited
  | Current stacksize for task 93: unlimited
  | Current stacksize for task 94: unlimited
  | Current stacksize for task 95: unlimited
  | Current stacksize for task 96: unlimited
  | Current stacksize for task 97: unlimited
  | Current stacksize for task 98: unlimited
  | Current stacksize for task 99: unlimited
  | Current stacksize for task 100: unlimited
  | Current stacksize for task 101: unlimited
  | Current stacksize for task 102: unlimited
  | Current stacksize for task 103: unlimited
  | Current stacksize for task 104: unlimited
  | Current stacksize for task 105: unlimited
  | Current stacksize for task 106: unlimited
  | Current stacksize for task 107: unlimited
  | Current stacksize for task 108: unlimited
  | Current stacksize for task 109: unlimited
  | Current stacksize for task 110: unlimited
  | Current stacksize for task 111: unlimited
  | Current stacksize for task 112: unlimited
  | Current stacksize for task 113: unlimited
  | Current stacksize for task 114: unlimited
  | Current stacksize for task 115: unlimited
  | Current stacksize for task 116: unlimited
  | Current stacksize for task 117: unlimited
  | Current stacksize for task 118: unlimited
  | Current stacksize for task 119: unlimited
  | Current stacksize for task 120: unlimited
  | Current stacksize for task 121: unlimited
  | Current stacksize for task 122: unlimited
  | Current stacksize for task 123: unlimited
  | Current stacksize for task 124: unlimited
  | Current stacksize for task 125: unlimited
  | Current stacksize for task 126: unlimited
  | Current stacksize for task 127: unlimited
  | Current stacksize for task 128: unlimited
  | Current stacksize for task 129: unlimited
  | Current stacksize for task 130: unlimited
  | Current stacksize for task 131: unlimited
  | Current stacksize for task 132: unlimited
  | Current stacksize for task 133: unlimited
  | Current stacksize for task 134: unlimited
  | Current stacksize for task 135: unlimited
  | Current stacksize for task 136: unlimited
  | Current stacksize for task 137: unlimited
  | Current stacksize for task 138: unlimited
  | Current stacksize for task 139: unlimited
  | Current stacksize for task 140: unlimited
  | Current stacksize for task 141: unlimited
  | Current stacksize for task 142: unlimited
  | Current stacksize for task 143: unlimited
  | Current stacksize for task 144: unlimited
  | Current stacksize for task 145: unlimited
  | Current stacksize for task 146: unlimited
  | Current stacksize for task 147: unlimited
  | Current stacksize for task 148: unlimited
  | Current stacksize for task 149: unlimited
  | Current stacksize for task 150: unlimited
  | Current stacksize for task 151: unlimited
  | Current stacksize for task 152: unlimited
  | Current stacksize for task 153: unlimited
  | Current stacksize for task 154: unlimited
  | Current stacksize for task 155: unlimited
  | Current stacksize for task 156: unlimited
  | Current stacksize for task 157: unlimited
  | Current stacksize for task 158: unlimited
  | Current stacksize for task 159: unlimited
  | Current stacksize for task 160: unlimited
  | Current stacksize for task 161: unlimited
  | Current stacksize for task 162: unlimited
  | Current stacksize for task 163: unlimited
  | Current stacksize for task 164: unlimited
  | Current stacksize for task 165: unlimited
  | Current stacksize for task 166: unlimited
  | Current stacksize for task 167: unlimited
  | Current stacksize for task 168: unlimited
  | Current stacksize for task 169: unlimited
  | Current stacksize for task 170: unlimited
  | Current stacksize for task 171: unlimited
  | Current stacksize for task 172: unlimited
  | Current stacksize for task 173: unlimited
  | Current stacksize for task 174: unlimited
  | Current stacksize for task 175: unlimited
  | Current stacksize for task 176: unlimited
  | Current stacksize for task 177: unlimited
  | Current stacksize for task 178: unlimited
  | Current stacksize for task 179: unlimited
  | Current stacksize for task 180: unlimited
  | Current stacksize for task 181: unlimited
  | Current stacksize for task 182: unlimited
  | Current stacksize for task 183: unlimited
  | Current stacksize for task 184: unlimited
  | Current stacksize for task 185: unlimited
  | Current stacksize for task 186: unlimited
  | Current stacksize for task 187: unlimited
  | Current stacksize for task 188: unlimited
  | Current stacksize for task 189: unlimited
  | Current stacksize for task 190: unlimited
  | Current stacksize for task 191: unlimited
  | Current stacksize for task 192: unlimited
  | Current stacksize for task 193: unlimited
  | Current stacksize for task 194: unlimited
  | Current stacksize for task 195: unlimited
  | Current stacksize for task 196: unlimited
  | Current stacksize for task 197: unlimited
  | Current stacksize for task 198: unlimited
  | Current stacksize for task 199: unlimited
  | Current stacksize for task 200: unlimited
  | Current stacksize for task 201: unlimited
  | Current stacksize for task 202: unlimited
  | Current stacksize for task 203: unlimited
  | Current stacksize for task 204: unlimited
  | Current stacksize for task 205: unlimited
  | Current stacksize for task 206: unlimited
  | Current stacksize for task 207: unlimited
  | Current stacksize for task 208: unlimited
  | Current stacksize for task 209: unlimited
  | Current stacksize for task 210: unlimited
  | Current stacksize for task 211: unlimited
  | Current stacksize for task 212: unlimited
  | Current stacksize for task 213: unlimited
  | Current stacksize for task 214: unlimited
  | Current stacksize for task 215: unlimited
  | Current stacksize for task 216: unlimited
  | Current stacksize for task 217: unlimited
  | Current stacksize for task 218: unlimited
  | Current stacksize for task 219: unlimited
  | Current stacksize for task 220: unlimited
  | Current stacksize for task 221: unlimited
  | Current stacksize for task 222: unlimited
  | Current stacksize for task 223: unlimited
  | Current stacksize for task 224: unlimited
  | Current stacksize for task 225: unlimited
  | Current stacksize for task 226: unlimited
  | Current stacksize for task 227: unlimited
  | Current stacksize for task 228: unlimited
  | Current stacksize for task 229: unlimited
  | Current stacksize for task 230: unlimited
  | Current stacksize for task 231: unlimited
  | Current stacksize for task 232: unlimited
  | Current stacksize for task 233: unlimited
  | Current stacksize for task 234: unlimited
  | Current stacksize for task 235: unlimited
  | Current stacksize for task 236: unlimited
  | Current stacksize for task 237: unlimited
  | Current stacksize for task 238: unlimited
  | Current stacksize for task 239: unlimited
  | Current stacksize for task 240: unlimited
  | Current stacksize for task 241: unlimited
  | Current stacksize for task 242: unlimited
  | Current stacksize for task 243: unlimited
  | Current stacksize for task 244: unlimited
  | Current stacksize for task 245: unlimited
  | Current stacksize for task 246: unlimited
  | Current stacksize for task 247: unlimited
  | Current stacksize for task 248: unlimited
  | Current stacksize for task 249: unlimited
  | Current stacksize for task 250: unlimited
  | Current stacksize for task 251: unlimited
  | Current stacksize for task 252: unlimited
  | Current stacksize for task 253: unlimited
  | Current stacksize for task 254: unlimited
  | Current stacksize for task 255: unlimited
  | Current stacksize for task 256: unlimited
  | Current stacksize for task 257: unlimited
  | Current stacksize for task 258: unlimited
  | Current stacksize for task 259: unlimited
  | Current stacksize for task 260: unlimited
  | Current stacksize for task 261: unlimited
  | Current stacksize for task 262: unlimited
  | Current stacksize for task 263: unlimited
  | Current stacksize for task 264: unlimited
  | Current stacksize for task 265: unlimited
  | Current stacksize for task 266: unlimited
  | Current stacksize for task 267: unlimited
  | Current stacksize for task 268: unlimited
  | Current stacksize for task 269: unlimited
  | Current stacksize for task 270: unlimited
  | Current stacksize for task 271: unlimited
  | Current stacksize for task 272: unlimited
  | Current stacksize for task 273: unlimited
  | Current stacksize for task 274: unlimited
  | Current stacksize for task 275: unlimited
  | Current stacksize for task 276: unlimited
  | Current stacksize for task 277: unlimited
  | Current stacksize for task 278: unlimited
  | Current stacksize for task 279: unlimited
  | Current stacksize for task 280: unlimited
  | Current stacksize for task 281: unlimited
  | Current stacksize for task 282: unlimited
  | Current stacksize for task 283: unlimited
  | Current stacksize for task 284: unlimited
  | Current stacksize for task 285: unlimited
  | Current stacksize for task 286: unlimited
  | Current stacksize for task 287: unlimited
  | Current stacksize for task 288: unlimited
  | Current stacksize for task 289: unlimited
  | Current stacksize for task 290: unlimited
  | Current stacksize for task 291: unlimited
  | Current stacksize for task 292: unlimited
  | Current stacksize for task 293: unlimited
  | Current stacksize for task 294: unlimited
  | Current stacksize for task 295: unlimited
  | Current stacksize for task 296: unlimited
  | Current stacksize for task 297: unlimited
  | Current stacksize for task 298: unlimited
  | Current stacksize for task 299: unlimited
  | Current stacksize for task 300: unlimited
  | Current stacksize for task 301: unlimited
  | Current stacksize for task 302: unlimited
  | Current stacksize for task 303: unlimited
  | Current stacksize for task 304: unlimited
  | Current stacksize for task 305: unlimited
  | Current stacksize for task 306: unlimited
  | Current stacksize for task 307: unlimited
  | Current stacksize for task 308: unlimited
  | Current stacksize for task 309: unlimited
  | Current stacksize for task 310: unlimited
  | Current stacksize for task 311: unlimited
  | Current stacksize for task 312: unlimited
  | Current stacksize for task 313: unlimited
  | Current stacksize for task 314: unlimited
  | Current stacksize for task 315: unlimited
  | Current stacksize for task 316: unlimited
  | Current stacksize for task 317: unlimited
  | Current stacksize for task 318: unlimited
  | Current stacksize for task 319: unlimited
  | Current stacksize for task 320: unlimited
  | Current stacksize for task 321: unlimited
  | Current stacksize for task 322: unlimited
  | Current stacksize for task 323: unlimited
  | Current stacksize for task 324: unlimited
  | Current stacksize for task 325: unlimited
  | Current stacksize for task 326: unlimited
  | Current stacksize for task 327: unlimited
  | Current stacksize for task 328: unlimited
  | Current stacksize for task 329: unlimited
  | Current stacksize for task 330: unlimited
  | Current stacksize for task 331: unlimited
  | Current stacksize for task 332: unlimited
  | Current stacksize for task 333: unlimited
  | Current stacksize for task 334: unlimited
  | Current stacksize for task 335: unlimited
  | Current stacksize for task 336: unlimited
  | Current stacksize for task 337: unlimited
  | Current stacksize for task 338: unlimited
  | Current stacksize for task 339: unlimited
  | Current stacksize for task 340: unlimited
  | Current stacksize for task 341: unlimited
  | Current stacksize for task 342: unlimited
  | Current stacksize for task 343: unlimited
  | Current stacksize for task 344: unlimited
  | Current stacksize for task 345: unlimited
  | Current stacksize for task 346: unlimited
  | Current stacksize for task 347: unlimited
  | Current stacksize for task 348: unlimited
  | Current stacksize for task 349: unlimited
  | Current stacksize for task 350: unlimited
  | Current stacksize for task 351: unlimited
  | Current stacksize for task 352: unlimited
  | Current stacksize for task 353: unlimited
  | Current stacksize for task 354: unlimited
  | Current stacksize for task 355: unlimited
  | Current stacksize for task 356: unlimited
  | Current stacksize for task 357: unlimited
  | Current stacksize for task 358: unlimited
  | Current stacksize for task 359: unlimited
  | Current stacksize for task 360: unlimited
  | Current stacksize for task 361: unlimited
  | Current stacksize for task 362: unlimited
  | Current stacksize for task 363: unlimited
  | Current stacksize for task 364: unlimited
  | Current stacksize for task 365: unlimited
  | Current stacksize for task 366: unlimited
  | Current stacksize for task 367: unlimited
  | Current stacksize for task 368: unlimited
  | Current stacksize for task 369: unlimited
  | Current stacksize for task 370: unlimited
  | Current stacksize for task 371: unlimited
  | Current stacksize for task 372: unlimited
  | Current stacksize for task 373: unlimited
  | Current stacksize for task 374: unlimited
  | Current stacksize for task 375: unlimited
  | Current stacksize for task 376: unlimited
  | Current stacksize for task 377: unlimited
  | Current stacksize for task 378: unlimited
  | Current stacksize for task 379: unlimited
  | Current stacksize for task 380: unlimited
  | Current stacksize for task 381: unlimited
  | Current stacksize for task 382: unlimited
  | Current stacksize for task 383: unlimited
  | Current stacksize for task 384: unlimited
  | Current stacksize for task 385: unlimited
  | Current stacksize for task 386: unlimited
  | Current stacksize for task 387: unlimited
  | Current stacksize for task 388: unlimited
  | Current stacksize for task 389: unlimited
  | Current stacksize for task 390: unlimited
  | Current stacksize for task 391: unlimited
  | Current stacksize for task 392: unlimited
  | Current stacksize for task 393: unlimited
  | Current stacksize for task 394: unlimited
  | Current stacksize for task 395: unlimited
  | Current stacksize for task 396: unlimited
  | Current stacksize for task 397: unlimited
  | Current stacksize for task 398: unlimited
  | Current stacksize for task 399: unlimited
  | Current stacksize for task 400: unlimited
  | Current stacksize for task 401: unlimited
  | Current stacksize for task 402: unlimited
  | Current stacksize for task 403: unlimited
  | Current stacksize for task 404: unlimited
  | Current stacksize for task 405: unlimited
  | Current stacksize for task 406: unlimited
  | Current stacksize for task 407: unlimited
  | Current stacksize for task 408: unlimited
  | Current stacksize for task 409: unlimited
  | Current stacksize for task 410: unlimited
  | Current stacksize for task 411: unlimited
  | Current stacksize for task 412: unlimited
  | Current stacksize for task 413: unlimited
  | Current stacksize for task 414: unlimited
  | Current stacksize for task 415: unlimited
  | Current stacksize for task 416: unlimited
  | Current stacksize for task 417: unlimited
  | Current stacksize for task 418: unlimited
  | Current stacksize for task 419: unlimited
  | Current stacksize for task 420: unlimited
  | Current stacksize for task 421: unlimited
  | Current stacksize for task 422: unlimited
  | Current stacksize for task 423: unlimited
  | Current stacksize for task 424: unlimited
  | Current stacksize for task 425: unlimited
  | Current stacksize for task 426: unlimited
  | Current stacksize for task 427: unlimited
  | Current stacksize for task 428: unlimited
  | Current stacksize for task 429: unlimited
  | Current stacksize for task 430: unlimited
  | Current stacksize for task 431: unlimited
  | Current stacksize for task 432: unlimited
  | Current stacksize for task 433: unlimited
  | Current stacksize for task 434: unlimited
  | Current stacksize for task 435: unlimited
  | Current stacksize for task 436: unlimited
  | Current stacksize for task 437: unlimited
  | Current stacksize for task 438: unlimited
  | Current stacksize for task 439: unlimited
  | Current stacksize for task 440: unlimited
  | Current stacksize for task 441: unlimited
  | Current stacksize for task 442: unlimited
  | Current stacksize for task 443: unlimited
  | Current stacksize for task 444: unlimited
  | Current stacksize for task 445: unlimited
  | Current stacksize for task 446: unlimited
  | Current stacksize for task 447: unlimited
  | Current stacksize for task 448: unlimited
  | Current stacksize for task 449: unlimited
  | Current stacksize for task 450: unlimited
  | Current stacksize for task 451: unlimited
  | Current stacksize for task 452: unlimited
  | Current stacksize for task 453: unlimited
  | Current stacksize for task 454: unlimited
  | Current stacksize for task 455: unlimited
  | Current stacksize for task 456: unlimited
  | Current stacksize for task 457: unlimited
  | Current stacksize for task 458: unlimited
  | Current stacksize for task 459: unlimited
  | Current stacksize for task 460: unlimited
  | Current stacksize for task 461: unlimited
  | Current stacksize for task 462: unlimited
  | Current stacksize for task 463: unlimited
  | Current stacksize for task 464: unlimited
  | Current stacksize for task 465: unlimited
  | Current stacksize for task 466: unlimited
  | Current stacksize for task 467: unlimited
  | Current stacksize for task 468: unlimited
  | Current stacksize for task 469: unlimited
  | Current stacksize for task 470: unlimited
  | Current stacksize for task 471: unlimited
  | Current stacksize for task 472: unlimited
  | Current stacksize for task 473: unlimited
  | Current stacksize for task 474: unlimited
  | Current stacksize for task 475: unlimited
  | Current stacksize for task 476: unlimited
  | Current stacksize for task 477: unlimited
  | Current stacksize for task 478: unlimited
  | Current stacksize for task 479: unlimited
  | Current stacksize for task 480: unlimited
  | Current stacksize for task 481: unlimited
  | Current stacksize for task 482: unlimited
  | Current stacksize for task 483: unlimited
  | Current stacksize for task 484: unlimited
  | Current stacksize for task 485: unlimited
  | Current stacksize for task 486: unlimited
  | Current stacksize for task 487: unlimited
  | Current stacksize for task 488: unlimited
  | Current stacksize for task 489: unlimited
  | Current stacksize for task 490: unlimited
  | Current stacksize for task 491: unlimited
  | Current stacksize for task 492: unlimited
  | Current stacksize for task 493: unlimited
  | Current stacksize for task 494: unlimited
  | Current stacksize for task 495: unlimited
  | Current stacksize for task 496: unlimited
  | Current stacksize for task 497: unlimited
  | Current stacksize for task 498: unlimited
  | Current stacksize for task 499: unlimited
  | Current stacksize for task 500: unlimited
  | Current stacksize for task 501: unlimited
  | Current stacksize for task 502: unlimited
  | Current stacksize for task 503: unlimited
  | Current stacksize for task 504: unlimited
  | Current stacksize for task 505: unlimited
  | Current stacksize for task 506: unlimited
  | Current stacksize for task 507: unlimited
  | Current stacksize for task 508: unlimited
  | Current stacksize for task 509: unlimited
  | Current stacksize for task 510: unlimited
  | Current stacksize for task 511: unlimited
 
  Consistency checks for the contents of control.in are next.
 
  MPI_IN_PLACE appears to work with this MPI implementation.
  | Keeping use_mpi_in_place .true. (see manual).
  Target number of points in a grid batch is not set. Defaulting to  100
  Method for grid partitioning is not set. Defaulting to parallel hash+maxmin partitioning.
  Batch size limit is not set. Defaulting to    200
  By default, will store active basis functions for each batch.
  If in need of memory, prune_basis_once .false. can be used to disable this option.
  communication_type for Hartree potential was not specified.
  Defaulting to calc_hartree .
  Defaulting to Pulay charge density mixer.
  Pulay mixer: Number of relevant iterations not set.
  Defaulting to    8 iterations.
  Pulay mixer: Number of initial linear mixing iterations not set.
  Defaulting to    0 iterations.
  Work space size for distributed Hartree potential not set.
  Defaulting to   0.200000E+03 MB.
  Mixing parameter for charge density mixing has not been set.
  Using default: charge_mix_param =     0.0500.
  The mixing parameter will be adjusted in iteration number     2 of each s.c.f. cycle (i.e., each geometry step).
  Algorithm-dependent basis array size parameters:
  | n_max_pulay                         :        8
  Maximum number of self-consistency iterations not provided.
  Presetting  1000 iterations.
  Presetting      1001 iterations before the initial mixing cycle
  is restarted anyway using the sc_init_iter criterion / keyword.
  Presetting a factor      1.000 between actual scf density residual
  and density convergence criterion sc_accuracy_rho below which sc_init_iter
  takes no effect.
  Calculation of forces was not defined in control.in. No forces will be calculated.
  Geometry relaxation not requested: no relaxation will be performed.
  No accuracy limit for integral partition fn. given. Defaulting to  0.1000E-14.
  No threshold value for u(r) in integrations given. Defaulting to  0.1000E-05.
  No occupation type (smearing scheme) given. Defaulting to Gaussian broadening, width =  0.1000E-01 eV.
  The width will be adjusted in iteration number     2 of each s.c.f. cycle (i.e., each geometry step).
  No accuracy for occupation numbers given. Defaulting to  0.1000E-12.
  No threshold value for occupation numbers given. Defaulting to  0.0000E+00.
  No accuracy for fermi level given. Defaulting to  0.1000E-19.
  Maximum # of iterations to find E_F not set. Defaulting to  200.
  Maximum number of tasks per SMP nodenot specified.
  Presetting   512 tasks.
  Threshold for basis singularities not set.
  Default threshold for basis singularities:  0.1000E-04
  partition_type (choice of integration weights) for integrals was not specified.
  | Using a version of the partition function of Stratmann and coworkers ('stratmann_sparse').
  | At each grid point, the set of atoms used to build the partition table is smoothly restricted to
  | only those atoms whose free-atom density would be non-zero at that grid point.
  Partitioning for Hartree potential was not defined. Using partition_type for integrals.
  | Adjusted default value of keyword multip_moments_threshold to:       0.10000000E-11
  | This value may affect high angular momentum components of the Hartree potential in periodic systems.
  Using 2025 definition of centers list for evaluation of the Stratmann partition function.
  No q(lm)/r^(l+1) cutoff set for long-range Hartree potential.
  | Using default value of  0.100000E-09 .
  | Verify using the multipole_threshold keyword.
  Defaulting to new monopole extrapolation.
  Density update method: automatic selection selected.
  Using density matrix based charge density update.
  Using density matrix based charge density update.
  Using packed matrix style: index .
  Threshold of packed matrixes:  0.000000E+00
  Defaulting to use time-reversal symmetry for k-point grid.
  Charge integration errors on the 3D integration grid will be compensated
  by explicit normalization and distribution of residual charges.
  Use the "compensate_multipole_errors" flag to change this behaviour.
  Found no potential conflicts with setting 'use_local_index' for this calculation.
  Flag 'use_local_index' has not been set.
  Testing whether we classify this calculation as large-scale ...
  The calculation contains less than 100 atoms. This is most likely not a large-scale calculation.
  Not setting 'use_local_index'.
 
  Consistency checks for the contents of geometry.in are next.
 

  Range separation radius for Ewald summation (hartree_convergence_parameter):      2.90111125 bohr.
  Number of empty states per atom not set in control.in - providing a guess from actual geometry.
  | Total number of empty states used during s.c.f. cycle:       96
  If you use a very high smearing, use empty_states (per atom!) in control.in to increase this value.

  Structure-dependent array size parameters: 
  | Maximum number of distinct radial functions  :       13
  | Maximum number of basis functions            :      464
  | Number of Kohn-Sham states (occupied + empty):      256
------------------------------------------------------------

  Checking k-grid inconsistencies now:
  | k-point density for reciprocal lattice vector 1 is    6.21 nkpts / Angstrom^-1
  | k-point density for reciprocal lattice vector 2 is    6.21 nkpts / Angstrom^-1
  | k-point density for reciprocal lattice vector 3 is    6.21 nkpts / Angstrom^-1

  | Ratio of k-point densities for reciprocal lattice vectors 1 vs 2 is    1.00
  | Ratio of k-point densities for reciprocal lattice vectors 1 vs 3 is    1.00
  | Ratio of k-point densities for reciprocal lattice vectors 2 vs 3 is    1.00

  * The specified k_grid leads to a nearly homogenous k-grid density in non-vacuum directions,
  * and seems sensible.

  | Checks passed.
  After read_input_data [GB]:    492.76

  Performing system and environment tests:
  | Environment variable OMP_NUM_THREADS correctly set to 1.
  | Checking for ScaLAPACK...
  | Testing pdtran()...
  | All pdtran() tests passed.
  | Testing CPU compatibility for run-time vs. build-time.
  | Reading /proc/cpuinfo for CPU information ...
  | Built for  : AMD EPYC 9554 64-Core Processor
  | Running on : AMD EPYC 9554 64-Core Processor
  | Runtime CPU compatibility verified.
  
  After prepare_system [GB]:    492.58

------------------------------------------------------------
          Preparing all fixed parts of the calculation.
------------------------------------------------------------
  Determining machine precision:
    2.225073858507201E-308
  Setting up grids for atomic and cluster calculations.

  Creating wave function, potential, and density for free atoms.
  Runtime choices for atomic solver:
  | atomic solver xc        : PW-LDA
  | compute density gradient: 0
  | compute kinetic density : F

  Species: Mg

  List of occupied orbitals and eigenvalues:
    n    l              occ      energy [Ha]    energy [eV]
    1    0           2.0000       -46.129861     -1255.2574
    2    0           2.0000        -2.907634       -79.1207
    3    0           2.0000        -0.170951        -4.6518
    2    1           6.0000        -1.710478       -46.5445


  Species: O

  List of occupied orbitals and eigenvalues:
    n    l              occ      energy [Ha]    energy [eV]
    1    0           2.0000       -18.786109      -511.1960
    2    0           2.0000        -0.872635       -23.7456
    2    1           4.0000        -0.337687        -9.1889


  Adding cutoff potential to free-atom effective potential.
  Creating fixed part of basis set: Ionic, confined, hydrogenic.
 
  Mg                   ion:
  Runtime choices for ionic solver:
  | ionic solver xc        : PW-LDA

  List of free ionic orbitals and eigenvalues:
    n    l      energy [Ha]    energy [eV]
    1    0       -46.892989     -1276.0232
    2    0        -3.655333       -99.4667
    2    1        -2.456328       -66.8401


  List of ionic basis orbitals and eigenvalues:
    n    l      energy [Ha]    energy [eV]    outer radius [A]
    3    2        -0.247637        -6.7386       5.100062

 
  Mg                   hydrogenic:
 
  List of hydrogenic basis orbitals: 
    n    l      effective z      eigenvalue [eV]  inner max. [A]     outer max. [A]     outer radius [A]   
    2    1         1.500000        -7.5955           1.395712           1.395712           5.100062
    3    0         2.400000        -8.0111           0.162319           2.734035           5.100062
 
 
  O                    hydrogenic:
 
  List of hydrogenic basis orbitals: 
    n    l      effective z      eigenvalue [eV]  inner max. [A]     outer max. [A]     outer radius [A]   
    2    1         1.800000       -10.9749           1.164242           1.164242           4.578029
    3    2         7.600000       -87.3180           0.624125           0.624125           3.251020
    3    0         6.400000       -61.9207           0.061167           1.081902           4.001998
 
  Creating atomic-like basis functions for current effective potential.

  Species Mg                  :

  List of atomic basis orbitals and eigenvalues:
    n    l      energy [Ha]    energy [eV]    outer radius [A]
    1    0       -46.129861     -1255.2574       0.932375
    2    0        -2.907634       -79.1207       3.621735
    3    0        -0.170951        -4.6518       5.100062
    2    1        -1.710478       -46.5445       4.404175


  Species O                   :

  List of atomic basis orbitals and eigenvalues:
    n    l      energy [Ha]    energy [eV]    outer radius [A]
    1    0       -18.786109      -511.1960       1.433179
    2    0        -0.872635       -23.7456       4.413171
    2    1        -0.337687        -9.1889       4.522403

  Assembling full basis from fixed parts.
  | Species Mg :   atomic orbital   1 s accepted.
  | Species Mg :   atomic orbital   2 s accepted.
  | Species Mg :   atomic orbital   3 s accepted.
  | Species Mg :    hydro orbital   3 s accepted.
  | Species Mg :   atomic orbital   2 p accepted.
  | Species Mg :    hydro orbital   2 p accepted.
  | Species Mg :    ionic orbital   3 d accepted.
  | Species O :   atomic orbital   1 s accepted.
  | Species O :    hydro orbital   3 s accepted.
  | Species O :   atomic orbital   2 s accepted.
  | Species O :   atomic orbital   2 p accepted.
  | Species O :    hydro orbital   2 p accepted.
  | Species O :    hydro orbital   3 d accepted.
 
  Basis size parameters after reduction:
  | Total number of radial functions:       13
  | Total number of basis functions :      464
 
  Per-task memory consumption for arrays in subroutine allocate_ext:
  |           4.451552MB.
  Testing on-site integration grid accuracy.
  |  Species  Function  <phi|h_atom|phi> (log., in eV)  <phi|h_atom|phi> (rad., in eV)
           1        1              -1255.2573828358              -1255.2567939601
           1        2                -79.1207430359                -79.1207405119
           1        3                 -4.6571725871                 -4.6569780729
           1        4                  4.1187689111                  4.1137116114
           1        5                -46.5444712533                -46.5444712057
           1        6                 -0.6243571790                 -0.6243097782
           1        7                  3.8072935088                  3.8058082227
           2        8               -511.1960429777               -511.1959399133
           2        9                 14.8973166466                 14.8974402823
           2       10                -21.2682165807                -21.2682317485
           2       11                 -9.1890598667                 -9.1892026751
           2       12                  8.1915160719                  8.1720639763
           2       13                 45.8005976646                 45.8005620229

  Preparing densities etc. for the partition functions (integrals / Hartree potential).

  Preparations completed.
  max(cpu_time)          :      0.122 s.
  Wall clock time (cpu1) :      0.126 s.
------------------------------------------------------------
  After prepare_scf [GB]:    487.87

  Initializing index lists of integration centers etc. from given atomic structure:
  Mapping all atomic coordinates to central unit cell.

  Initializing the k-points
  Using symmetry for reducing the k-points
  | k-points reduced from:      256 to      132
  | Number of k-points                             :       132
  The eigenvectors in the calculations are COMPLEX.
  | Number of basis functions in the Hamiltonian integrals       :      6067
  | Number of basis functions in a single unit cell              :       464
  | Number of centers in hartree potential                       :      2056
  | Number of centers in hartree multipole                       :      1656
  | Number of centers in electron density summation              :      1207
  | Number of centers in basis integrals                         :      1289
  | Number of centers in integrals                               :       541
  | Number of centers in hamiltonian                             :      1340
  | Number of centers in partition table from touching 0-cell    :       541
  | Number of centers in partition table total                   :      1289
  | Consuming        144 KiB for k_phase.
  | Number of super-cells (origin) [n_cells]                     :         405
  | Number of super-cells (after PM_index) [n_cells]             :          70
  | Number of super-cells in hamiltonian [n_cells_in_hamiltonian]:          70
  | Size of matrix packed + index [n_hamiltonian_matrix_size]    :     1102353
  After initialize_bc_dependent_lists [GB]:    486.98

------------------------------------------------------------
          Begin self-consistency loop: Initialization.

          Date     :  20260819, Time     :  150404.949
------------------------------------------------------------
  Available memory per node after initialize_hartree_non_periodic_ewald [GB]:    486.98
  | Estimated reciprocal-space cutoff momentum G_max:         3.26283811 bohr^-1 .
  | Reciprocal lattice points for long-range Hartree potential:    1188
  Available memory per node after initialize_recip_hartree_potential [GB]:    486.98
  Checking for possible mapping of k-points to SMP-nodes
  Running on 4 SMP-nodes
  Mapping of k-points to SMP-nodes is *NOT* possible:
  | 132 k-points  : 4 SMP-nodes
 * The calculation will run, but some performance degradation might result.
 * Check the number of actual k-points above, and consider using a number
 * compute nodes that can be divided cleanly by the number of k points
 * (e.g., two k-points per node, two nodes per k-point, etc.).
  Using simple linear distribution as default method for k-point parallelism.
  * Using 512 tasks for Scalapack Eigenvalue solver.
  Detailed listing of tasks and assigned k-points:
   Task     0 k-point     1 on vipc2510
   Task     1 k-point     1 on vipc2510
   Task     2 k-point     1 on vipc2510
   Task     3 k-point     1 on vipc2510
   Task     4 k-point     2 on vipc2510
   Task     5 k-point     2 on vipc2510
   Task     6 k-point     2 on vipc2510
   Task     7 k-point     2 on vipc2510
   Task     8 k-point     3 on vipc2510
   Task     9 k-point     3 on vipc2510
   Task    10 k-point     3 on vipc2510
   Task    11 k-point     3 on vipc2510
   Task    12 k-point     4 on vipc2510
   Task    13 k-point     4 on vipc2510
   Task    14 k-point     4 on vipc2510
   Task    15 k-point     4 on vipc2510
   Task    16 k-point     5 on vipc2510
   Task    17 k-point     5 on vipc2510
   Task    18 k-point     5 on vipc2510
   Task    19 k-point     5 on vipc2510
   Task    20 k-point     6 on vipc2510
   Task    21 k-point     6 on vipc2510
   Task    22 k-point     6 on vipc2510
   Task    23 k-point     6 on vipc2510
   Task    24 k-point     7 on vipc2510
   Task    25 k-point     7 on vipc2510
   Task    26 k-point     7 on vipc2510
   Task    27 k-point     7 on vipc2510
   Task    28 k-point     8 on vipc2510
   Task    29 k-point     8 on vipc2510
   Task    30 k-point     8 on vipc2510
   Task    31 k-point     8 on vipc2510
   Task    32 k-point     9 on vipc2510
   Task    33 k-point     9 on vipc2510
   Task    34 k-point     9 on vipc2510
   Task    35 k-point    10 on vipc2510
   Task    36 k-point    10 on vipc2510
   Task    37 k-point    10 on vipc2510
   Task    38 k-point    10 on vipc2510
   Task    39 k-point    11 on vipc2510
   Task    40 k-point    11 on vipc2510
   Task    41 k-point    11 on vipc2510
   Task    42 k-point    11 on vipc2510
   Task    43 k-point    12 on vipc2510
   Task    44 k-point    12 on vipc2510
   Task    45 k-point    12 on vipc2510
   Task    46 k-point    12 on vipc2510
   Task    47 k-point    13 on vipc2510
   Task    48 k-point    13 on vipc2510
   Task    49 k-point    13 on vipc2510
   Task    50 k-point    13 on vipc2510
   Task    51 k-point    14 on vipc2510
   Task    52 k-point    14 on vipc2510
   Task    53 k-point    14 on vipc2510
   Task    54 k-point    14 on vipc2510
   Task    55 k-point    15 on vipc2510
   Task    56 k-point    15 on vipc2510
   Task    57 k-point    15 on vipc2510
   Task    58 k-point    15 on vipc2510
   Task    59 k-point    16 on vipc2510
   Task    60 k-point    16 on vipc2510
   Task    61 k-point    16 on vipc2510
   Task    62 k-point    16 on vipc2510
   Task    63 k-point    17 on vipc2510
   Task    64 k-point    17 on vipc2510
   Task    65 k-point    17 on vipc2510
   Task    66 k-point    18 on vipc2510
   Task    67 k-point    18 on vipc2510
   Task    68 k-point    18 on vipc2510
   Task    69 k-point    18 on vipc2510
   Task    70 k-point    19 on vipc2510
   Task    71 k-point    19 on vipc2510
   Task    72 k-point    19 on vipc2510
   Task    73 k-point    19 on vipc2510
   Task    74 k-point    20 on vipc2510
   Task    75 k-point    20 on vipc2510
   Task    76 k-point    20 on vipc2510
   Task    77 k-point    20 on vipc2510
   Task    78 k-point    21 on vipc2510
   Task    79 k-point    21 on vipc2510
   Task    80 k-point    21 on vipc2510
   Task    81 k-point    21 on vipc2510
   Task    82 k-point    22 on vipc2510
   Task    83 k-point    22 on vipc2510
   Task    84 k-point    22 on vipc2510
   Task    85 k-point    22 on vipc2510
   Task    86 k-point    23 on vipc2510
   Task    87 k-point    23 on vipc2510
   Task    88 k-point    23 on vipc2510
   Task    89 k-point    23 on vipc2510
   Task    90 k-point    24 on vipc2510
   Task    91 k-point    24 on vipc2510
   Task    92 k-point    24 on vipc2510
   Task    93 k-point    24 on vipc2510
   Task    94 k-point    25 on vipc2510
   Task    95 k-point    25 on vipc2510
   Task    96 k-point    25 on vipc2510
   Task    97 k-point    26 on vipc2510
   Task    98 k-point    26 on vipc2510
   Task    99 k-point    26 on vipc2510
   Task   100 k-point    26 on vipc2510
   Task   101 k-point    27 on vipc2510
   Task   102 k-point    27 on vipc2510
   Task   103 k-point    27 on vipc2510
   Task   104 k-point    27 on vipc2510
   Task   105 k-point    28 on vipc2510
   Task   106 k-point    28 on vipc2510
   Task   107 k-point    28 on vipc2510
   Task   108 k-point    28 on vipc2510
   Task   109 k-point    29 on vipc2510
   Task   110 k-point    29 on vipc2510
   Task   111 k-point    29 on vipc2510
   Task   112 k-point    29 on vipc2510
   Task   113 k-point    30 on vipc2510
   Task   114 k-point    30 on vipc2510
   Task   115 k-point    30 on vipc2510
   Task   116 k-point    30 on vipc2510
   Task   117 k-point    31 on vipc2510
   Task   118 k-point    31 on vipc2510
   Task   119 k-point    31 on vipc2510
   Task   120 k-point    31 on vipc2510
   Task   121 k-point    32 on vipc2510
   Task   122 k-point    32 on vipc2510
   Task   123 k-point    32 on vipc2510
   Task   124 k-point    32 on vipc2510
   Task   125 k-point    33 on vipc2510
   Task   126 k-point    33 on vipc2510
   Task   127 k-point    33 on vipc2510
   Task   128 k-point    34 on vipc2517
   Task   129 k-point    34 on vipc2517
   Task   130 k-point    34 on vipc2517
   Task   131 k-point    34 on vipc2517
   Task   132 k-point    35 on vipc2517
   Task   133 k-point    35 on vipc2517
   Task   134 k-point    35 on vipc2517
   Task   135 k-point    35 on vipc2517
   Task   136 k-point    36 on vipc2517
   Task   137 k-point    36 on vipc2517
   Task   138 k-point    36 on vipc2517
   Task   139 k-point    36 on vipc2517
   Task   140 k-point    37 on vipc2517
   Task   141 k-point    37 on vipc2517
   Task   142 k-point    37 on vipc2517
   Task   143 k-point    37 on vipc2517
   Task   144 k-point    38 on vipc2517
   Task   145 k-point    38 on vipc2517
   Task   146 k-point    38 on vipc2517
   Task   147 k-point    38 on vipc2517
   Task   148 k-point    39 on vipc2517
   Task   149 k-point    39 on vipc2517
   Task   150 k-point    39 on vipc2517
   Task   151 k-point    39 on vipc2517
   Task   152 k-point    40 on vipc2517
   Task   153 k-point    40 on vipc2517
   Task   154 k-point    40 on vipc2517
   Task   155 k-point    40 on vipc2517
   Task   156 k-point    41 on vipc2517
   Task   157 k-point    41 on vipc2517
   Task   158 k-point    41 on vipc2517
   Task   159 k-point    41 on vipc2517
   Task   160 k-point    42 on vipc2517
   Task   161 k-point    42 on vipc2517
   Task   162 k-point    42 on vipc2517
   Task   163 k-point    43 on vipc2517
   Task   164 k-point    43 on vipc2517
   Task   165 k-point    43 on vipc2517
   Task   166 k-point    43 on vipc2517
   Task   167 k-point    44 on vipc2517
   Task   168 k-point    44 on vipc2517
   Task   169 k-point    44 on vipc2517
   Task   170 k-point    44 on vipc2517
   Task   171 k-point    45 on vipc2517
   Task   172 k-point    45 on vipc2517
   Task   173 k-point    45 on vipc2517
   Task   174 k-point    45 on vipc2517
   Task   175 k-point    46 on vipc2517
   Task   176 k-point    46 on vipc2517
   Task   177 k-point    46 on vipc2517
   Task   178 k-point    46 on vipc2517
   Task   179 k-point    47 on vipc2517
   Task   180 k-point    47 on vipc2517
   Task   181 k-point    47 on vipc2517
   Task   182 k-point    47 on vipc2517
   Task   183 k-point    48 on vipc2517
   Task   184 k-point    48 on vipc2517
   Task   185 k-point    48 on vipc2517
   Task   186 k-point    48 on vipc2517
   Task   187 k-point    49 on vipc2517
   Task   188 k-point    49 on vipc2517
   Task   189 k-point    49 on vipc2517
   Task   190 k-point    49 on vipc2517
   Task   191 k-point    50 on vipc2517
   Task   192 k-point    50 on vipc2517
   Task   193 k-point    50 on vipc2517
   Task   194 k-point    51 on vipc2517
   Task   195 k-point    51 on vipc2517
   Task   196 k-point    51 on vipc2517
   Task   197 k-point    51 on vipc2517
   Task   198 k-point    52 on vipc2517
   Task   199 k-point    52 on vipc2517
   Task   200 k-point    52 on vipc2517
   Task   201 k-point    52 on vipc2517
   Task   202 k-point    53 on vipc2517
   Task   203 k-point    53 on vipc2517
   Task   204 k-point    53 on vipc2517
   Task   205 k-point    53 on vipc2517
   Task   206 k-point    54 on vipc2517
   Task   207 k-point    54 on vipc2517
   Task   208 k-point    54 on vipc2517
   Task   209 k-point    54 on vipc2517
   Task   210 k-point    55 on vipc2517
   Task   211 k-point    55 on vipc2517
   Task   212 k-point    55 on vipc2517
   Task   213 k-point    55 on vipc2517
   Task   214 k-point    56 on vipc2517
   Task   215 k-point    56 on vipc2517
   Task   216 k-point    56 on vipc2517
   Task   217 k-point    56 on vipc2517
   Task   218 k-point    57 on vipc2517
   Task   219 k-point    57 on vipc2517
   Task   220 k-point    57 on vipc2517
   Task   221 k-point    57 on vipc2517
   Task   222 k-point    58 on vipc2517
   Task   223 k-point    58 on vipc2517
   Task   224 k-point    58 on vipc2517
   Task   225 k-point    59 on vipc2517
   Task   226 k-point    59 on vipc2517
   Task   227 k-point    59 on vipc2517
   Task   228 k-point    59 on vipc2517
   Task   229 k-point    60 on vipc2517
   Task   230 k-point    60 on vipc2517
   Task   231 k-point    60 on vipc2517
   Task   232 k-point    60 on vipc2517
   Task   233 k-point    61 on vipc2517
   Task   234 k-point    61 on vipc2517
   Task   235 k-point    61 on vipc2517
   Task   236 k-point    61 on vipc2517
   Task   237 k-point    62 on vipc2517
   Task   238 k-point    62 on vipc2517
   Task   239 k-point    62 on vipc2517
   Task   240 k-point    62 on vipc2517
   Task   241 k-point    63 on vipc2517
   Task   242 k-point    63 on vipc2517
   Task   243 k-point    63 on vipc2517
   Task   244 k-point    63 on vipc2517
   Task   245 k-point    64 on vipc2517
   Task   246 k-point    64 on vipc2517
   Task   247 k-point    64 on vipc2517
   Task   248 k-point    64 on vipc2517
   Task   249 k-point    65 on vipc2517
   Task   250 k-point    65 on vipc2517
   Task   251 k-point    65 on vipc2517
   Task   252 k-point    65 on vipc2517
   Task   253 k-point    66 on vipc2517
   Task   254 k-point    66 on vipc2517
   Task   255 k-point    66 on vipc2517
   Task   256 k-point    67 on vipc2520
   Task   257 k-point    67 on vipc2520
   Task   258 k-point    67 on vipc2520
   Task   259 k-point    67 on vipc2520
   Task   260 k-point    68 on vipc2520
   Task   261 k-point    68 on vipc2520
   Task   262 k-point    68 on vipc2520
   Task   263 k-point    68 on vipc2520
   Task   264 k-point    69 on vipc2520
   Task   265 k-point    69 on vipc2520
   Task   266 k-point    69 on vipc2520
   Task   267 k-point    69 on vipc2520
   Task   268 k-point    70 on vipc2520
   Task   269 k-point    70 on vipc2520
   Task   270 k-point    70 on vipc2520
   Task   271 k-point    70 on vipc2520
   Task   272 k-point    71 on vipc2520
   Task   273 k-point    71 on vipc2520
   Task   274 k-point    71 on vipc2520
   Task   275 k-point    71 on vipc2520
   Task   276 k-point    72 on vipc2520
   Task   277 k-point    72 on vipc2520
   Task   278 k-point    72 on vipc2520
   Task   279 k-point    72 on vipc2520
   Task   280 k-point    73 on vipc2520
   Task   281 k-point    73 on vipc2520
   Task   282 k-point    73 on vipc2520
   Task   283 k-point    73 on vipc2520
   Task   284 k-point    74 on vipc2520
   Task   285 k-point    74 on vipc2520
   Task   286 k-point    74 on vipc2520
   Task   287 k-point    74 on vipc2520
   Task   288 k-point    75 on vipc2520
   Task   289 k-point    75 on vipc2520
   Task   290 k-point    75 on vipc2520
   Task   291 k-point    76 on vipc2520
   Task   292 k-point    76 on vipc2520
   Task   293 k-point    76 on vipc2520
   Task   294 k-point    76 on vipc2520
   Task   295 k-point    77 on vipc2520
   Task   296 k-point    77 on vipc2520
   Task   297 k-point    77 on vipc2520
   Task   298 k-point    77 on vipc2520
   Task   299 k-point    78 on vipc2520
   Task   300 k-point    78 on vipc2520
   Task   301 k-point    78 on vipc2520
   Task   302 k-point    78 on vipc2520
   Task   303 k-point    79 on vipc2520
   Task   304 k-point    79 on vipc2520
   Task   305 k-point    79 on vipc2520
   Task   306 k-point    79 on vipc2520
   Task   307 k-point    80 on vipc2520
   Task   308 k-point    80 on vipc2520
   Task   309 k-point    80 on vipc2520
   Task   310 k-point    80 on vipc2520
   Task   311 k-point    81 on vipc2520
   Task   312 k-point    81 on vipc2520
   Task   313 k-point    81 on vipc2520
   Task   314 k-point    81 on vipc2520
   Task   315 k-point    82 on vipc2520
   Task   316 k-point    82 on vipc2520
   Task   317 k-point    82 on vipc2520
   Task   318 k-point    82 on vipc2520
   Task   319 k-point    83 on vipc2520
   Task   320 k-point    83 on vipc2520
   Task   321 k-point    83 on vipc2520
   Task   322 k-point    84 on vipc2520
   Task   323 k-point    84 on vipc2520
   Task   324 k-point    84 on vipc2520
   Task   325 k-point    84 on vipc2520
   Task   326 k-point    85 on vipc2520
   Task   327 k-point    85 on vipc2520
   Task   328 k-point    85 on vipc2520
   Task   329 k-point    85 on vipc2520
   Task   330 k-point    86 on vipc2520
   Task   331 k-point    86 on vipc2520
   Task   332 k-point    86 on vipc2520
   Task   333 k-point    86 on vipc2520
   Task   334 k-point    87 on vipc2520
   Task   335 k-point    87 on vipc2520
   Task   336 k-point    87 on vipc2520
   Task   337 k-point    87 on vipc2520
   Task   338 k-point    88 on vipc2520
   Task   339 k-point    88 on vipc2520
   Task   340 k-point    88 on vipc2520
   Task   341 k-point    88 on vipc2520
   Task   342 k-point    89 on vipc2520
   Task   343 k-point    89 on vipc2520
   Task   344 k-point    89 on vipc2520
   Task   345 k-point    89 on vipc2520
   Task   346 k-point    90 on vipc2520
   Task   347 k-point    90 on vipc2520
   Task   348 k-point    90 on vipc2520
   Task   349 k-point    90 on vipc2520
   Task   350 k-point    91 on vipc2520
   Task   351 k-point    91 on vipc2520
   Task   352 k-point    91 on vipc2520
   Task   353 k-point    92 on vipc2520
   Task   354 k-point    92 on vipc2520
   Task   355 k-point    92 on vipc2520
   Task   356 k-point    92 on vipc2520
   Task   357 k-point    93 on vipc2520
   Task   358 k-point    93 on vipc2520
   Task   359 k-point    93 on vipc2520
   Task   360 k-point    93 on vipc2520
   Task   361 k-point    94 on vipc2520
   Task   362 k-point    94 on vipc2520
   Task   363 k-point    94 on vipc2520
   Task   364 k-point    94 on vipc2520
   Task   365 k-point    95 on vipc2520
   Task   366 k-point    95 on vipc2520
   Task   367 k-point    95 on vipc2520
   Task   368 k-point    95 on vipc2520
   Task   369 k-point    96 on vipc2520
   Task   370 k-point    96 on vipc2520
   Task   371 k-point    96 on vipc2520
   Task   372 k-point    96 on vipc2520
   Task   373 k-point    97 on vipc2520
   Task   374 k-point    97 on vipc2520
   Task   375 k-point    97 on vipc2520
   Task   376 k-point    97 on vipc2520
   Task   377 k-point    98 on vipc2520
   Task   378 k-point    98 on vipc2520
   Task   379 k-point    98 on vipc2520
   Task   380 k-point    98 on vipc2520
   Task   381 k-point    99 on vipc2520
   Task   382 k-point    99 on vipc2520
   Task   383 k-point    99 on vipc2520
   Task   384 k-point   100 on vipc2522
   Task   385 k-point   100 on vipc2522
   Task   386 k-point   100 on vipc2522
   Task   387 k-point   100 on vipc2522
   Task   388 k-point   101 on vipc2522
   Task   389 k-point   101 on vipc2522
   Task   390 k-point   101 on vipc2522
   Task   391 k-point   101 on vipc2522
   Task   392 k-point   102 on vipc2522
   Task   393 k-point   102 on vipc2522
   Task   394 k-point   102 on vipc2522
   Task   395 k-point   102 on vipc2522
   Task   396 k-point   103 on vipc2522
   Task   397 k-point   103 on vipc2522
   Task   398 k-point   103 on vipc2522
   Task   399 k-point   103 on vipc2522
   Task   400 k-point   104 on vipc2522
   Task   401 k-point   104 on vipc2522
   Task   402 k-point   104 on vipc2522
   Task   403 k-point   104 on vipc2522
   Task   404 k-point   105 on vipc2522
   Task   405 k-point   105 on vipc2522
   Task   406 k-point   105 on vipc2522
   Task   407 k-point   105 on vipc2522
   Task   408 k-point   106 on vipc2522
   Task   409 k-point   106 on vipc2522
   Task   410 k-point   106 on vipc2522
   Task   411 k-point   106 on vipc2522
   Task   412 k-point   107 on vipc2522
   Task   413 k-point   107 on vipc2522
   Task   414 k-point   107 on vipc2522
   Task   415 k-point   107 on vipc2522
   Task   416 k-point   108 on vipc2522
   Task   417 k-point   108 on vipc2522
   Task   418 k-point   108 on vipc2522
   Task   419 k-point   109 on vipc2522
   Task   420 k-point   109 on vipc2522
   Task   421 k-point   109 on vipc2522
   Task   422 k-point   109 on vipc2522
   Task   423 k-point   110 on vipc2522
   Task   424 k-point   110 on vipc2522
   Task   425 k-point   110 on vipc2522
   Task   426 k-point   110 on vipc2522
   Task   427 k-point   111 on vipc2522
   Task   428 k-point   111 on vipc2522
   Task   429 k-point   111 on vipc2522
   Task   430 k-point   111 on vipc2522
   Task   431 k-point   112 on vipc2522
   Task   432 k-point   112 on vipc2522
   Task   433 k-point   112 on vipc2522
   Task   434 k-point   112 on vipc2522
   Task   435 k-point   113 on vipc2522
   Task   436 k-point   113 on vipc2522
   Task   437 k-point   113 on vipc2522
   Task   438 k-point   113 on vipc2522
   Task   439 k-point   114 on vipc2522
   Task   440 k-point   114 on vipc2522
   Task   441 k-point   114 on vipc2522
   Task   442 k-point   114 on vipc2522
   Task   443 k-point   115 on vipc2522
   Task   444 k-point   115 on vipc2522
   Task   445 k-point   115 on vipc2522
   Task   446 k-point   115 on vipc2522
   Task   447 k-point   116 on vipc2522
   Task   448 k-point   116 on vipc2522
   Task   449 k-point   116 on vipc2522
   Task   450 k-point   117 on vipc2522
   Task   451 k-point   117 on vipc2522
   Task   452 k-point   117 on vipc2522
   Task   453 k-point   117 on vipc2522
   Task   454 k-point   118 on vipc2522
   Task   455 k-point   118 on vipc2522
   Task   456 k-point   118 on vipc2522
   Task   457 k-point   118 on vipc2522
   Task   458 k-point   119 on vipc2522
   Task   459 k-point   119 on vipc2522
   Task   460 k-point   119 on vipc2522
   Task   461 k-point   119 on vipc2522
   Task   462 k-point   120 on vipc2522
   Task   463 k-point   120 on vipc2522
   Task   464 k-point   120 on vipc2522
   Task   465 k-point   120 on vipc2522
   Task   466 k-point   121 on vipc2522
   Task   467 k-point   121 on vipc2522
   Task   468 k-point   121 on vipc2522
   Task   469 k-point   121 on vipc2522
   Task   470 k-point   122 on vipc2522
   Task   471 k-point   122 on vipc2522
   Task   472 k-point   122 on vipc2522
   Task   473 k-point   122 on vipc2522
   Task   474 k-point   123 on vipc2522
   Task   475 k-point   123 on vipc2522
   Task   476 k-point   123 on vipc2522
   Task   477 k-point   123 on vipc2522
   Task   478 k-point   124 on vipc2522
   Task   479 k-point   124 on vipc2522
   Task   480 k-point   124 on vipc2522
   Task   481 k-point   125 on vipc2522
   Task   482 k-point   125 on vipc2522
   Task   483 k-point   125 on vipc2522
   Task   484 k-point   125 on vipc2522
   Task   485 k-point   126 on vipc2522
   Task   486 k-point   126 on vipc2522
   Task   487 k-point   126 on vipc2522
   Task   488 k-point   126 on vipc2522
   Task   489 k-point   127 on vipc2522
   Task   490 k-point   127 on vipc2522
   Task   491 k-point   127 on vipc2522
   Task   492 k-point   127 on vipc2522
   Task   493 k-point   128 on vipc2522
   Task   494 k-point   128 on vipc2522
   Task   495 k-point   128 on vipc2522
   Task   496 k-point   128 on vipc2522
   Task   497 k-point   129 on vipc2522
   Task   498 k-point   129 on vipc2522
   Task   499 k-point   129 on vipc2522
   Task   500 k-point   129 on vipc2522
   Task   501 k-point   130 on vipc2522
   Task   502 k-point   130 on vipc2522
   Task   503 k-point   130 on vipc2522
   Task   504 k-point   130 on vipc2522
   Task   505 k-point   131 on vipc2522
   Task   506 k-point   131 on vipc2522
   Task   507 k-point   131 on vipc2522
   Task   508 k-point   131 on vipc2522
   Task   509 k-point   132 on vipc2522
   Task   510 k-point   132 on vipc2522
   Task   511 k-point   132 on vipc2522
  K-point:     1 Tasks:     4 split into      2 X      2 BLACS grid
  Calculating block size based on n_basis =          464  max_nprow =            3  max_npcol =            2
  ScaLAPACK block size set to:           16
  Allocating        0.879 MB for ovlp_complex
  Allocating        0.879 MB for ham_complex
  Allocating        0.879 MB for eigenvec_complex
  Required Scalapack workspace - INTEGER:            1  REAL:             1  COMPLEX:            1
  Available memory per node after initialize_scalapack [GB]:    486.96
  Available memory per node after aims_elsi_init_scf [GB]:    486.96
  Available memory per node after initialize_fixed_grids [GB]:    487.00
  Partitioning the integration grid into batches with parallel hashing+maxmin method.
  | Number of batches:     2568
  | Maximal batch size:     112
  | Minimal batch size:       1
  | Average batch size:      74.368
  | Standard deviation of batch sizes:      16.626

  Integration load balanced across   512 MPI tasks.
  Work distribution over tasks is as follows:
  Task     0 has        345 integration points.
  Task     1 has        402 integration points.
  Task     2 has        413 integration points.
  Task     3 has        370 integration points.
  Task     4 has        371 integration points.
  Task     5 has        360 integration points.
  Task     6 has        398 integration points.
  Task     7 has        412 integration points.
  Task     8 has        396 integration points.
  Task     9 has        386 integration points.
  Task    10 has        339 integration points.
  Task    11 has        390 integration points.
  Task    12 has        355 integration points.
  Task    13 has        344 integration points.
  Task    14 has        362 integration points.
  Task    15 has        350 integration points.
  Task    16 has        387 integration points.
  Task    17 has        425 integration points.
  Task    18 has        437 integration points.
  Task    19 has        340 integration points.
  Task    20 has        425 integration points.
  Task    21 has        386 integration points.
  Task    22 has        391 integration points.
  Task    23 has        366 integration points.
  Task    24 has        366 integration points.
  Task    25 has        338 integration points.
  Task    26 has        368 integration points.
  Task    27 has        428 integration points.
  Task    28 has        368 integration points.
  Task    29 has        378 integration points.
  Task    30 has        365 integration points.
  Task    31 has        411 integration points.
  Task    32 has        368 integration points.
  Task    33 has        432 integration points.
  Task    34 has        335 integration points.
  Task    35 has        361 integration points.
  Task    36 has        349 integration points.
  Task    37 has        396 integration points.
  Task    38 has        351 integration points.
  Task    39 has        359 integration points.
  Task    40 has        336 integration points.
  Task    41 has        343 integration points.
  Task    42 has        344 integration points.
  Task    43 has        381 integration points.
  Task    44 has        390 integration points.
  Task    45 has        353 integration points.
  Task    46 has        341 integration points.
  Task    47 has        356 integration points.
  Task    48 has        394 integration points.
  Task    49 has        370 integration points.
  Task    50 has        347 integration points.
  Task    51 has        382 integration points.
  Task    52 has        390 integration points.
  Task    53 has        391 integration points.
  Task    54 has        383 integration points.
  Task    55 has        392 integration points.
  Task    56 has        398 integration points.
  Task    57 has        412 integration points.
  Task    58 has        347 integration points.
  Task    59 has        397 integration points.
  Task    60 has        345 integration points.
  Task    61 has        395 integration points.
  Task    62 has        346 integration points.
  Task    63 has        358 integration points.
  Task    64 has        377 integration points.
  Task    65 has        347 integration points.
  Task    66 has        353 integration points.
  Task    67 has        428 integration points.
  Task    68 has        382 integration points.
  Task    69 has        382 integration points.
  Task    70 has        365 integration points.
  Task    71 has        378 integration points.
  Task    72 has        335 integration points.
  Task    73 has        355 integration points.
  Task    74 has        378 integration points.
  Task    75 has        361 integration points.
  Task    76 has        356 integration points.
  Task    77 has        352 integration points.
  Task    78 has        404 integration points.
  Task    79 has        351 integration points.
  Task    80 has        371 integration points.
  Task    81 has        436 integration points.
  Task    82 has        373 integration points.
  Task    83 has        369 integration points.
  Task    84 has        359 integration points.
  Task    85 has        343 integration points.
  Task    86 has        360 integration points.
  Task    87 has        375 integration points.
  Task    88 has        335 integration points.
  Task    89 has        369 integration points.
  Task    90 has        392 integration points.
  Task    91 has        378 integration points.
  Task    92 has        381 integration points.
  Task    93 has        383 integration points.
  Task    94 has        375 integration points.
  Task    95 has        349 integration points.
  Task    96 has        378 integration points.
  Task    97 has        393 integration points.
  Task    98 has        427 integration points.
  Task    99 has        381 integration points.
  Task   100 has        372 integration points.
  Task   101 has        351 integration points.
  Task   102 has        338 integration points.
  Task   103 has        409 integration points.
  Task   104 has        394 integration points.
  Task   105 has        346 integration points.
  Task   106 has        338 integration points.
  Task   107 has        340 integration points.
  Task   108 has        343 integration points.
  Task   109 has        344 integration points.
  Task   110 has        355 integration points.
  Task   111 has        388 integration points.
  Task   112 has        400 integration points.
  Task   113 has        380 integration points.
  Task   114 has        369 integration points.
  Task   115 has        350 integration points.
  Task   116 has        353 integration points.
  Task   117 has        348 integration points.
  Task   118 has        393 integration points.
  Task   119 has        348 integration points.
  Task   120 has        407 integration points.
  Task   121 has        386 integration points.
  Task   122 has        360 integration points.
  Task   123 has        400 integration points.
  Task   124 has        368 integration points.
  Task   125 has        389 integration points.
  Task   126 has        337 integration points.
  Task   127 has        354 integration points.
  Task   128 has        366 integration points.
  Task   129 has        364 integration points.
  Task   130 has        414 integration points.
  Task   131 has        353 integration points.
  Task   132 has        354 integration points.
  Task   133 has        403 integration points.
  Task   134 has        388 integration points.
  Task   135 has        348 integration points.
  Task   136 has        357 integration points.
  Task   137 has        347 integration points.
  Task   138 has        362 integration points.
  Task   139 has        385 integration points.
  Task   140 has        369 integration points.
  Task   141 has        392 integration points.
  Task   142 has        351 integration points.
  Task   143 has        346 integration points.
  Task   144 has        383 integration points.
  Task   145 has        377 integration points.
  Task   146 has        363 integration points.
  Task   147 has        366 integration points.
  Task   148 has        360 integration points.
  Task   149 has        354 integration points.
  Task   150 has        387 integration points.
  Task   151 has        380 integration points.
  Task   152 has        368 integration points.
  Task   153 has        395 integration points.
  Task   154 has        376 integration points.
  Task   155 has        387 integration points.
  Task   156 has        353 integration points.
  Task   157 has        377 integration points.
  Task   158 has        395 integration points.
  Task   159 has        414 integration points.
  Task   160 has        389 integration points.
  Task   161 has        349 integration points.
  Task   162 has        336 integration points.
  Task   163 has        384 integration points.
  Task   164 has        378 integration points.
  Task   165 has        360 integration points.
  Task   166 has        354 integration points.
  Task   167 has        399 integration points.
  Task   168 has        351 integration points.
  Task   169 has        354 integration points.
  Task   170 has        339 integration points.
  Task   171 has        365 integration points.
  Task   172 has        364 integration points.
  Task   173 has        396 integration points.
  Task   174 has        362 integration points.
  Task   175 has        395 integration points.
  Task   176 has        397 integration points.
  Task   177 has        388 integration points.
  Task   178 has        345 integration points.
  Task   179 has        344 integration points.
  Task   180 has        353 integration points.
  Task   181 has        356 integration points.
  Task   182 has        386 integration points.
  Task   183 has        384 integration points.
  Task   184 has        409 integration points.
  Task   185 has        348 integration points.
  Task   186 has        362 integration points.
  Task   187 has        371 integration points.
  Task   188 has        367 integration points.
  Task   189 has        346 integration points.
  Task   190 has        347 integration points.
  Task   191 has        356 integration points.
  Task   192 has        393 integration points.
  Task   193 has        413 integration points.
  Task   194 has        359 integration points.
  Task   195 has        403 integration points.
  Task   196 has        367 integration points.
  Task   197 has        380 integration points.
  Task   198 has        410 integration points.
  Task   199 has        385 integration points.
  Task   200 has        392 integration points.
  Task   201 has        373 integration points.
  Task   202 has        396 integration points.
  Task   203 has        338 integration points.
  Task   204 has        355 integration points.
  Task   205 has        395 integration points.
  Task   206 has        383 integration points.
  Task   207 has        385 integration points.
  Task   208 has        390 integration points.
  Task   209 has        382 integration points.
  Task   210 has        365 integration points.
  Task   211 has        412 integration points.
  Task   212 has        344 integration points.
  Task   213 has        384 integration points.
  Task   214 has        382 integration points.
  Task   215 has        387 integration points.
  Task   216 has        358 integration points.
  Task   217 has        353 integration points.
  Task   218 has        398 integration points.
  Task   219 has        372 integration points.
  Task   220 has        439 integration points.
  Task   221 has        379 integration points.
  Task   222 has        365 integration points.
  Task   223 has        383 integration points.
  Task   224 has        362 integration points.
  Task   225 has        409 integration points.
  Task   226 has        388 integration points.
  Task   227 has        393 integration points.
  Task   228 has        355 integration points.
  Task   229 has        398 integration points.
  Task   230 has        431 integration points.
  Task   231 has        402 integration points.
  Task   232 has        357 integration points.
  Task   233 has        337 integration points.
  Task   234 has        415 integration points.
  Task   235 has        347 integration points.
  Task   236 has        396 integration points.
  Task   237 has        356 integration points.
  Task   238 has        341 integration points.
  Task   239 has        389 integration points.
  Task   240 has        367 integration points.
  Task   241 has        353 integration points.
  Task   242 has        386 integration points.
  Task   243 has        345 integration points.
  Task   244 has        411 integration points.
  Task   245 has        390 integration points.
  Task   246 has        393 integration points.
  Task   247 has        339 integration points.
  Task   248 has        356 integration points.
  Task   249 has        364 integration points.
  Task   250 has        385 integration points.
  Task   251 has        363 integration points.
  Task   252 has        350 integration points.
  Task   253 has        344 integration points.
  Task   254 has        381 integration points.
  Task   255 has        358 integration points.
  Task   256 has        390 integration points.
  Task   257 has        369 integration points.
  Task   258 has        350 integration points.
  Task   259 has        363 integration points.
  Task   260 has        366 integration points.
  Task   261 has        335 integration points.
  Task   262 has        388 integration points.
  Task   263 has        347 integration points.
  Task   264 has        366 integration points.
  Task   265 has        404 integration points.
  Task   266 has        354 integration points.
  Task   267 has        362 integration points.
  Task   268 has        395 integration points.
  Task   269 has        364 integration points.
  Task   270 has        402 integration points.
  Task   271 has        391 integration points.
  Task   272 has        410 integration points.
  Task   273 has        361 integration points.
  Task   274 has        386 integration points.
  Task   275 has        348 integration points.
  Task   276 has        423 integration points.
  Task   277 has        352 integration points.
  Task   278 has        379 integration points.
  Task   279 has        343 integration points.
  Task   280 has        377 integration points.
  Task   281 has        373 integration points.
  Task   282 has        394 integration points.
  Task   283 has        350 integration points.
  Task   284 has        363 integration points.
  Task   285 has        366 integration points.
  Task   286 has        351 integration points.
  Task   287 has        346 integration points.
  Task   288 has        336 integration points.
  Task   289 has        352 integration points.
  Task   290 has        378 integration points.
  Task   291 has        342 integration points.
  Task   292 has        397 integration points.
  Task   293 has        368 integration points.
  Task   294 has        361 integration points.
  Task   295 has        429 integration points.
  Task   296 has        393 integration points.
  Task   297 has        345 integration points.
  Task   298 has        393 integration points.
  Task   299 has        368 integration points.
  Task   300 has        408 integration points.
  Task   301 has        380 integration points.
  Task   302 has        410 integration points.
  Task   303 has        389 integration points.
  Task   304 has        389 integration points.
  Task   305 has        399 integration points.
  Task   306 has        392 integration points.
  Task   307 has        359 integration points.
  Task   308 has        409 integration points.
  Task   309 has        392 integration points.
  Task   310 has        411 integration points.
  Task   311 has        392 integration points.
  Task   312 has        374 integration points.
  Task   313 has        360 integration points.
  Task   314 has        396 integration points.
  Task   315 has        358 integration points.
  Task   316 has        348 integration points.
  Task   317 has        387 integration points.
  Task   318 has        350 integration points.
  Task   319 has        370 integration points.
  Task   320 has        377 integration points.
  Task   321 has        399 integration points.
  Task   322 has        358 integration points.
  Task   323 has        413 integration points.
  Task   324 has        366 integration points.
  Task   325 has        366 integration points.
  Task   326 has        349 integration points.
  Task   327 has        362 integration points.
  Task   328 has        372 integration points.
  Task   329 has        352 integration points.
  Task   330 has        345 integration points.
  Task   331 has        364 integration points.
  Task   332 has        376 integration points.
  Task   333 has        345 integration points.
  Task   334 has        427 integration points.
  Task   335 has        346 integration points.
  Task   336 has        354 integration points.
  Task   337 has        357 integration points.
  Task   338 has        394 integration points.
  Task   339 has        413 integration points.
  Task   340 has        356 integration points.
  Task   341 has        345 integration points.
  Task   342 has        351 integration points.
  Task   343 has        387 integration points.
  Task   344 has        433 integration points.
  Task   345 has        411 integration points.
  Task   346 has        357 integration points.
  Task   347 has        386 integration points.
  Task   348 has        371 integration points.
  Task   349 has        341 integration points.
  Task   350 has        362 integration points.
  Task   351 has        365 integration points.
  Task   352 has        335 integration points.
  Task   353 has        370 integration points.
  Task   354 has        346 integration points.
  Task   355 has        378 integration points.
  Task   356 has        349 integration points.
  Task   357 has        365 integration points.
  Task   358 has        381 integration points.
  Task   359 has        351 integration points.
  Task   360 has        356 integration points.
  Task   361 has        356 integration points.
  Task   362 has        391 integration points.
  Task   363 has        430 integration points.
  Task   364 has        352 integration points.
  Task   365 has        410 integration points.
  Task   366 has        390 integration points.
  Task   367 has        367 integration points.
  Task   368 has        407 integration points.
  Task   369 has        375 integration points.
  Task   370 has        366 integration points.
  Task   371 has        337 integration points.
  Task   372 has        382 integration points.
  Task   373 has        348 integration points.
  Task   374 has        354 integration points.
  Task   375 has        340 integration points.
  Task   376 has        349 integration points.
  Task   377 has        347 integration points.
  Task   378 has        359 integration points.
  Task   379 has        368 integration points.
  Task   380 has        358 integration points.
  Task   381 has        354 integration points.
  Task   382 has        385 integration points.
  Task   383 has        394 integration points.
  Task   384 has        394 integration points.
  Task   385 has        364 integration points.
  Task   386 has        346 integration points.
  Task   387 has        382 integration points.
  Task   388 has        360 integration points.
  Task   389 has        380 integration points.
  Task   390 has        342 integration points.
  Task   391 has        353 integration points.
  Task   392 has        335 integration points.
  Task   393 has        391 integration points.
  Task   394 has        394 integration points.
  Task   395 has        339 integration points.
  Task   396 has        391 integration points.
  Task   397 has        374 integration points.
  Task   398 has        413 integration points.
  Task   399 has        341 integration points.
  Task   400 has        357 integration points.
  Task   401 has        364 integration points.
  Task   402 has        353 integration points.
  Task   403 has        404 integration points.
  Task   404 has        356 integration points.
  Task   405 has        392 integration points.
  Task   406 has        345 integration points.
  Task   407 has        367 integration points.
  Task   408 has        352 integration points.
  Task   409 has        341 integration points.
  Task   410 has        354 integration points.
  Task   411 has        397 integration points.
  Task   412 has        381 integration points.
  Task   413 has        383 integration points.
  Task   414 has        358 integration points.
  Task   415 has        352 integration points.
  Task   416 has        393 integration points.
  Task   417 has        434 integration points.
  Task   418 has        410 integration points.
  Task   419 has        393 integration points.
  Task   420 has        367 integration points.
  Task   421 has        393 integration points.
  Task   422 has        354 integration points.
  Task   423 has        338 integration points.
  Task   424 has        355 integration points.
  Task   425 has        364 integration points.
  Task   426 has        382 integration points.
  Task   427 has        354 integration points.
  Task   428 has        386 integration points.
  Task   429 has        334 integration points.
  Task   430 has        425 integration points.
  Task   431 has        354 integration points.
  Task   432 has        374 integration points.
  Task   433 has        377 integration points.
  Task   434 has        374 integration points.
  Task   435 has        401 integration points.
  Task   436 has        384 integration points.
  Task   437 has        350 integration points.
  Task   438 has        394 integration points.
  Task   439 has        391 integration points.
  Task   440 has        378 integration points.
  Task   441 has        400 integration points.
  Task   442 has        343 integration points.
  Task   443 has        371 integration points.
  Task   444 has        361 integration points.
  Task   445 has        394 integration points.
  Task   446 has        341 integration points.
  Task   447 has        395 integration points.
  Task   448 has        349 integration points.
  Task   449 has        408 integration points.
  Task   450 has        432 integration points.
  Task   451 has        371 integration points.
  Task   452 has        360 integration points.
  Task   453 has        383 integration points.
  Task   454 has        364 integration points.
  Task   455 has        375 integration points.
  Task   456 has        383 integration points.
  Task   457 has        363 integration points.
  Task   458 has        384 integration points.
  Task   459 has        389 integration points.
  Task   460 has        378 integration points.
  Task   461 has        398 integration points.
  Task   462 has        367 integration points.
  Task   463 has        363 integration points.
  Task   464 has        380 integration points.
  Task   465 has        393 integration points.
  Task   466 has        363 integration points.
  Task   467 has        339 integration points.
  Task   468 has        348 integration points.
  Task   469 has        360 integration points.
  Task   470 has        358 integration points.
  Task   471 has        353 integration points.
  Task   472 has        414 integration points.
  Task   473 has        365 integration points.
  Task   474 has        383 integration points.
  Task   475 has        347 integration points.
  Task   476 has        379 integration points.
  Task   477 has        351 integration points.
  Task   478 has        337 integration points.
  Task   479 has        381 integration points.
  Task   480 has        356 integration points.
  Task   481 has        367 integration points.
  Task   482 has        396 integration points.
  Task   483 has        417 integration points.
  Task   484 has        363 integration points.
  Task   485 has        400 integration points.
  Task   486 has        410 integration points.
  Task   487 has        435 integration points.
  Task   488 has        369 integration points.
  Task   489 has        362 integration points.
  Task   490 has        407 integration points.
  Task   491 has        382 integration points.
  Task   492 has        345 integration points.
  Task   493 has        369 integration points.
  Task   494 has        396 integration points.
  Task   495 has        366 integration points.
  Task   496 has        388 integration points.
  Task   497 has        386 integration points.
  Task   498 has        350 integration points.
  Task   499 has        411 integration points.
  Task   500 has        351 integration points.
  Task   501 has        429 integration points.
  Task   502 has        355 integration points.
  Task   503 has        380 integration points.
  Task   504 has        351 integration points.
  Task   505 has        344 integration points.
  Task   506 has        367 integration points.
  Task   507 has        373 integration points.
  Task   508 has        356 integration points.
  Task   509 has        369 integration points.
  Task   510 has        336 integration points.
  Task   511 has        346 integration points.
  Available memory per node after partition_grid [GB]:    487.05
  Initializing partition tables, free-atom densities, potentials, etc. across the integration grid (initialize_grid_storage).
  | initialize_grid_storage: Actual outermost partition radius vs. multipole_radius_free
  | (-- VB: in principle, multipole_radius_free should be larger, hence this output)
  | Species        1: Confinement radius =              5.500000000000000 AA, multipole_radius_free =              5.555717568450569 AA.
  | Species        1: outer_partition_radius set to              5.555717568450569 AA .
  | Species        2: Confinement radius =              4.999999999999999 AA, multipole_radius_free =              5.048384829883283 AA.
  | Species        2: outer_partition_radius set to              5.048384829883283 AA .
  | The sparse table of interatomic distances needs       5391.22 kbyte instead of     13292.17 kbyte of memory.
  | Net number of integration points:   190976
  | of which are non-zero points    :   148416
  | Numerical average free-atom electrostatic potential    :    -17.35307346 eV
  Available memory per node after initialize_grid_storage_p1 [GB]:    486.94
  Renormalizing the initial density to the exact electron count on the 3D integration grid.
  | Initial density: Formal number of electrons (from input files) :     320.0000000000
  | Integrated number of electrons on 3D grid     :     319.9913990478
  | Charge integration error                      :      -0.0086009522
  | Normalization factor for density and gradient :       1.0000268787
  Renormalizing the free-atom superposition density to the exact electron count on the 3D integration grid.
  | Formal number of electrons (from input files) :     320.0000000000
  | Integrated number of electrons on 3D grid     :     319.9913990478
  | Charge integration error                      :      -0.0086009522
  | Normalization factor for density and gradient :       1.0000268787
  Obtaining max. number of non-zero basis functions in each batch (get_n_compute_maxes).
  | Maximal number of non-zero basis functions:      772 in task     0
  | Maximal number of non-zero basis functions:      788 in task     1
  | Maximal number of non-zero basis functions:      774 in task     2
  | Maximal number of non-zero basis functions:      783 in task     3
  | Maximal number of non-zero basis functions:      814 in task     4
  | Maximal number of non-zero basis functions:      785 in task     5
  | Maximal number of non-zero basis functions:      780 in task     6
  | Maximal number of non-zero basis functions:      800 in task     7
  | Maximal number of non-zero basis functions:      813 in task     8
  | Maximal number of non-zero basis functions:      821 in task     9
  | Maximal number of non-zero basis functions:      782 in task    10
  | Maximal number of non-zero basis functions:      807 in task    11
  | Maximal number of non-zero basis functions:      844 in task    12
  | Maximal number of non-zero basis functions:      801 in task    13
  | Maximal number of non-zero basis functions:      794 in task    14
  | Maximal number of non-zero basis functions:      761 in task    15
  | Maximal number of non-zero basis functions:      781 in task    16
  | Maximal number of non-zero basis functions:      775 in task    17
  | Maximal number of non-zero basis functions:      823 in task    18
  | Maximal number of non-zero basis functions:      845 in task    19
  | Maximal number of non-zero basis functions:      798 in task    20
  | Maximal number of non-zero basis functions:      791 in task    21
  | Maximal number of non-zero basis functions:      819 in task    22
  | Maximal number of non-zero basis functions:      761 in task    23
  | Maximal number of non-zero basis functions:      773 in task    24
  | Maximal number of non-zero basis functions:      817 in task    25
  | Maximal number of non-zero basis functions:      845 in task    26
  | Maximal number of non-zero basis functions:      812 in task    27
  | Maximal number of non-zero basis functions:      774 in task    28
  | Maximal number of non-zero basis functions:      769 in task    29
  | Maximal number of non-zero basis functions:      782 in task    30
  | Maximal number of non-zero basis functions:      859 in task    31
  | Maximal number of non-zero basis functions:      818 in task    32
  | Maximal number of non-zero basis functions:      778 in task    33
  | Maximal number of non-zero basis functions:      780 in task    34
  | Maximal number of non-zero basis functions:      780 in task    35
  | Maximal number of non-zero basis functions:      825 in task    36
  | Maximal number of non-zero basis functions:      795 in task    37
  | Maximal number of non-zero basis functions:      782 in task    38
  | Maximal number of non-zero basis functions:      782 in task    39
  | Maximal number of non-zero basis functions:      775 in task    40
  | Maximal number of non-zero basis functions:      843 in task    41
  | Maximal number of non-zero basis functions:      774 in task    42
  | Maximal number of non-zero basis functions:      798 in task    43
  | Maximal number of non-zero basis functions:      788 in task    44
  | Maximal number of non-zero basis functions:      834 in task    45
  | Maximal number of non-zero basis functions:      818 in task    46
  | Maximal number of non-zero basis functions:      772 in task    47
  | Maximal number of non-zero basis functions:      845 in task    48
  | Maximal number of non-zero basis functions:      774 in task    49
  | Maximal number of non-zero basis functions:      784 in task    50
  | Maximal number of non-zero basis functions:      799 in task    51
  | Maximal number of non-zero basis functions:      776 in task    52
  | Maximal number of non-zero basis functions:      778 in task    53
  | Maximal number of non-zero basis functions:      799 in task    54
  | Maximal number of non-zero basis functions:      808 in task    55
  | Maximal number of non-zero basis functions:      807 in task    56
  | Maximal number of non-zero basis functions:      801 in task    57
  | Maximal number of non-zero basis functions:      816 in task    58
  | Maximal number of non-zero basis functions:      804 in task    59
  | Maximal number of non-zero basis functions:      794 in task    60
  | Maximal number of non-zero basis functions:      781 in task    61
  | Maximal number of non-zero basis functions:      788 in task    62
  | Maximal number of non-zero basis functions:      769 in task    63
  | Maximal number of non-zero basis functions:      794 in task    64
  | Maximal number of non-zero basis functions:      770 in task    65
  | Maximal number of non-zero basis functions:      813 in task    66
  | Maximal number of non-zero basis functions:      798 in task    67
  | Maximal number of non-zero basis functions:      795 in task    68
  | Maximal number of non-zero basis functions:      794 in task    69
  | Maximal number of non-zero basis functions:      784 in task    70
  | Maximal number of non-zero basis functions:      803 in task    71
  | Maximal number of non-zero basis functions:      801 in task    72
  | Maximal number of non-zero basis functions:      784 in task    73
  | Maximal number of non-zero basis functions:      809 in task    74
  | Maximal number of non-zero basis functions:      798 in task    75
  | Maximal number of non-zero basis functions:      779 in task    76
  | Maximal number of non-zero basis functions:      788 in task    77
  | Maximal number of non-zero basis functions:      794 in task    78
  | Maximal number of non-zero basis functions:      778 in task    79
  | Maximal number of non-zero basis functions:      773 in task    80
  | Maximal number of non-zero basis functions:      796 in task    81
  | Maximal number of non-zero basis functions:      815 in task    82
  | Maximal number of non-zero basis functions:      790 in task    83
  | Maximal number of non-zero basis functions:      798 in task    84
  | Maximal number of non-zero basis functions:      780 in task    85
  | Maximal number of non-zero basis functions:      815 in task    86
  | Maximal number of non-zero basis functions:      781 in task    87
  | Maximal number of non-zero basis functions:      781 in task    88
  | Maximal number of non-zero basis functions:      811 in task    89
  | Maximal number of non-zero basis functions:      830 in task    90
  | Maximal number of non-zero basis functions:      825 in task    91
  | Maximal number of non-zero basis functions:      774 in task    92
  | Maximal number of non-zero basis functions:      819 in task    93
  | Maximal number of non-zero basis functions:      824 in task    94
  | Maximal number of non-zero basis functions:      816 in task    95
  | Maximal number of non-zero basis functions:      774 in task    96
  | Maximal number of non-zero basis functions:      804 in task    97
  | Maximal number of non-zero basis functions:      842 in task    98
  | Maximal number of non-zero basis functions:      797 in task    99
  | Maximal number of non-zero basis functions:      797 in task   100
  | Maximal number of non-zero basis functions:      789 in task   101
  | Maximal number of non-zero basis functions:      814 in task   102
  | Maximal number of non-zero basis functions:      786 in task   103
  | Maximal number of non-zero basis functions:      814 in task   104
  | Maximal number of non-zero basis functions:      774 in task   105
  | Maximal number of non-zero basis functions:      801 in task   106
  | Maximal number of non-zero basis functions:      785 in task   107
  | Maximal number of non-zero basis functions:      825 in task   108
  | Maximal number of non-zero basis functions:      774 in task   109
  | Maximal number of non-zero basis functions:      786 in task   110
  | Maximal number of non-zero basis functions:      788 in task   111
  | Maximal number of non-zero basis functions:      778 in task   112
  | Maximal number of non-zero basis functions:      803 in task   113
  | Maximal number of non-zero basis functions:      771 in task   114
  | Maximal number of non-zero basis functions:      809 in task   115
  | Maximal number of non-zero basis functions:      792 in task   116
  | Maximal number of non-zero basis functions:      775 in task   117
  | Maximal number of non-zero basis functions:      772 in task   118
  | Maximal number of non-zero basis functions:      844 in task   119
  | Maximal number of non-zero basis functions:      827 in task   120
  | Maximal number of non-zero basis functions:      799 in task   121
  | Maximal number of non-zero basis functions:      810 in task   122
  | Maximal number of non-zero basis functions:      801 in task   123
  | Maximal number of non-zero basis functions:      789 in task   124
  | Maximal number of non-zero basis functions:      822 in task   125
  | Maximal number of non-zero basis functions:      787 in task   126
  | Maximal number of non-zero basis functions:      764 in task   127
  | Maximal number of non-zero basis functions:      812 in task   128
  | Maximal number of non-zero basis functions:      806 in task   129
  | Maximal number of non-zero basis functions:      806 in task   130
  | Maximal number of non-zero basis functions:      771 in task   131
  | Maximal number of non-zero basis functions:      781 in task   132
  | Maximal number of non-zero basis functions:      882 in task   133
  | Maximal number of non-zero basis functions:      785 in task   134
  | Maximal number of non-zero basis functions:      799 in task   135
  | Maximal number of non-zero basis functions:      794 in task   136
  | Maximal number of non-zero basis functions:      825 in task   137
  | Maximal number of non-zero basis functions:      760 in task   138
  | Maximal number of non-zero basis functions:      816 in task   139
  | Maximal number of non-zero basis functions:      815 in task   140
  | Maximal number of non-zero basis functions:      786 in task   141
  | Maximal number of non-zero basis functions:      798 in task   142
  | Maximal number of non-zero basis functions:      804 in task   143
  | Maximal number of non-zero basis functions:      766 in task   144
  | Maximal number of non-zero basis functions:      789 in task   145
  | Maximal number of non-zero basis functions:      817 in task   146
  | Maximal number of non-zero basis functions:      814 in task   147
  | Maximal number of non-zero basis functions:      781 in task   148
  | Maximal number of non-zero basis functions:      816 in task   149
  | Maximal number of non-zero basis functions:      809 in task   150
  | Maximal number of non-zero basis functions:      776 in task   151
  | Maximal number of non-zero basis functions:      781 in task   152
  | Maximal number of non-zero basis functions:      792 in task   153
  | Maximal number of non-zero basis functions:      780 in task   154
  | Maximal number of non-zero basis functions:      804 in task   155
  | Maximal number of non-zero basis functions:      772 in task   156
  | Maximal number of non-zero basis functions:      793 in task   157
  | Maximal number of non-zero basis functions:      779 in task   158
  | Maximal number of non-zero basis functions:      801 in task   159
  | Maximal number of non-zero basis functions:      809 in task   160
  | Maximal number of non-zero basis functions:      768 in task   161
  | Maximal number of non-zero basis functions:      782 in task   162
  | Maximal number of non-zero basis functions:      793 in task   163
  | Maximal number of non-zero basis functions:      775 in task   164
  | Maximal number of non-zero basis functions:      772 in task   165
  | Maximal number of non-zero basis functions:      796 in task   166
  | Maximal number of non-zero basis functions:      804 in task   167
  | Maximal number of non-zero basis functions:      779 in task   168
  | Maximal number of non-zero basis functions:      800 in task   169
  | Maximal number of non-zero basis functions:      788 in task   170
  | Maximal number of non-zero basis functions:      785 in task   171
  | Maximal number of non-zero basis functions:      807 in task   172
  | Maximal number of non-zero basis functions:      783 in task   173
  | Maximal number of non-zero basis functions:      827 in task   174
  | Maximal number of non-zero basis functions:      832 in task   175
  | Maximal number of non-zero basis functions:      822 in task   176
  | Maximal number of non-zero basis functions:      789 in task   177
  | Maximal number of non-zero basis functions:      775 in task   178
  | Maximal number of non-zero basis functions:      794 in task   179
  | Maximal number of non-zero basis functions:      795 in task   180
  | Maximal number of non-zero basis functions:      793 in task   181
  | Maximal number of non-zero basis functions:      800 in task   182
  | Maximal number of non-zero basis functions:      784 in task   183
  | Maximal number of non-zero basis functions:      818 in task   184
  | Maximal number of non-zero basis functions:      815 in task   185
  | Maximal number of non-zero basis functions:      778 in task   186
  | Maximal number of non-zero basis functions:      788 in task   187
  | Maximal number of non-zero basis functions:      798 in task   188
  | Maximal number of non-zero basis functions:      820 in task   189
  | Maximal number of non-zero basis functions:      803 in task   190
  | Maximal number of non-zero basis functions:      791 in task   191
  | Maximal number of non-zero basis functions:      813 in task   192
  | Maximal number of non-zero basis functions:      859 in task   193
  | Maximal number of non-zero basis functions:      777 in task   194
  | Maximal number of non-zero basis functions:      789 in task   195
  | Maximal number of non-zero basis functions:      816 in task   196
  | Maximal number of non-zero basis functions:      775 in task   197
  | Maximal number of non-zero basis functions:      859 in task   198
  | Maximal number of non-zero basis functions:      819 in task   199
  | Maximal number of non-zero basis functions:      780 in task   200
  | Maximal number of non-zero basis functions:      801 in task   201
  | Maximal number of non-zero basis functions:      859 in task   202
  | Maximal number of non-zero basis functions:      780 in task   203
  | Maximal number of non-zero basis functions:      796 in task   204
  | Maximal number of non-zero basis functions:      784 in task   205
  | Maximal number of non-zero basis functions:      777 in task   206
  | Maximal number of non-zero basis functions:      808 in task   207
  | Maximal number of non-zero basis functions:      776 in task   208
  | Maximal number of non-zero basis functions:      800 in task   209
  | Maximal number of non-zero basis functions:      787 in task   210
  | Maximal number of non-zero basis functions:      828 in task   211
  | Maximal number of non-zero basis functions:      822 in task   212
  | Maximal number of non-zero basis functions:      821 in task   213
  | Maximal number of non-zero basis functions:      800 in task   214
  | Maximal number of non-zero basis functions:      785 in task   215
  | Maximal number of non-zero basis functions:      817 in task   216
  | Maximal number of non-zero basis functions:      793 in task   217
  | Maximal number of non-zero basis functions:      814 in task   218
  | Maximal number of non-zero basis functions:      805 in task   219
  | Maximal number of non-zero basis functions:      778 in task   220
  | Maximal number of non-zero basis functions:      808 in task   221
  | Maximal number of non-zero basis functions:      829 in task   222
  | Maximal number of non-zero basis functions:      837 in task   223
  | Maximal number of non-zero basis functions:      783 in task   224
  | Maximal number of non-zero basis functions:      799 in task   225
  | Maximal number of non-zero basis functions:      816 in task   226
  | Maximal number of non-zero basis functions:      828 in task   227
  | Maximal number of non-zero basis functions:      793 in task   228
  | Maximal number of non-zero basis functions:      816 in task   229
  | Maximal number of non-zero basis functions:      793 in task   230
  | Maximal number of non-zero basis functions:      784 in task   231
  | Maximal number of non-zero basis functions:      786 in task   232
  | Maximal number of non-zero basis functions:      791 in task   233
  | Maximal number of non-zero basis functions:      789 in task   234
  | Maximal number of non-zero basis functions:      827 in task   235
  | Maximal number of non-zero basis functions:      859 in task   236
  | Maximal number of non-zero basis functions:      882 in task   237
  | Maximal number of non-zero basis functions:      776 in task   238
  | Maximal number of non-zero basis functions:      786 in task   239
  | Maximal number of non-zero basis functions:      780 in task   240
  | Maximal number of non-zero basis functions:      783 in task   241
  | Maximal number of non-zero basis functions:      821 in task   242
  | Maximal number of non-zero basis functions:      783 in task   243
  | Maximal number of non-zero basis functions:      796 in task   244
  | Maximal number of non-zero basis functions:      828 in task   245
  | Maximal number of non-zero basis functions:      818 in task   246
  | Maximal number of non-zero basis functions:      845 in task   247
  | Maximal number of non-zero basis functions:      782 in task   248
  | Maximal number of non-zero basis functions:      777 in task   249
  | Maximal number of non-zero basis functions:      781 in task   250
  | Maximal number of non-zero basis functions:      793 in task   251
  | Maximal number of non-zero basis functions:      822 in task   252
  | Maximal number of non-zero basis functions:      777 in task   253
  | Maximal number of non-zero basis functions:      770 in task   254
  | Maximal number of non-zero basis functions:      822 in task   255
  | Maximal number of non-zero basis functions:      782 in task   256
  | Maximal number of non-zero basis functions:      788 in task   257
  | Maximal number of non-zero basis functions:      768 in task   258
  | Maximal number of non-zero basis functions:      794 in task   259
  | Maximal number of non-zero basis functions:      783 in task   260
  | Maximal number of non-zero basis functions:      800 in task   261
  | Maximal number of non-zero basis functions:      800 in task   262
  | Maximal number of non-zero basis functions:      799 in task   263
  | Maximal number of non-zero basis functions:      816 in task   264
  | Maximal number of non-zero basis functions:      816 in task   265
  | Maximal number of non-zero basis functions:      805 in task   266
  | Maximal number of non-zero basis functions:      771 in task   267
  | Maximal number of non-zero basis functions:      791 in task   268
  | Maximal number of non-zero basis functions:      810 in task   269
  | Maximal number of non-zero basis functions:      804 in task   270
  | Maximal number of non-zero basis functions:      814 in task   271
  | Maximal number of non-zero basis functions:      776 in task   272
  | Maximal number of non-zero basis functions:      849 in task   273
  | Maximal number of non-zero basis functions:      831 in task   274
  | Maximal number of non-zero basis functions:      766 in task   275
  | Maximal number of non-zero basis functions:      827 in task   276
  | Maximal number of non-zero basis functions:      792 in task   277
  | Maximal number of non-zero basis functions:      781 in task   278
  | Maximal number of non-zero basis functions:      785 in task   279
  | Maximal number of non-zero basis functions:      845 in task   280
  | Maximal number of non-zero basis functions:      794 in task   281
  | Maximal number of non-zero basis functions:      825 in task   282
  | Maximal number of non-zero basis functions:      826 in task   283
  | Maximal number of non-zero basis functions:      797 in task   284
  | Maximal number of non-zero basis functions:      887 in task   285
  | Maximal number of non-zero basis functions:      784 in task   286
  | Maximal number of non-zero basis functions:      834 in task   287
  | Maximal number of non-zero basis functions:      776 in task   288
  | Maximal number of non-zero basis functions:      887 in task   289
  | Maximal number of non-zero basis functions:      799 in task   290
  | Maximal number of non-zero basis functions:      789 in task   291
  | Maximal number of non-zero basis functions:      844 in task   292
  | Maximal number of non-zero basis functions:      768 in task   293
  | Maximal number of non-zero basis functions:      800 in task   294
  | Maximal number of non-zero basis functions:      800 in task   295
  | Maximal number of non-zero basis functions:      806 in task   296
  | Maximal number of non-zero basis functions:      811 in task   297
  | Maximal number of non-zero basis functions:      794 in task   298
  | Maximal number of non-zero basis functions:      764 in task   299
  | Maximal number of non-zero basis functions:      767 in task   300
  | Maximal number of non-zero basis functions:      849 in task   301
  | Maximal number of non-zero basis functions:      804 in task   302
  | Maximal number of non-zero basis functions:      791 in task   303
  | Maximal number of non-zero basis functions:      792 in task   304
  | Maximal number of non-zero basis functions:      870 in task   305
  | Maximal number of non-zero basis functions:      817 in task   306
  | Maximal number of non-zero basis functions:      783 in task   307
  | Maximal number of non-zero basis functions:      817 in task   308
  | Maximal number of non-zero basis functions:      798 in task   309
  | Maximal number of non-zero basis functions:      764 in task   310
  | Maximal number of non-zero basis functions:      831 in task   311
  | Maximal number of non-zero basis functions:      764 in task   312
  | Maximal number of non-zero basis functions:      819 in task   313
  | Maximal number of non-zero basis functions:      784 in task   314
  | Maximal number of non-zero basis functions:      819 in task   315
  | Maximal number of non-zero basis functions:      793 in task   316
  | Maximal number of non-zero basis functions:      777 in task   317
  | Maximal number of non-zero basis functions:      788 in task   318
  | Maximal number of non-zero basis functions:      799 in task   319
  | Maximal number of non-zero basis functions:      764 in task   320
  | Maximal number of non-zero basis functions:      777 in task   321
  | Maximal number of non-zero basis functions:      794 in task   322
  | Maximal number of non-zero basis functions:      771 in task   323
  | Maximal number of non-zero basis functions:      803 in task   324
  | Maximal number of non-zero basis functions:      807 in task   325
  | Maximal number of non-zero basis functions:      776 in task   326
  | Maximal number of non-zero basis functions:      796 in task   327
  | Maximal number of non-zero basis functions:      783 in task   328
  | Maximal number of non-zero basis functions:      779 in task   329
  | Maximal number of non-zero basis functions:      776 in task   330
  | Maximal number of non-zero basis functions:      786 in task   331
  | Maximal number of non-zero basis functions:      782 in task   332
  | Maximal number of non-zero basis functions:      771 in task   333
  | Maximal number of non-zero basis functions:      816 in task   334
  | Maximal number of non-zero basis functions:      806 in task   335
  | Maximal number of non-zero basis functions:      786 in task   336
  | Maximal number of non-zero basis functions:      822 in task   337
  | Maximal number of non-zero basis functions:      800 in task   338
  | Maximal number of non-zero basis functions:      884 in task   339
  | Maximal number of non-zero basis functions:      777 in task   340
  | Maximal number of non-zero basis functions:      821 in task   341
  | Maximal number of non-zero basis functions:      814 in task   342
  | Maximal number of non-zero basis functions:      800 in task   343
  | Maximal number of non-zero basis functions:      798 in task   344
  | Maximal number of non-zero basis functions:      796 in task   345
  | Maximal number of non-zero basis functions:      785 in task   346
  | Maximal number of non-zero basis functions:      782 in task   347
  | Maximal number of non-zero basis functions:      796 in task   348
  | Maximal number of non-zero basis functions:      844 in task   349
  | Maximal number of non-zero basis functions:      786 in task   350
  | Maximal number of non-zero basis functions:      828 in task   351
  | Maximal number of non-zero basis functions:      782 in task   352
  | Maximal number of non-zero basis functions:      788 in task   353
  | Maximal number of non-zero basis functions:      774 in task   354
  | Maximal number of non-zero basis functions:      766 in task   355
  | Maximal number of non-zero basis functions:      784 in task   356
  | Maximal number of non-zero basis functions:      788 in task   357
  | Maximal number of non-zero basis functions:      784 in task   358
  | Maximal number of non-zero basis functions:      798 in task   359
  | Maximal number of non-zero basis functions:      782 in task   360
  | Maximal number of non-zero basis functions:      826 in task   361
  | Maximal number of non-zero basis functions:      800 in task   362
  | Maximal number of non-zero basis functions:      771 in task   363
  | Maximal number of non-zero basis functions:      778 in task   364
  | Maximal number of non-zero basis functions:      820 in task   365
  | Maximal number of non-zero basis functions:      828 in task   366
  | Maximal number of non-zero basis functions:      826 in task   367
  | Maximal number of non-zero basis functions:      790 in task   368
  | Maximal number of non-zero basis functions:      786 in task   369
  | Maximal number of non-zero basis functions:      767 in task   370
  | Maximal number of non-zero basis functions:      769 in task   371
  | Maximal number of non-zero basis functions:      805 in task   372
  | Maximal number of non-zero basis functions:      806 in task   373
  | Maximal number of non-zero basis functions:      778 in task   374
  | Maximal number of non-zero basis functions:      772 in task   375
  | Maximal number of non-zero basis functions:      813 in task   376
  | Maximal number of non-zero basis functions:      773 in task   377
  | Maximal number of non-zero basis functions:      771 in task   378
  | Maximal number of non-zero basis functions:      774 in task   379
  | Maximal number of non-zero basis functions:      798 in task   380
  | Maximal number of non-zero basis functions:      771 in task   381
  | Maximal number of non-zero basis functions:      828 in task   382
  | Maximal number of non-zero basis functions:      814 in task   383
  | Maximal number of non-zero basis functions:      752 in task   384
  | Maximal number of non-zero basis functions:      794 in task   385
  | Maximal number of non-zero basis functions:      783 in task   386
  | Maximal number of non-zero basis functions:      809 in task   387
  | Maximal number of non-zero basis functions:      833 in task   388
  | Maximal number of non-zero basis functions:      785 in task   389
  | Maximal number of non-zero basis functions:      817 in task   390
  | Maximal number of non-zero basis functions:      763 in task   391
  | Maximal number of non-zero basis functions:      799 in task   392
  | Maximal number of non-zero basis functions:      769 in task   393
  | Maximal number of non-zero basis functions:      799 in task   394
  | Maximal number of non-zero basis functions:      774 in task   395
  | Maximal number of non-zero basis functions:      797 in task   396
  | Maximal number of non-zero basis functions:      803 in task   397
  | Maximal number of non-zero basis functions:      825 in task   398
  | Maximal number of non-zero basis functions:      768 in task   399
  | Maximal number of non-zero basis functions:      803 in task   400
  | Maximal number of non-zero basis functions:      789 in task   401
  | Maximal number of non-zero basis functions:      771 in task   402
  | Maximal number of non-zero basis functions:      775 in task   403
  | Maximal number of non-zero basis functions:      806 in task   404
  | Maximal number of non-zero basis functions:      801 in task   405
  | Maximal number of non-zero basis functions:      789 in task   406
  | Maximal number of non-zero basis functions:      793 in task   407
  | Maximal number of non-zero basis functions:      776 in task   408
  | Maximal number of non-zero basis functions:      762 in task   409
  | Maximal number of non-zero basis functions:      787 in task   410
  | Maximal number of non-zero basis functions:      828 in task   411
  | Maximal number of non-zero basis functions:      880 in task   412
  | Maximal number of non-zero basis functions:      785 in task   413
  | Maximal number of non-zero basis functions:      817 in task   414
  | Maximal number of non-zero basis functions:      814 in task   415
  | Maximal number of non-zero basis functions:      827 in task   416
  | Maximal number of non-zero basis functions:      817 in task   417
  | Maximal number of non-zero basis functions:      807 in task   418
  | Maximal number of non-zero basis functions:      822 in task   419
  | Maximal number of non-zero basis functions:      786 in task   420
  | Maximal number of non-zero basis functions:      758 in task   421
  | Maximal number of non-zero basis functions:      778 in task   422
  | Maximal number of non-zero basis functions:      823 in task   423
  | Maximal number of non-zero basis functions:      813 in task   424
  | Maximal number of non-zero basis functions:      779 in task   425
  | Maximal number of non-zero basis functions:      757 in task   426
  | Maximal number of non-zero basis functions:      828 in task   427
  | Maximal number of non-zero basis functions:      779 in task   428
  | Maximal number of non-zero basis functions:      759 in task   429
  | Maximal number of non-zero basis functions:      785 in task   430
  | Maximal number of non-zero basis functions:      821 in task   431
  | Maximal number of non-zero basis functions:      796 in task   432
  | Maximal number of non-zero basis functions:      815 in task   433
  | Maximal number of non-zero basis functions:      774 in task   434
  | Maximal number of non-zero basis functions:      887 in task   435
  | Maximal number of non-zero basis functions:      786 in task   436
  | Maximal number of non-zero basis functions:      818 in task   437
  | Maximal number of non-zero basis functions:      769 in task   438
  | Maximal number of non-zero basis functions:      777 in task   439
  | Maximal number of non-zero basis functions:      785 in task   440
  | Maximal number of non-zero basis functions:      810 in task   441
  | Maximal number of non-zero basis functions:      796 in task   442
  | Maximal number of non-zero basis functions:      792 in task   443
  | Maximal number of non-zero basis functions:      798 in task   444
  | Maximal number of non-zero basis functions:      803 in task   445
  | Maximal number of non-zero basis functions:      769 in task   446
  | Maximal number of non-zero basis functions:      800 in task   447
  | Maximal number of non-zero basis functions:      778 in task   448
  | Maximal number of non-zero basis functions:      819 in task   449
  | Maximal number of non-zero basis functions:      783 in task   450
  | Maximal number of non-zero basis functions:      774 in task   451
  | Maximal number of non-zero basis functions:      769 in task   452
  | Maximal number of non-zero basis functions:      820 in task   453
  | Maximal number of non-zero basis functions:      807 in task   454
  | Maximal number of non-zero basis functions:      772 in task   455
  | Maximal number of non-zero basis functions:      786 in task   456
  | Maximal number of non-zero basis functions:      786 in task   457
  | Maximal number of non-zero basis functions:      755 in task   458
  | Maximal number of non-zero basis functions:      787 in task   459
  | Maximal number of non-zero basis functions:      785 in task   460
  | Maximal number of non-zero basis functions:      795 in task   461
  | Maximal number of non-zero basis functions:      812 in task   462
  | Maximal number of non-zero basis functions:      781 in task   463
  | Maximal number of non-zero basis functions:      798 in task   464
  | Maximal number of non-zero basis functions:      791 in task   465
  | Maximal number of non-zero basis functions:      769 in task   466
  | Maximal number of non-zero basis functions:      770 in task   467
  | Maximal number of non-zero basis functions:      794 in task   468
  | Maximal number of non-zero basis functions:      821 in task   469
  | Maximal number of non-zero basis functions:      786 in task   470
  | Maximal number of non-zero basis functions:      800 in task   471
  | Maximal number of non-zero basis functions:      779 in task   472
  | Maximal number of non-zero basis functions:      778 in task   473
  | Maximal number of non-zero basis functions:      796 in task   474
  | Maximal number of non-zero basis functions:      803 in task   475
  | Maximal number of non-zero basis functions:      845 in task   476
  | Maximal number of non-zero basis functions:      790 in task   477
  | Maximal number of non-zero basis functions:      763 in task   478
  | Maximal number of non-zero basis functions:      801 in task   479
  | Maximal number of non-zero basis functions:      773 in task   480
  | Maximal number of non-zero basis functions:      783 in task   481
  | Maximal number of non-zero basis functions:      809 in task   482
  | Maximal number of non-zero basis functions:      846 in task   483
  | Maximal number of non-zero basis functions:      809 in task   484
  | Maximal number of non-zero basis functions:      817 in task   485
  | Maximal number of non-zero basis functions:      806 in task   486
  | Maximal number of non-zero basis functions:      780 in task   487
  | Maximal number of non-zero basis functions:      796 in task   488
  | Maximal number of non-zero basis functions:      800 in task   489
  | Maximal number of non-zero basis functions:      798 in task   490
  | Maximal number of non-zero basis functions:      810 in task   491
  | Maximal number of non-zero basis functions:      760 in task   492
  | Maximal number of non-zero basis functions:      784 in task   493
  | Maximal number of non-zero basis functions:      815 in task   494
  | Maximal number of non-zero basis functions:      779 in task   495
  | Maximal number of non-zero basis functions:      785 in task   496
  | Maximal number of non-zero basis functions:      793 in task   497
  | Maximal number of non-zero basis functions:      800 in task   498
  | Maximal number of non-zero basis functions:      845 in task   499
  | Maximal number of non-zero basis functions:      767 in task   500
  | Maximal number of non-zero basis functions:      783 in task   501
  | Maximal number of non-zero basis functions:      816 in task   502
  | Maximal number of non-zero basis functions:      823 in task   503
  | Maximal number of non-zero basis functions:      769 in task   504
  | Maximal number of non-zero basis functions:      768 in task   505
  | Maximal number of non-zero basis functions:      786 in task   506
  | Maximal number of non-zero basis functions:      798 in task   507
  | Maximal number of non-zero basis functions:      796 in task   508
  | Maximal number of non-zero basis functions:      799 in task   509
  | Maximal number of non-zero basis functions:      767 in task   510
  | Maximal number of non-zero basis functions:      794 in task   511
  Available memory per node after get_n_compute_maxes_p1 [GB]:    486.70
  Available memory per node after allocate_matrices [GB]:    486.69
  Available memory per node after init_comm_sparse_local_matrix_scalapack [GB]:    486.69
  Integrating Hamiltonian matrix: batch-based integration.
  Time summed over all CPUs for integration: real work       21.922 s, elapsed       25.878 s
  Available memory per node after integrate hamiltonian matrix [GB]:    484.80
  Integrating overlap matrix.
  Time summed over all CPUs for integration: real work       18.867 s, elapsed       23.068 s
  Available memory per node after integrate ovlp matrix [GB]:    483.71
  Deallocating overlap matrix.
  Available memory per node after save_overlap_scalapack [GB]:    483.71
  Available memory per node after advance_KS_solution [GB]:    483.71
  Calculating total energy contributions from superposition of free atom densities.
  Initialize hartree_potential_storage
  Max. number of atoms included in rho_multipole:           32

  End scf initialization - timings             :  max(cpu_time)    wall_clock(cpu1)
  | Time for scf. initialization                :        4.729 s           4.923 s
  | Boundary condition initialization           :        0.267 s           0.296 s
  | Integration                                 :        0.498 s           0.506 s
  | Grid partitioning                           :        0.090 s           0.094 s
  | Preloading free-atom quantities on grid     :        0.070 s           0.071 s
  | Free-atom superposition energy              :        0.010 s           0.010 s

  Partial memory accounting:
  | Current value for overall tracked memory usage:
  |   Minimum:       15.012 MB (on task   3)
  |   Maximum:       16.113 MB (on task  32)
  |   Average:       15.256 MB
  | Peak value for overall tracked memory usage:
  |   Minimum:       29.734 MB (on task 426 after allocating wave)
  |   Maximum:       32.800 MB (on task 289 after allocating wave)
  |   Average:       30.569 MB
  | Largest tracked array allocation so far:
  |   Minimum:        8.410 MB (overlap_matrix on task   0)
  |   Maximum:        8.410 MB (overlap_matrix on task   0)
  |   Average:        8.410 MB
  Note:  These values currently only include a subset of arrays which are explicitly tracked.
  The "true" memory usage will be greater.
------------------------------------------------------------
  Available memory after initialize_scf [GB]:    483.68
  Available memory after allocating mixing [GB]:    483.68
  Evaluating new KS density using the density matrix
  Evaluating density matrix
  Finished reading density matrices from file
  | Time :      0.080 s

  Time summed over all CPUs for getting density from density matrix: real work       23.570 s, elapsed       27.995 s
  Integration grid: deviation in total charge (<rho> - N_e) =   1.705303E-13

  Time for density update prior                :  max(cpu_time)    wall_clock(cpu1)
  | self-consistency iterative process          :        0.346 s           0.351 s
  Available memory before start of SCF loop [GB]:    483.43

------------------------------------------------------------
          Initial SCF-cycle to compute last known
          density from restart information.

  Date     :  20260819, Time     :  150410.233
------------------------------------------------------------
  Available memory per node after mixing [GB]:    483.43
  Renormalizing the density to the exact electron count on the 3D integration grid.
  | Formal number of electrons (from input files) :     320.0000000000
  | Integrated number of electrons on 3D grid     :     320.0000000000
  | Charge integration error                      :       0.0000000000
  | Normalization factor for density and gradient :       1.0000000000

  Evaluating partitioned Hartree potential by multipole expansion.
  | Original multipole sum: apparent total charge =  -0.172676E-13
  | Sum of charges compensated after spline to logarithmic grids =   0.215148E-04
  | Analytical far-field extrapolation by fixed multipoles:
  | Hartree multipole sum: apparent total charge =  -0.172676E-13
  Summing up the Hartree potential.
  Time summed over all CPUs for potential: real work        0.023 s, elapsed        0.027 s
  | RMS charge density error from multipole expansion :   0.421161E-01
  | Average real-space part of the electrostatic potential :      0.56876372 eV

  Integrating Hamiltonian matrix: batch-based integration.
  Time summed over all CPUs for integration: real work       21.080 s, elapsed       25.905 s

  Updating Kohn-Sham eigenvalues and eigenvectors using ELSI and the ELPA eigensolver.
  Singularity check in k-point 1 (analysis for other k-points may follow below):
  Overlap matrix is not singular
  | Lowest and highest eigenvalues :  0.3682E-03,  0.1504E+02
  Finished singularity check of overlap matrix
  | Time :     0.042 s
  Starting ELPA eigensolver
  Finished Cholesky decomposition
  | Time :     0.005 s
  Finished transformation to standard eigenproblem
  | Time :     0.007 s
  Finished solving standard eigenproblem
  | Time :     0.037 s
  Finished back-transformation of eigenvectors
  | Time :     0.004 s

  Obtaining occupation numbers and electronic chemical potential using ELSI.
  | Note that, for insulating systems, the printed 'chemical potential' value is not uniquely defined.
  | It can be anywhere in the energy gap, as long as it correctly separates occupied and unoccupied states.
  | In systems with a gap, the physically relevant chemical potential is the VBM or HOMO.

  | Chemical potential (Fermi level):    -7.60200867 eV
  Writing Kohn-Sham eigenvalues.
  K-point:       1 at    0.000000    0.000000    0.000000 (in units of recip. lattice)

  State    Occupation    Eigenvalue [Ha]    Eigenvalue [eV]
      1       2.00000         -46.208628        -1257.40075
      2       2.00000         -46.208628        -1257.40075
      3       2.00000         -46.208628        -1257.40075
      4       2.00000         -46.208628        -1257.40075
      5       2.00000         -46.208628        -1257.40075
      6       2.00000         -46.208628        -1257.40075
      7       2.00000         -46.208628        -1257.40075
      8       2.00000         -46.208628        -1257.40075
      9       2.00000         -46.208628        -1257.40075
     10       2.00000         -46.208628        -1257.40075
     11       2.00000         -46.208628        -1257.40075
     12       2.00000         -46.208628        -1257.40075
     13       2.00000         -46.208628        -1257.40075
     14       2.00000         -46.208628        -1257.40075
     15       2.00000         -46.208628        -1257.40075
     16       2.00000         -46.208628        -1257.40075
     17       2.00000         -18.727866         -509.61116
     18       2.00000         -18.727866         -509.61116
     19       2.00000         -18.727866         -509.61116
     20       2.00000         -18.727866         -509.61116
     21       2.00000         -18.727866         -509.61116
     22       2.00000         -18.727866         -509.61116
     23       2.00000         -18.727866         -509.61116
     24       2.00000         -18.727866         -509.61116
     25       2.00000         -18.727866         -509.61116
     26       2.00000         -18.727866         -509.61116
     27       2.00000         -18.727866         -509.61116
     28       2.00000         -18.727866         -509.61116
     29       2.00000         -18.727866         -509.61116
     30       2.00000         -18.727866         -509.61116
     31       2.00000         -18.727866         -509.61116
     32       2.00000         -18.727866         -509.61116
     33       2.00000          -2.994303          -81.47913
     34       2.00000          -2.994134          -81.47454
     35       2.00000          -2.994134          -81.47454
     36       2.00000          -2.993965          -81.46993
     37       2.00000          -2.993965          -81.46993
     38       2.00000          -2.993965          -81.46993
     39       2.00000          -2.993965          -81.46993
     40       2.00000          -2.993910          -81.46844
     41       2.00000          -2.993910          -81.46844
     42       2.00000          -2.993910          -81.46844
     43       2.00000          -2.993910          -81.46844
     44       2.00000          -2.993910          -81.46844
     45       2.00000          -2.993910          -81.46844
     46       2.00000          -2.993855          -81.46694
     47       2.00000          -2.993855          -81.46694
     48       2.00000          -2.993855          -81.46694
     49       2.00000          -1.798925          -48.95124
     50       2.00000          -1.798925          -48.95123
     51       2.00000          -1.798924          -48.95121
     52       2.00000          -1.798924          -48.95121
     53       2.00000          -1.798445          -48.93818
     54       2.00000          -1.798445          -48.93817
     55       2.00000          -1.798445          -48.93817
     56       2.00000          -1.798253          -48.93295
     57       2.00000          -1.798253          -48.93295
     58       2.00000          -1.798253          -48.93294
     59       2.00000          -1.798253          -48.93294
     60       2.00000          -1.798252          -48.93293
     61       2.00000          -1.798252          -48.93293
     62       2.00000          -1.797323          -48.90766
     63       2.00000          -1.797323          -48.90766
     64       2.00000          -1.796846          -48.89465
     65       2.00000          -1.796846          -48.89465
     66       2.00000          -1.796845          -48.89465
     67       2.00000          -1.796845          -48.89465
     68       2.00000          -1.796845          -48.89465
     69       2.00000          -1.796845          -48.89465
     70       2.00000          -1.796784          -48.89297
     71       2.00000          -1.796784          -48.89297
     72       2.00000          -1.796784          -48.89297
     73       2.00000          -1.796783          -48.89295
     74       2.00000          -1.796783          -48.89295
     75       2.00000          -1.796782          -48.89293
     76       2.00000          -1.796411          -48.88283
     77       2.00000          -1.796411          -48.88283
     78       2.00000          -1.796411          -48.88282
     79       2.00000          -1.796411          -48.88282
     80       2.00000          -1.796410          -48.88282
     81       2.00000          -1.796410          -48.88282
     82       2.00000          -1.796038          -48.87268
     83       2.00000          -1.796038          -48.87268
     84       2.00000          -1.796038          -48.87268
     85       2.00000          -1.796038          -48.87267
     86       2.00000          -1.796037          -48.87266
     87       2.00000          -1.796037          -48.87266
     88       2.00000          -1.796037          -48.87264
     89       2.00000          -1.796037          -48.87264
     90       2.00000          -1.795870          -48.86812
     91       2.00000          -1.795870          -48.86812
     92       2.00000          -1.795870          -48.86810
     93       2.00000          -1.795870          -48.86810
     94       2.00000          -1.795702          -48.86355
     95       2.00000          -1.795702          -48.86354
     96       2.00000          -1.795701          -48.86351
     97       2.00000          -0.987863          -26.88112
     98       2.00000          -0.964860          -26.25517
     99       2.00000          -0.964860          -26.25517
    100       2.00000          -0.937265          -25.50427
    101       2.00000          -0.937265          -25.50427
    102       2.00000          -0.937264          -25.50426
    103       2.00000          -0.937264          -25.50426
    104       2.00000          -0.933496          -25.40171
    105       2.00000          -0.933496          -25.40171
    106       2.00000          -0.933496          -25.40170
    107       2.00000          -0.933496          -25.40170
    108       2.00000          -0.933495          -25.40170
    109       2.00000          -0.933495          -25.40170
    110       2.00000          -0.928905          -25.27679
    111       2.00000          -0.928904          -25.27676
    112       2.00000          -0.928904          -25.27676
    113       2.00000          -0.535709          -14.57739
    114       2.00000          -0.535708          -14.57735
    115       2.00000          -0.535705          -14.57727
    116       2.00000          -0.535705          -14.57727
    117       2.00000          -0.515032          -14.01474
    118       2.00000          -0.515032          -14.01474
    119       2.00000          -0.515027          -14.01460
    120       2.00000          -0.505616          -13.75852
    121       2.00000          -0.505616          -13.75852
    122       2.00000          -0.505615          -13.75849
    123       2.00000          -0.505615          -13.75849
    124       2.00000          -0.505612          -13.75839
    125       2.00000          -0.505612          -13.75839
    126       2.00000          -0.462446          -12.58380
    127       2.00000          -0.462446          -12.58380
    128       2.00000          -0.435124          -11.84031
    129       2.00000          -0.435124          -11.84031
    130       2.00000          -0.435122          -11.84028
    131       2.00000          -0.435122          -11.84028
    132       2.00000          -0.435119          -11.84020
    133       2.00000          -0.435119          -11.84020
    134       2.00000          -0.413586          -11.25424
    135       2.00000          -0.413586          -11.25424
    136       2.00000          -0.413585          -11.25422
    137       2.00000          -0.413583          -11.25417
    138       2.00000          -0.413583          -11.25417
    139       2.00000          -0.413582          -11.25415
    140       2.00000          -0.401588          -10.92778
    141       2.00000          -0.401588          -10.92778
    142       2.00000          -0.401587          -10.92774
    143       2.00000          -0.401587          -10.92774
    144       2.00000          -0.401585          -10.92769
    145       2.00000          -0.401585          -10.92769
    146       2.00000          -0.388328          -10.56694
    147       2.00000          -0.388328          -10.56693
    148       2.00000          -0.388328          -10.56693
    149       2.00000          -0.388326          -10.56688
    150       2.00000          -0.388324          -10.56684
    151       2.00000          -0.388323          -10.56682
    152       2.00000          -0.388323          -10.56682
    153       2.00000          -0.388321          -10.56675
    154       2.00000          -0.376288          -10.23933
    155       2.00000          -0.376288          -10.23933
    156       2.00000          -0.376285          -10.23924
    157       2.00000          -0.376285          -10.23924
    158       2.00000          -0.363240           -9.88428
    159       2.00000          -0.363238           -9.88422
    160       2.00000          -0.363237           -9.88418
    161       0.00000          -0.195500           -5.31984
    162       0.00000          -0.108728           -2.95864
    163       0.00000          -0.108728           -2.95864
    164       0.00000          -0.070346           -1.91421
    165       0.00000          -0.070334           -1.91389
    166       0.00000          -0.070329           -1.91374
    167       0.00000          -0.070329           -1.91374
    168       0.00000          -0.036327           -0.98850
    169       0.00000          -0.036327           -0.98850
    170       0.00000          -0.036265           -0.98681
    171       0.00000          -0.010576           -0.28778
    172       0.00000          -0.010576           -0.28778
    173       0.00000          -0.010571           -0.28765
    174       0.00000          -0.010571           -0.28765
    175       0.00000          -0.010569           -0.28760
    176       0.00000          -0.010569           -0.28760
    177       0.00000          -0.008762           -0.23844
    178       0.00000          -0.008724           -0.23740
    179       0.00000          -0.008724           -0.23740
    180       0.00000           0.055639            1.51403
    181       0.00000           0.055639            1.51403
    182       0.00000           0.055648            1.51427
    183       0.00000           0.055648            1.51427
    184       0.00000           0.055686            1.51530
    185       0.00000           0.055686            1.51530
    186       0.00000           0.090508            2.46284
    187       0.00000           0.090512            2.46295
    188       0.00000           0.090525            2.46331
    189       0.00000           0.090525            2.46331
    190       0.00000           0.109450            2.97830
    191       0.00000           0.109450            2.97830
    192       0.00000           0.121176            3.29736
    193       0.00000           0.121176            3.29736
    194       0.00000           0.121195            3.29790
    195       0.00000           0.129306            3.51859
    196       0.00000           0.129306            3.51859
    197       0.00000           0.129308            3.51866
    198       0.00000           0.129308            3.51866
    199       0.00000           0.129315            3.51883
    200       0.00000           0.129315            3.51883
    201       0.00000           0.216054            5.87913
    202       0.00000           0.216249            5.88444
    203       0.00000           0.216311            5.88612
    204       0.00000           0.262535            7.14394
    205       0.00000           0.262535            7.14394
    206       0.00000           0.262703            7.14850
    207       0.00000           0.262703            7.14850
    208       0.00000           0.274666            7.47405
    209       0.00000           0.274666            7.47405
    210       0.00000           0.274713            7.47533
    211       0.00000           0.274752            7.47637
    212       0.00000           0.274759            7.47657
    213       0.00000           0.274791            7.47743
    214       0.00000           0.274825            7.47836
    215       0.00000           0.274825            7.47837
    216       0.00000           0.309648            8.42595
    217       0.00000           0.309648            8.42595
    218       0.00000           0.309748            8.42866
    219       0.00000           0.309748            8.42866
    220       0.00000           0.309750            8.42873
    221       0.00000           0.309750            8.42873
    222       0.00000           0.332432            9.04594
    223       0.00000           0.332432            9.04594
    224       0.00000           0.332441            9.04617
    225       0.00000           0.332441            9.04617
    226       0.00000           0.332449            9.04640
    227       0.00000           0.332449            9.04640
    228       0.00000           0.349490            9.51010
    229       0.00000           0.349585            9.51269
    230       0.00000           0.349585            9.51269
    231       0.00000           0.349628            9.51386
    232       0.00000           0.349652            9.51452
    233       0.00000           0.349652            9.51452
    234       0.00000           0.381991           10.39450
    235       0.00000           0.381991           10.39450
    236       0.00000           0.382136           10.39845
    237       0.00000           0.382136           10.39845
    238       0.00000           0.414598           11.28179
    239       0.00000           0.414598           11.28179
    240       0.00000           0.414688           11.28422
    241       0.00000           0.414749           11.28589
    242       0.00000           0.419580           11.41736
    243       0.00000           0.419699           11.42059
    244       0.00000           0.463395           12.60961
    245       0.00000           0.463395           12.60961
    246       0.00000           0.463512           12.61281
    247       0.00000           0.463523           12.61309
    248       0.00000           0.463572           12.61444
    249       0.00000           0.463572           12.61444
    250       0.00000           0.463580           12.61465
    251       0.00000           0.463594           12.61503
    252       0.00000           0.489327           13.31526
    253       0.00000           0.489327           13.31526
    254       0.00000           0.544408           14.81408
    255       0.00000           0.544479           14.81603
    256       0.00000           0.544534           14.81753

  What follows are estimated values for band gap, HOMO, LUMO, etc.
  | They are estimated on a discrete k-point grid and not necessarily exact.
  | For converged numbers, create a DOS and/or band structure plot on a denser k-grid.

  Highest occupied state (VBM) at     -9.88418050 eV (relative to internal zero)
  | Occupation number:      2.00000000
  | K-point:       1 at    0.000000    0.000000    0.000000 (in units of recip. lattice)

  Lowest unoccupied state (CBM) at    -5.31983683 eV (relative to internal zero)
  | Occupation number:      0.00000000
  | K-point:       1 at    0.000000    0.000000    0.000000 (in units of recip. lattice)

  The gap value is above 0.2 eV. Unless you are using a very sparse k-point grid,
  this system is most likely an insulator or a semiconductor.
  ESTIMATED overall HOMO-LUMO gap:      4.56434368 eV between HOMO at k-point 1 and LUMO at k-point 1
  | This appears to be a direct band gap.

  Total energy components:
  | Sum of eigenvalues            :       -2418.34847598 Ha      -65806.61023497 eV
  | XC energy correction          :        -381.08722768 Ha      -10369.91108040 eV
  | XC potential correction       :         502.85782417 Ha       13683.45760241 eV
  | Free-atom electrostatic energy:       -2091.01649776 Ha      -56899.45391630 eV
  | Hartree energy correction     :          -6.99517353 Ha        -190.34835649 eV
  | Entropy correction            :           0.00000000 Ha           0.00000000 eV
  | ---------------------------
  | Total energy                  :       -4394.58955077 Ha     -119582.86598576 eV
  | Total energy, T -> 0          :       -4394.58955077 Ha     -119582.86598576 eV  <-- do not rely on this value for anything but (periodic) metals
  | Electronic free energy        :       -4394.58955077 Ha     -119582.86598576 eV

  Derived energy quantities:
  | Kinetic energy                :        4388.32773271 Ha      119412.47324688 eV
  | Electrostatic energy          :       -8401.83005581 Ha     -228625.42815224 eV
  | Energy correction for multipole
  | error in Hartree potential    :           0.04956307 Ha           1.34867976 eV
  | Sum of eigenvalues per atom                           :       -2056.45656984 eV
  | Total energy (T->0) per atom                          :       -3736.96456205 eV  <-- do not rely on this value for anything but (periodic) metals
  | Electronic free energy per atom                       :       -3736.96456205 eV
  Evaluating new KS density using the density matrix
  Evaluating density matrix
  Computing the DM
  Selected method: ELPA_AT_A (preferred and supported)
  Using optimized A^T*A routine
  Finished density matrix calculation
  | Time :     0.004 s
  Time summed over all CPUs for getting density from density matrix: real work       23.363 s, elapsed       27.944 s
  Integration grid: deviation in total charge (<rho> - N_e) =   1.136868E-13

  Self-consistency convergence accuracy:
  | Change of charge density      :  0.4750E+00
  | Change of unmixed KS density  :  0.7937E+02
  | Change of sum of eigenvalues  : -0.6581E+05 eV
  | Change of total energy        : -0.1196E+06 eV


------------------------------------------------------------
  End self-consistency iteration #     0       :  max(cpu_time)    wall_clock(cpu1)
  | Time for this iteration                     :        0.718 s           0.731 s
  | Charge density update                       :        0.256 s           0.259 s
  | Density mixing                              :        0.001 s           0.001 s
  | Hartree multipole update                    :        0.012 s           0.012 s
  | Hartree multipole summation                 :        0.038 s           0.039 s
  | Integration                                 :        0.239 s           0.244 s
  | Solution of K.-S. eqns.                     :        0.160 s           0.164 s
  | Total energy evaluation                     :        0.001 s           0.007 s

  Partial memory accounting:
  | Current value for overall tracked memory usage:
  |   Minimum:       15.061 MB (on task 170)
  |   Maximum:       16.176 MB (on task 417)
  |   Average:       15.310 MB
  | Peak value for overall tracked memory usage:
  |   Minimum:       29.734 MB (on task 426 after allocating wave)
  |   Maximum:       32.800 MB (on task 289 after allocating wave)
  |   Average:       30.569 MB
  | Largest tracked array allocation so far:
  |   Minimum:        8.410 MB (overlap_matrix on task   0)
  |   Maximum:        8.410 MB (overlap_matrix on task   0)
  |   Average:        8.410 MB
  Note:  These values currently only include a subset of arrays which are explicitly tracked.
  The "true" memory usage will be greater.
------------------------------------------------------------

------------------------------------------------------------
          Begin self-consistency iteration #    1

  Date     :  20260819, Time     :  150410.968
------------------------------------------------------------
  Pulay mixing of updated and previous charge densities.
  Available memory per node after mixing [GB]:    483.03
  Renormalizing the density to the exact electron count on the 3D integration grid.
  | Formal number of electrons (from input files) :     320.0000000000
  | Integrated number of electrons on 3D grid     :     320.0000000000
  | Charge integration error                      :       0.0000000000
  | Normalization factor for density and gradient :       1.0000000000

  Evaluating partitioned Hartree potential by multipole expansion.
  | Original multipole sum: apparent total charge =  -0.235646E-13
  | Sum of charges compensated after spline to logarithmic grids =   0.215148E-04
  | Analytical far-field extrapolation by fixed multipoles:
  | Hartree multipole sum: apparent total charge =  -0.273527E-13
  Summing up the Hartree potential.
  Time summed over all CPUs for potential: real work        0.022 s, elapsed        0.032 s
  | RMS charge density error from multipole expansion :   0.421161E-01
  | Average real-space part of the electrostatic potential :      0.56876372 eV

  Integrating Hamiltonian matrix: batch-based integration.
  Time summed over all CPUs for integration: real work       20.705 s, elapsed       24.929 s

  Updating Kohn-Sham eigenvalues and eigenvectors using ELSI and the ELPA eigensolver.
  Starting ELPA eigensolver
  Finished transformation to standard eigenproblem
  | Time :     0.008 s
  Finished solving standard eigenproblem
  | Time :     0.037 s
  Finished back-transformation of eigenvectors
  | Time :     0.004 s

  Obtaining occupation numbers and electronic chemical potential using ELSI.
  | Note that, for insulating systems, the printed 'chemical potential' value is not uniquely defined.
  | It can be anywhere in the energy gap, as long as it correctly separates occupied and unoccupied states.
  | In systems with a gap, the physically relevant chemical potential is the VBM or HOMO.

  | Chemical potential (Fermi level):    -7.60200867 eV
  Writing Kohn-Sham eigenvalues.
  K-point:       1 at    0.000000    0.000000    0.000000 (in units of recip. lattice)

  State    Occupation    Eigenvalue [Ha]    Eigenvalue [eV]
      1       2.00000         -46.208628        -1257.40075
      2       2.00000         -46.208628        -1257.40075
      3       2.00000         -46.208628        -1257.40075
      4       2.00000         -46.208628        -1257.40075
      5       2.00000         -46.208628        -1257.40075
      6       2.00000         -46.208628        -1257.40075
      7       2.00000         -46.208628        -1257.40075
      8       2.00000         -46.208628        -1257.40075
      9       2.00000         -46.208628        -1257.40075
     10       2.00000         -46.208628        -1257.40075
     11       2.00000         -46.208628        -1257.40075
     12       2.00000         -46.208628        -1257.40075
     13       2.00000         -46.208628        -1257.40075
     14       2.00000         -46.208628        -1257.40075
     15       2.00000         -46.208628        -1257.40075
     16       2.00000         -46.208628        -1257.40075
     17       2.00000         -18.727866         -509.61116
     18       2.00000         -18.727866         -509.61116
     19       2.00000         -18.727866         -509.61116
     20       2.00000         -18.727866         -509.61116
     21       2.00000         -18.727866         -509.61116
     22       2.00000         -18.727866         -509.61116
     23       2.00000         -18.727866         -509.61116
     24       2.00000         -18.727866         -509.61116
     25       2.00000         -18.727866         -509.61116
     26       2.00000         -18.727866         -509.61116
     27       2.00000         -18.727866         -509.61116
     28       2.00000         -18.727866         -509.61116
     29       2.00000         -18.727866         -509.61116
     30       2.00000         -18.727866         -509.61116
     31       2.00000         -18.727866         -509.61116
     32       2.00000         -18.727866         -509.61116
     33       2.00000          -2.994303          -81.47913
     34       2.00000          -2.994134          -81.47454
     35       2.00000          -2.994134          -81.47454
     36       2.00000          -2.993965          -81.46993
     37       2.00000          -2.993965          -81.46993
     38       2.00000          -2.993965          -81.46993
     39       2.00000          -2.993965          -81.46993
     40       2.00000          -2.993910          -81.46844
     41       2.00000          -2.993910          -81.46844
     42       2.00000          -2.993910          -81.46844
     43       2.00000          -2.993910          -81.46844
     44       2.00000          -2.993910          -81.46844
     45       2.00000          -2.993910          -81.46844
     46       2.00000          -2.993855          -81.46694
     47       2.00000          -2.993855          -81.46694
     48       2.00000          -2.993855          -81.46694
     49       2.00000          -1.798925          -48.95124
     50       2.00000          -1.798925          -48.95123
     51       2.00000          -1.798924          -48.95121
     52       2.00000          -1.798924          -48.95121
     53       2.00000          -1.798445          -48.93818
     54       2.00000          -1.798445          -48.93817
     55       2.00000          -1.798445          -48.93817
     56       2.00000          -1.798253          -48.93295
     57       2.00000          -1.798253          -48.93295
     58       2.00000          -1.798253          -48.93294
     59       2.00000          -1.798253          -48.93294
     60       2.00000          -1.798252          -48.93293
     61       2.00000          -1.798252          -48.93293
     62       2.00000          -1.797323          -48.90766
     63       2.00000          -1.797323          -48.90766
     64       2.00000          -1.796846          -48.89465
     65       2.00000          -1.796846          -48.89465
     66       2.00000          -1.796845          -48.89465
     67       2.00000          -1.796845          -48.89465
     68       2.00000          -1.796845          -48.89465
     69       2.00000          -1.796845          -48.89465
     70       2.00000          -1.796784          -48.89297
     71       2.00000          -1.796784          -48.89297
     72       2.00000          -1.796784          -48.89297
     73       2.00000          -1.796783          -48.89295
     74       2.00000          -1.796783          -48.89295
     75       2.00000          -1.796782          -48.89293
     76       2.00000          -1.796411          -48.88283
     77       2.00000          -1.796411          -48.88283
     78       2.00000          -1.796411          -48.88282
     79       2.00000          -1.796411          -48.88282
     80       2.00000          -1.796410          -48.88282
     81       2.00000          -1.796410          -48.88282
     82       2.00000          -1.796038          -48.87268
     83       2.00000          -1.796038          -48.87268
     84       2.00000          -1.796038          -48.87268
     85       2.00000          -1.796038          -48.87267
     86       2.00000          -1.796037          -48.87266
     87       2.00000          -1.796037          -48.87266
     88       2.00000          -1.796037          -48.87264
     89       2.00000          -1.796037          -48.87264
     90       2.00000          -1.795870          -48.86812
     91       2.00000          -1.795870          -48.86812
     92       2.00000          -1.795870          -48.86810
     93       2.00000          -1.795870          -48.86810
     94       2.00000          -1.795702          -48.86355
     95       2.00000          -1.795702          -48.86354
     96       2.00000          -1.795701          -48.86351
     97       2.00000          -0.987863          -26.88112
     98       2.00000          -0.964860          -26.25517
     99       2.00000          -0.964860          -26.25517
    100       2.00000          -0.937265          -25.50427
    101       2.00000          -0.937265          -25.50427
    102       2.00000          -0.937264          -25.50426
    103       2.00000          -0.937264          -25.50426
    104       2.00000          -0.933496          -25.40171
    105       2.00000          -0.933496          -25.40171
    106       2.00000          -0.933496          -25.40170
    107       2.00000          -0.933496          -25.40170
    108       2.00000          -0.933495          -25.40170
    109       2.00000          -0.933495          -25.40170
    110       2.00000          -0.928905          -25.27679
    111       2.00000          -0.928904          -25.27676
    112       2.00000          -0.928904          -25.27676
    113       2.00000          -0.535709          -14.57739
    114       2.00000          -0.535708          -14.57735
    115       2.00000          -0.535705          -14.57727
    116       2.00000          -0.535705          -14.57727
    117       2.00000          -0.515032          -14.01474
    118       2.00000          -0.515032          -14.01474
    119       2.00000          -0.515027          -14.01460
    120       2.00000          -0.505616          -13.75852
    121       2.00000          -0.505616          -13.75852
    122       2.00000          -0.505615          -13.75849
    123       2.00000          -0.505615          -13.75849
    124       2.00000          -0.505612          -13.75839
    125       2.00000          -0.505612          -13.75839
    126       2.00000          -0.462446          -12.58380
    127       2.00000          -0.462446          -12.58380
    128       2.00000          -0.435124          -11.84031
    129       2.00000          -0.435124          -11.84031
    130       2.00000          -0.435122          -11.84028
    131       2.00000          -0.435122          -11.84028
    132       2.00000          -0.435119          -11.84020
    133       2.00000          -0.435119          -11.84020
    134       2.00000          -0.413586          -11.25424
    135       2.00000          -0.413586          -11.25424
    136       2.00000          -0.413585          -11.25422
    137       2.00000          -0.413583          -11.25417
    138       2.00000          -0.413583          -11.25417
    139       2.00000          -0.413582          -11.25415
    140       2.00000          -0.401588          -10.92778
    141       2.00000          -0.401588          -10.92778
    142       2.00000          -0.401587          -10.92774
    143       2.00000          -0.401587          -10.92774
    144       2.00000          -0.401585          -10.92769
    145       2.00000          -0.401585          -10.92769
    146       2.00000          -0.388328          -10.56694
    147       2.00000          -0.388328          -10.56693
    148       2.00000          -0.388328          -10.56693
    149       2.00000          -0.388326          -10.56688
    150       2.00000          -0.388324          -10.56684
    151       2.00000          -0.388323          -10.56682
    152       2.00000          -0.388323          -10.56682
    153       2.00000          -0.388321          -10.56675
    154       2.00000          -0.376288          -10.23933
    155       2.00000          -0.376288          -10.23933
    156       2.00000          -0.376285          -10.23924
    157       2.00000          -0.376285          -10.23924
    158       2.00000          -0.363240           -9.88428
    159       2.00000          -0.363238           -9.88422
    160       2.00000          -0.363237           -9.88418
    161       0.00000          -0.195500           -5.31984
    162       0.00000          -0.108728           -2.95864
    163       0.00000          -0.108728           -2.95864
    164       0.00000          -0.070346           -1.91421
    165       0.00000          -0.070334           -1.91389
    166       0.00000          -0.070329           -1.91374
    167       0.00000          -0.070329           -1.91374
    168       0.00000          -0.036327           -0.98850
    169       0.00000          -0.036327           -0.98850
    170       0.00000          -0.036265           -0.98681
    171       0.00000          -0.010576           -0.28778
    172       0.00000          -0.010576           -0.28778
    173       0.00000          -0.010571           -0.28765
    174       0.00000          -0.010571           -0.28765
    175       0.00000          -0.010569           -0.28760
    176       0.00000          -0.010569           -0.28760
    177       0.00000          -0.008762           -0.23844
    178       0.00000          -0.008724           -0.23740
    179       0.00000          -0.008724           -0.23740
    180       0.00000           0.055639            1.51403
    181       0.00000           0.055639            1.51403
    182       0.00000           0.055648            1.51427
    183       0.00000           0.055648            1.51427
    184       0.00000           0.055686            1.51530
    185       0.00000           0.055686            1.51530
    186       0.00000           0.090508            2.46284
    187       0.00000           0.090512            2.46295
    188       0.00000           0.090525            2.46331
    189       0.00000           0.090525            2.46331
    190       0.00000           0.109450            2.97830
    191       0.00000           0.109450            2.97830
    192       0.00000           0.121176            3.29736
    193       0.00000           0.121176            3.29736
    194       0.00000           0.121195            3.29790
    195       0.00000           0.129306            3.51859
    196       0.00000           0.129306            3.51859
    197       0.00000           0.129308            3.51866
    198       0.00000           0.129308            3.51866
    199       0.00000           0.129315            3.51883
    200       0.00000           0.129315            3.51883
    201       0.00000           0.216054            5.87913
    202       0.00000           0.216249            5.88444
    203       0.00000           0.216311            5.88612
    204       0.00000           0.262535            7.14394
    205       0.00000           0.262535            7.14394
    206       0.00000           0.262703            7.14850
    207       0.00000           0.262703            7.14850
    208       0.00000           0.274666            7.47405
    209       0.00000           0.274666            7.47405
    210       0.00000           0.274713            7.47533
    211       0.00000           0.274752            7.47637
    212       0.00000           0.274759            7.47657
    213       0.00000           0.274791            7.47743
    214       0.00000           0.274825            7.47836
    215       0.00000           0.274825            7.47837
    216       0.00000           0.309648            8.42595
    217       0.00000           0.309648            8.42595
    218       0.00000           0.309748            8.42866
    219       0.00000           0.309748            8.42866
    220       0.00000           0.309750            8.42873
    221       0.00000           0.309750            8.42873
    222       0.00000           0.332432            9.04594
    223       0.00000           0.332432            9.04594
    224       0.00000           0.332441            9.04617
    225       0.00000           0.332441            9.04617
    226       0.00000           0.332449            9.04640
    227       0.00000           0.332449            9.04640
    228       0.00000           0.349490            9.51010
    229       0.00000           0.349585            9.51269
    230       0.00000           0.349585            9.51269
    231       0.00000           0.349628            9.51386
    232       0.00000           0.349652            9.51452
    233       0.00000           0.349652            9.51452
    234       0.00000           0.381991           10.39450
    235       0.00000           0.381991           10.39450
    236       0.00000           0.382136           10.39845
    237       0.00000           0.382136           10.39845
    238       0.00000           0.414598           11.28179
    239       0.00000           0.414598           11.28179
    240       0.00000           0.414688           11.28422
    241       0.00000           0.414749           11.28589
    242       0.00000           0.419580           11.41736
    243       0.00000           0.419699           11.42059
    244       0.00000           0.463395           12.60961
    245       0.00000           0.463395           12.60961
    246       0.00000           0.463512           12.61281
    247       0.00000           0.463523           12.61309
    248       0.00000           0.463572           12.61444
    249       0.00000           0.463572           12.61444
    250       0.00000           0.463580           12.61465
    251       0.00000           0.463594           12.61503
    252       0.00000           0.489327           13.31526
    253       0.00000           0.489327           13.31526
    254       0.00000           0.544408           14.81408
    255       0.00000           0.544479           14.81603
    256       0.00000           0.544534           14.81753

  What follows are estimated values for band gap, HOMO, LUMO, etc.
  | They are estimated on a discrete k-point grid and not necessarily exact.
  | For converged numbers, create a DOS and/or band structure plot on a denser k-grid.

  Highest occupied state (VBM) at     -9.88418050 eV (relative to internal zero)
  | Occupation number:      2.00000000
  | K-point:       1 at    0.000000    0.000000    0.000000 (in units of recip. lattice)

  Lowest unoccupied state (CBM) at    -5.31983683 eV (relative to internal zero)
  | Occupation number:      0.00000000
  | K-point:       1 at    0.000000    0.000000    0.000000 (in units of recip. lattice)

  The gap value is above 0.2 eV. Unless you are using a very sparse k-point grid,
  this system is most likely an insulator or a semiconductor.
  ESTIMATED overall HOMO-LUMO gap:      4.56434368 eV between HOMO at k-point 1 and LUMO at k-point 1
  | This appears to be a direct band gap.

  Total energy components:
  | Sum of eigenvalues            :       -2418.34847598 Ha      -65806.61023501 eV
  | XC energy correction          :        -381.08722768 Ha      -10369.91108039 eV
  | XC potential correction       :         502.85782417 Ha       13683.45760239 eV
  | Free-atom electrostatic energy:       -2091.01649776 Ha      -56899.45391630 eV
  | Hartree energy correction     :          -6.99517353 Ha        -190.34835646 eV
  | Entropy correction            :           0.00000000 Ha           0.00000000 eV
  | ---------------------------
  | Total energy                  :       -4394.58955077 Ha     -119582.86598576 eV
  | Total energy, T -> 0          :       -4394.58955077 Ha     -119582.86598576 eV  <-- do not rely on this value for anything but (periodic) metals
  | Electronic free energy        :       -4394.58955077 Ha     -119582.86598576 eV

  Derived energy quantities:
  | Kinetic energy                :        4388.32773271 Ha      119412.47324686 eV
  | Electrostatic energy          :       -8401.83005581 Ha     -228625.42815223 eV
  | Energy correction for multipole
  | error in Hartree potential    :           0.04956307 Ha           1.34867976 eV
  | Sum of eigenvalues per atom                           :       -2056.45656984 eV
  | Total energy (T->0) per atom                          :       -3736.96456205 eV  <-- do not rely on this value for anything but (periodic) metals
  | Electronic free energy per atom                       :       -3736.96456205 eV

  Self-consistency convergence accuracy:
  | Change of charge density      :  0.2018E-08
  | Change of unmixed KS density  :  0.2018E-08
  | Change of sum of eigenvalues  : -0.3280E-07 eV
  | Change of total energy        :  0.1237E-08 eV

  Writing Kohn-Sham eigenvalues.
  K-point:       1 at    0.000000    0.000000    0.000000 (in units of recip. lattice)

  State    Occupation    Eigenvalue [Ha]    Eigenvalue [eV]
      1       2.00000         -46.208628        -1257.40075
      2       2.00000         -46.208628        -1257.40075
      3       2.00000         -46.208628        -1257.40075
      4       2.00000         -46.208628        -1257.40075
      5       2.00000         -46.208628        -1257.40075
      6       2.00000         -46.208628        -1257.40075
      7       2.00000         -46.208628        -1257.40075
      8       2.00000         -46.208628        -1257.40075
      9       2.00000         -46.208628        -1257.40075
     10       2.00000         -46.208628        -1257.40075
     11       2.00000         -46.208628        -1257.40075
     12       2.00000         -46.208628        -1257.40075
     13       2.00000         -46.208628        -1257.40075
     14       2.00000         -46.208628        -1257.40075
     15       2.00000         -46.208628        -1257.40075
     16       2.00000         -46.208628        -1257.40075
     17       2.00000         -18.727866         -509.61116
     18       2.00000         -18.727866         -509.61116
     19       2.00000         -18.727866         -509.61116
     20       2.00000         -18.727866         -509.61116
     21       2.00000         -18.727866         -509.61116
     22       2.00000         -18.727866         -509.61116
     23       2.00000         -18.727866         -509.61116
     24       2.00000         -18.727866         -509.61116
     25       2.00000         -18.727866         -509.61116
     26       2.00000         -18.727866         -509.61116
     27       2.00000         -18.727866         -509.61116
     28       2.00000         -18.727866         -509.61116
     29       2.00000         -18.727866         -509.61116
     30       2.00000         -18.727866         -509.61116
     31       2.00000         -18.727866         -509.61116
     32       2.00000         -18.727866         -509.61116
     33       2.00000          -2.994303          -81.47913
     34       2.00000          -2.994134          -81.47454
     35       2.00000          -2.994134          -81.47454
     36       2.00000          -2.993965          -81.46993
     37       2.00000          -2.993965          -81.46993
     38       2.00000          -2.993965          -81.46993
     39       2.00000          -2.993965          -81.46993
     40       2.00000          -2.993910          -81.46844
     41       2.00000          -2.993910          -81.46844
     42       2.00000          -2.993910          -81.46844
     43       2.00000          -2.993910          -81.46844
     44       2.00000          -2.993910          -81.46844
     45       2.00000          -2.993910          -81.46844
     46       2.00000          -2.993855          -81.46694
     47       2.00000          -2.993855          -81.46694
     48       2.00000          -2.993855          -81.46694
     49       2.00000          -1.798925          -48.95124
     50       2.00000          -1.798925          -48.95123
     51       2.00000          -1.798924          -48.95121
     52       2.00000          -1.798924          -48.95121
     53       2.00000          -1.798445          -48.93818
     54       2.00000          -1.798445          -48.93817
     55       2.00000          -1.798445          -48.93817
     56       2.00000          -1.798253          -48.93295
     57       2.00000          -1.798253          -48.93295
     58       2.00000          -1.798253          -48.93294
     59       2.00000          -1.798253          -48.93294
     60       2.00000          -1.798252          -48.93293
     61       2.00000          -1.798252          -48.93293
     62       2.00000          -1.797323          -48.90766
     63       2.00000          -1.797323          -48.90766
     64       2.00000          -1.796846          -48.89465
     65       2.00000          -1.796846          -48.89465
     66       2.00000          -1.796845          -48.89465
     67       2.00000          -1.796845          -48.89465
     68       2.00000          -1.796845          -48.89465
     69       2.00000          -1.796845          -48.89465
     70       2.00000          -1.796784          -48.89297
     71       2.00000          -1.796784          -48.89297
     72       2.00000          -1.796784          -48.89297
     73       2.00000          -1.796783          -48.89295
     74       2.00000          -1.796783          -48.89295
     75       2.00000          -1.796782          -48.89293
     76       2.00000          -1.796411          -48.88283
     77       2.00000          -1.796411          -48.88283
     78       2.00000          -1.796411          -48.88282
     79       2.00000          -1.796411          -48.88282
     80       2.00000          -1.796410          -48.88282
     81       2.00000          -1.796410          -48.88282
     82       2.00000          -1.796038          -48.87268
     83       2.00000          -1.796038          -48.87268
     84       2.00000          -1.796038          -48.87268
     85       2.00000          -1.796038          -48.87267
     86       2.00000          -1.796037          -48.87266
     87       2.00000          -1.796037          -48.87266
     88       2.00000          -1.796037          -48.87264
     89       2.00000          -1.796037          -48.87264
     90       2.00000          -1.795870          -48.86812
     91       2.00000          -1.795870          -48.86812
     92       2.00000          -1.795870          -48.86810
     93       2.00000          -1.795870          -48.86810
     94       2.00000          -1.795702          -48.86355
     95       2.00000          -1.795702          -48.86354
     96       2.00000          -1.795701          -48.86351
     97       2.00000          -0.987863          -26.88112
     98       2.00000          -0.964860          -26.25517
     99       2.00000          -0.964860          -26.25517
    100       2.00000          -0.937265          -25.50427
    101       2.00000          -0.937265          -25.50427
    102       2.00000          -0.937264          -25.50426
    103       2.00000          -0.937264          -25.50426
    104       2.00000          -0.933496          -25.40171
    105       2.00000          -0.933496          -25.40171
    106       2.00000          -0.933496          -25.40170
    107       2.00000          -0.933496          -25.40170
    108       2.00000          -0.933495          -25.40170
    109       2.00000          -0.933495          -25.40170
    110       2.00000          -0.928905          -25.27679
    111       2.00000          -0.928904          -25.27676
    112       2.00000          -0.928904          -25.27676
    113       2.00000          -0.535709          -14.57739
    114       2.00000          -0.535708          -14.57735
    115       2.00000          -0.535705          -14.57727
    116       2.00000          -0.535705          -14.57727
    117       2.00000          -0.515032          -14.01474
    118       2.00000          -0.515032          -14.01474
    119       2.00000          -0.515027          -14.01460
    120       2.00000          -0.505616          -13.75852
    121       2.00000          -0.505616          -13.75852
    122       2.00000          -0.505615          -13.75849
    123       2.00000          -0.505615          -13.75849
    124       2.00000          -0.505612          -13.75839
    125       2.00000          -0.505612          -13.75839
    126       2.00000          -0.462446          -12.58380
    127       2.00000          -0.462446          -12.58380
    128       2.00000          -0.435124          -11.84031
    129       2.00000          -0.435124          -11.84031
    130       2.00000          -0.435122          -11.84028
    131       2.00000          -0.435122          -11.84028
    132       2.00000          -0.435119          -11.84020
    133       2.00000          -0.435119          -11.84020
    134       2.00000          -0.413586          -11.25424
    135       2.00000          -0.413586          -11.25424
    136       2.00000          -0.413585          -11.25422
    137       2.00000          -0.413583          -11.25417
    138       2.00000          -0.413583          -11.25417
    139       2.00000          -0.413582          -11.25415
    140       2.00000          -0.401588          -10.92778
    141       2.00000          -0.401588          -10.92778
    142       2.00000          -0.401587          -10.92774
    143       2.00000          -0.401587          -10.92774
    144       2.00000          -0.401585          -10.92769
    145       2.00000          -0.401585          -10.92769
    146       2.00000          -0.388328          -10.56694
    147       2.00000          -0.388328          -10.56693
    148       2.00000          -0.388328          -10.56693
    149       2.00000          -0.388326          -10.56688
    150       2.00000          -0.388324          -10.56684
    151       2.00000          -0.388323          -10.56682
    152       2.00000          -0.388323          -10.56682
    153       2.00000          -0.388321          -10.56675
    154       2.00000          -0.376288          -10.23933
    155       2.00000          -0.376288          -10.23933
    156       2.00000          -0.376285          -10.23924
    157       2.00000          -0.376285          -10.23924
    158       2.00000          -0.363240           -9.88428
    159       2.00000          -0.363238           -9.88422
    160       2.00000          -0.363237           -9.88418
    161       0.00000          -0.195500           -5.31984
    162       0.00000          -0.108728           -2.95864
    163       0.00000          -0.108728           -2.95864
    164       0.00000          -0.070346           -1.91421
    165       0.00000          -0.070334           -1.91389
    166       0.00000          -0.070329           -1.91374
    167       0.00000          -0.070329           -1.91374
    168       0.00000          -0.036327           -0.98850
    169       0.00000          -0.036327           -0.98850
    170       0.00000          -0.036265           -0.98681
    171       0.00000          -0.010576           -0.28778
    172       0.00000          -0.010576           -0.28778
    173       0.00000          -0.010571           -0.28765
    174       0.00000          -0.010571           -0.28765
    175       0.00000          -0.010569           -0.28760
    176       0.00000          -0.010569           -0.28760
    177       0.00000          -0.008762           -0.23844
    178       0.00000          -0.008724           -0.23740
    179       0.00000          -0.008724           -0.23740
    180       0.00000           0.055639            1.51403
    181       0.00000           0.055639            1.51403
    182       0.00000           0.055648            1.51427
    183       0.00000           0.055648            1.51427
    184       0.00000           0.055686            1.51530
    185       0.00000           0.055686            1.51530
    186       0.00000           0.090508            2.46284
    187       0.00000           0.090512            2.46295
    188       0.00000           0.090525            2.46331
    189       0.00000           0.090525            2.46331
    190       0.00000           0.109450            2.97830
    191       0.00000           0.109450            2.97830
    192       0.00000           0.121176            3.29736
    193       0.00000           0.121176            3.29736
    194       0.00000           0.121195            3.29790
    195       0.00000           0.129306            3.51859
    196       0.00000           0.129306            3.51859
    197       0.00000           0.129308            3.51866
    198       0.00000           0.129308            3.51866
    199       0.00000           0.129315            3.51883
    200       0.00000           0.129315            3.51883
    201       0.00000           0.216054            5.87913
    202       0.00000           0.216249            5.88444
    203       0.00000           0.216311            5.88612
    204       0.00000           0.262535            7.14394
    205       0.00000           0.262535            7.14394
    206       0.00000           0.262703            7.14850
    207       0.00000           0.262703            7.14850
    208       0.00000           0.274666            7.47405
    209       0.00000           0.274666            7.47405
    210       0.00000           0.274713            7.47533
    211       0.00000           0.274752            7.47637
    212       0.00000           0.274759            7.47657
    213       0.00000           0.274791            7.47743
    214       0.00000           0.274825            7.47836
    215       0.00000           0.274825            7.47837
    216       0.00000           0.309648            8.42595
    217       0.00000           0.309648            8.42595
    218       0.00000           0.309748            8.42866
    219       0.00000           0.309748            8.42866
    220       0.00000           0.309750            8.42873
    221       0.00000           0.309750            8.42873
    222       0.00000           0.332432            9.04594
    223       0.00000           0.332432            9.04594
    224       0.00000           0.332441            9.04617
    225       0.00000           0.332441            9.04617
    226       0.00000           0.332449            9.04640
    227       0.00000           0.332449            9.04640
    228       0.00000           0.349490            9.51010
    229       0.00000           0.349585            9.51269
    230       0.00000           0.349585            9.51269
    231       0.00000           0.349628            9.51386
    232       0.00000           0.349652            9.51452
    233       0.00000           0.349652            9.51452
    234       0.00000           0.381991           10.39450
    235       0.00000           0.381991           10.39450
    236       0.00000           0.382136           10.39845
    237       0.00000           0.382136           10.39845
    238       0.00000           0.414598           11.28179
    239       0.00000           0.414598           11.28179
    240       0.00000           0.414688           11.28422
    241       0.00000           0.414749           11.28589
    242       0.00000           0.419580           11.41736
    243       0.00000           0.419699           11.42059
    244       0.00000           0.463395           12.60961
    245       0.00000           0.463395           12.60961
    246       0.00000           0.463512           12.61281
    247       0.00000           0.463523           12.61309
    248       0.00000           0.463572           12.61444
    249       0.00000           0.463572           12.61444
    250       0.00000           0.463580           12.61465
    251       0.00000           0.463594           12.61503
    252       0.00000           0.489327           13.31526
    253       0.00000           0.489327           13.31526
    254       0.00000           0.544408           14.81408
    255       0.00000           0.544479           14.81603
    256       0.00000           0.544534           14.81753

  What follows are estimated values for band gap, HOMO, LUMO, etc.
  | They are estimated on a discrete k-point grid and not necessarily exact.
  | For converged numbers, create a DOS and/or band structure plot on a denser k-grid.

  Highest occupied state (VBM) at     -9.88418050 eV (relative to internal zero)
  | Occupation number:      2.00000000
  | K-point:       1 at    0.000000    0.000000    0.000000 (in units of recip. lattice)

  Lowest unoccupied state (CBM) at    -5.31983683 eV (relative to internal zero)
  | Occupation number:      0.00000000
  | K-point:       1 at    0.000000    0.000000    0.000000 (in units of recip. lattice)

  The gap value is above 0.2 eV. Unless you are using a very sparse k-point grid,
  this system is most likely an insulator or a semiconductor.
  ESTIMATED overall HOMO-LUMO gap:      4.56434368 eV between HOMO at k-point 1 and LUMO at k-point 1
  | This appears to be a direct band gap.

  | Chemical Potential                          :    -7.60200867 eV
  | Note that, for insulating systems, the printed 'chemical potential' value is not uniquely defined.
  | It can be anywhere in the energy gap, as long as it correctly separates occupied and unoccupied states.
  | In systems with a gap, the physically relevant chemical potential is the VBM or HOMO.

  Self-consistency cycle converged.


------------------------------------------------------------
  End self-consistency iteration #     1       :  max(cpu_time)    wall_clock(cpu1)
  | Time for this iteration                     :        0.401 s           0.406 s
  | Charge density update                       :        0.000 s           0.000 s
  | Density mixing                              :        0.004 s           0.004 s
  | Hartree multipole update                    :        0.015 s           0.015 s
  | Hartree multipole summation                 :        0.035 s           0.036 s
  | Integration                                 :        0.238 s           0.242 s
  | Solution of K.-S. eqns.                     :        0.105 s           0.106 s
  | Total energy evaluation                     :        0.001 s           0.001 s

  Partial memory accounting:
  | Current value for overall tracked memory usage:
  |   Minimum:       15.061 MB (on task 170)
  |   Maximum:       16.176 MB (on task 417)
  |   Average:       15.310 MB
  | Peak value for overall tracked memory usage:
  |   Minimum:       29.734 MB (on task 426 after allocating wave)
  |   Maximum:       32.800 MB (on task 289 after allocating wave)
  |   Average:       30.569 MB
  | Largest tracked array allocation so far:
  |   Minimum:        8.410 MB (overlap_matrix on task   0)
  |   Maximum:        8.410 MB (overlap_matrix on task   0)
  |   Average:        8.410 MB
  Note:  These values currently only include a subset of arrays which are explicitly tracked.
  The "true" memory usage will be greater.
------------------------------------------------------------

  Energy and forces in a compact form:
  | Total energy uncorrected      :         -0.119582865985757E+06 eV
  | Total energy corrected        :         -0.119582865985757E+06 eV  <-- do not rely on this value for anything but (periodic) metals
  | Electronic free energy        :         -0.119582865985757E+06 eV

  ------------------------------------ 
  Start decomposition of the XC Energy 
  ------------------------------------ 
  X and C from original XC functional choice 
  Hartree-Fock Energy :          0.000000000 Ha              0.000000000 eV
  X Energy            :       -357.421379482 Ha          -9725.930585604 eV
  C Energy            :        -23.665848196 Ha           -643.980494789 eV
  XC Energy w/o HF    :       -381.087227678 Ha         -10369.911080393 eV
  Total XC Energy     :       -381.087227678 Ha         -10369.911080393 eV
  ------------------------------------ 
  LDA X and C from self-consistent density 
  X Energy LDA        :       -357.421379482 Ha          -9725.930585604 eV
  C Energy LDA        :        -23.665848196 Ha           -643.980494789 eV
  ------------------------------------ 
  End decomposition of the XC Energy 
  ------------------------------------ 

------------------------------------------------------------

------------------------------------------------------------------------------
  Final output of selected total energy values:

  The following output summarizes some interesting total energy values
  at the end of a run (AFTER all relaxation, molecular dynamics, etc.).

  | Total energy of the DFT / Hartree-Fock s.c.f. calculation      :        -119582.865985757 eV
  | Final zero-broadening corrected energy (caution - metals only) :        -119582.865985757 eV
  | For reference only, the value of 1 Hartree used in FHI-aims is :             27.211384500 eV
  | For reference only, the overall average (free atom contribution
  | + realspace contribution) of the electrostatic potential after
  | s.c.f. convergence is                                          :            -16.784309736 eV

  Before relying on these values, please be sure to understand exactly which
  total energy value is referred to by a given number. Different objects may
  all carry the same name 'total energy'. Definitions:

  Total energy of the DFT / Hartree-Fock s.c.f. calculation:
  | Note that this energy does not include ANY quantities calculated after the
  | s.c.f. cycle, in particular not ANY RPA, MP2, etc. many-body perturbation terms.

  Final zero-broadening corrected energy:
  | For metallic systems only, a broadening of the occupation numbers at the Fermi
  | level can be extrapolated back to zero broadening by an electron-gas inspired
  | formula. For all systems that are not real metals, this value can be
  | meaningless and should be avoided.

------------------------------------------------------------------------------
  Methods described in the following list of references were used in this FHI-aims run.
  If you publish the results, please make sure to cite these reference if they apply.
  FHI-aims is an academic code, and for our developers (often, Ph.D. students
  and postdocs), scientific credit in the community is essential.
  Thank you for helping us!

  For any use of FHI-aims, please cite:

    Volker Blum, Ralf Gehrke, Felix Hanke, Paula Havu, Ville Havu,
    Xinguo Ren, Karsten Reuter, and Matthias Scheffler
    'Ab initio molecular simulations with numeric atom-centered orbitals'
    Computer Physics Communications 180, 2175-2196 (2009)
    http://doi.org/10.1016/j.cpc.2009.06.022


  The provided symmetry information was generated with SPGlib:

    Atsushi Togo, Yusuke Seto, Dimitar Pashov
    SPGlib 1.7.3 obtained from http://spglib.sourceforge.net
    Licence: New BSD license
    Copyright (C) 2008 Atsushi Togo


  The ELSI infrastructure was used in your run to solve the Kohn-Sham electronic structure.
  Please check out https://wordpress.elsi-interchange.org to learn more.
  If scalability is important for your project, please acknowledge ELSI by citing:

    V. W-z. Yu, F. Corsetti, A. Garcia, W. P. Huhn, M. Jacquelin, W. Jia,
    B. Lange, L. Lin, J. Lu, W. Mi, A. Seifitokaldani, A. Vazquez-Mayagoitia,
    C. Yang, H. Yang, and V. Blum
    'ELSI: A unified software interface for Kohn-Sham electronic structure solvers'
    Computer Physics Communications 222, 267-285 (2018).
    http://doi.org/10.1016/j.cpc.2017.09.007


  For the real-space grid partitioning and parallelization used in this calculation, please cite:

    Ville Havu, Volker Blum, Paula Havu, and Matthias Scheffler,
    'Efficient O(N) integration for all-electron electronic structure calculation'
    'using numerically tabulated basis functions'
    Journal of Computational Physics 228, 8367-8379 (2009).
    http://doi.org/10.1016/j.jcp.2009.08.008

  Of course, there are many other important community references, e.g., those cited in the
  above references. Our list is limited to references that describe implementations in the
  FHI-aims code. The reason is purely practical (length of this list) - please credit others as well.
------------------------------------------------------------
Warnings summary:

At least    0 warnings were raised during execution.

------------------------------------------------------------
          Leaving FHI-aims.
          Date     :  20260819, Time     :  150411.396

          Computational steps:
          | Number of self-consistency cycles          :            1
          | Number of SCF (re)initializations          :            1

          Detailed time accounting                     :  max(cpu_time)    wall_clock(cpu1)
          | Total time                                  :        7.711 s           8.041 s
          | Preparation time                            :        0.122 s           0.126 s
          | Boundary condition initalization            :        0.267 s           0.296 s
          | Grid partitioning                           :        0.090 s           0.094 s
          | Preloading free-atom quantities on grid     :        0.070 s           0.071 s
          | Free-atom superposition energy              :        0.010 s           0.010 s
          | Total time for integrations                 :        0.976 s           0.992 s
          | Total time for solution of K.-S. equations  :        0.271 s           0.279 s
          | Total time for density update               :        0.602 s           0.610 s
          | Total time for mixing                       :        0.005 s           0.005 s
          | Total time for Hartree multipole update     :        0.027 s           0.027 s
          | Total time for Hartree multipole sum        :        0.074 s           0.075 s
          | Total time for total energy evaluation      :        0.002 s           0.008 s
          | Total time for scaled ZORA corrections      :        0.000 s           0.000 s
          | Total time for matrix I/O                   :        0.077 s           0.080 s

          Partial memory accounting:
          | Residual value for overall tracked memory usage across tasks:     0.000000 MB (should be 0.000000 MB)
          | Peak values for overall tracked memory usage:
          |   Minimum:       29.734 MB (on task 426 after allocating wave)
          |   Maximum:       32.800 MB (on task 289 after allocating wave)
          |   Average:       30.569 MB
          | Largest tracked array allocation:
          |   Minimum:        8.410 MB (overlap_matrix on task   0)
          |   Maximum:        8.410 MB (overlap_matrix on task   0)
          |   Average:        8.410 MB
          Note:  These values currently only include a subset of arrays which are explicitly tracked.
          The "true" memory usage will be greater.

          Have a nice day.
------------------------------------------------------------
