5
Lattice="3.98772401 0.00252199 0.00251895 0.00732644 3.98771808 0.00251895 0.00732644 0.00731762 3.98771216" Properties=species:S:1:pos:R:3:REF_BEC:R:9 pbc="T T T"
Ba       0.00154942       0.00154755       0.00154569       2.80830638      -0.01544789      -0.01542931      -0.01544789       2.80834360      -0.01541073      -0.01542931      -0.01541073       2.80838069
Ti       2.04807538       2.04560932       2.04314920       6.30012722      -0.30413073      -0.30376497      -0.30413073       6.30086007      -0.30339921      -0.30376497      -0.30339921       6.30159027
O        1.95851857       1.95616035       3.91890703      -2.00679415      -0.01063077       0.09842846      -0.01063077      -2.00676854       0.09830994       0.22808623       0.22781159      -5.09564006
O        3.92361495       1.95379278       1.95144308      -5.09484530       0.23179379       0.23151503       0.10213612      -2.00719199      -0.01102815       0.10201328      -0.01102815      -2.00716545
O        1.95851857       3.92125815       1.95144308      -2.00679415       0.09841560      -0.01074921       0.22807327      -5.09524314       0.23152815      -0.01090523       0.10202650      -2.00716545
