5
Lattice="3.98772401 0.00252199 0.00251895 0.00732644 3.98771808 0.00251895 0.00732644 0.00731762 3.98771216" Properties=species:S:1:pos:R:3:displacements:R:3 energy=-254466.805093542 free_energy=-254466.805093542 polarization="0.226822038 0.226548839 0.226276298" REF_dipole="0.8977331394605331 0.896651852130034 0.895573169080895" pbc="T T T"
Ba       0.00154942       0.00154755       0.00154569       0.00000000       0.00000000       0.00000000
Ti       2.04807538       2.04560932       2.04314920       0.00000000       0.00000000       0.00000000
O        1.95851857       1.95616035       3.91890703       0.00000000       0.00000000       0.00000000
O        3.92361495       1.95379278       1.95144308       0.00000000       0.00000000       0.00000000
O        1.95851857       3.92125815       1.95144308       0.00000000       0.00000000       0.00000000
5
Lattice="3.98772401 0.00252199 0.00251895 0.00732644 3.98771808 0.00251895 0.00732644 0.00731762 3.98771216" Properties=species:S:1:pos:R:3:displacements:R:3 energy=-254466.805101383 free_energy=-254466.805101383 polarization="0.227531595 0.226544911 0.226272377" REF_dipole="0.9005414769521316 0.8966363055993576 0.8955576502553397" pbc="T T T"
Ba       0.00254942       0.00154755       0.00154569       0.00100000       0.00000000       0.00000000
Ti       2.04807538       2.04560932       2.04314920       0.00000000       0.00000000       0.00000000
O        1.95851857       1.95616035       3.91890703       0.00000000       0.00000000       0.00000000
O        3.92361495       1.95379278       1.95144308       0.00000000       0.00000000       0.00000000
O        1.95851857       3.92125815       1.95144308       0.00000000       0.00000000       0.00000000
5
Lattice="3.98772401 0.00252199 0.00251895 0.00732644 3.98771808 0.00251895 0.00732644 0.00731762 3.98771216" Properties=species:S:1:pos:R:3:displacements:R:3 energy=-254466.8050919 free_energy=-254466.8050919 polarization="0.228412613 0.226471735 0.226199287" REF_dipole="0.9040284355476683 0.896346684181649 0.89526836921483" pbc="T T T"
Ba       0.00154942       0.00154755       0.00154569       0.00000000       0.00000000       0.00000000
Ti       2.04907538       2.04560932       2.04314920       0.00100000       0.00000000       0.00000000
O        1.95851857       1.95616035       3.91890703       0.00000000       0.00000000       0.00000000
O        3.92361495       1.95379278       1.95144308       0.00000000       0.00000000       0.00000000
O        1.95851857       3.92125815       1.95144308       0.00000000       0.00000000       0.00000000
5
Lattice="3.98772401 0.00252199 0.00251895 0.00732644 3.98771808 0.00251895 0.00732644 0.00731762 3.98771216" Properties=species:S:1:pos:R:3:displacements:R:3 energy=-254466.805089671 free_energy=-254466.805089671 polarization="0.226314975 0.226546168 0.226301055" REF_dipole="0.8957262477893885 0.8966412806474889 0.8956711541776238" pbc="T T T"
Ba       0.00154942       0.00154755       0.00154569       0.00000000       0.00000000       0.00000000
Ti       2.04807538       2.04560932       2.04314920       0.00000000       0.00000000       0.00000000
O        1.95951857       1.95616035       3.91890703       0.00100000       0.00000000       0.00000000
O        3.92361495       1.95379278       1.95144308       0.00000000       0.00000000       0.00000000
O        1.95851857       3.92125815       1.95144308       0.00000000       0.00000000       0.00000000
5
Lattice="3.98772401 0.00252199 0.00251895 0.00732644 3.98771808 0.00251895 0.00732644 0.00731762 3.98771216" Properties=species:S:1:pos:R:3:displacements:R:3 energy=-254466.805078588 free_energy=-254466.805078588 polarization="0.226879491 0.226606222 0.224988238" REF_dipole="0.8979605312189187 0.8968789668372108 0.8904751893704159" pbc="T T T"
Ba       0.00154942       0.00154755       0.00154569       0.00000000       0.00000000       0.00000000
Ti       2.04807538       2.04560932       2.04314920       0.00000000       0.00000000       0.00000000
O        1.95851857       1.95616035       3.91990703       0.00000000       0.00000000       0.00100000
O        3.92361495       1.95379278       1.95144308       0.00000000       0.00000000       0.00000000
O        1.95851857       3.92125815       1.95144308       0.00000000       0.00000000       0.00000000
5
Lattice="3.98772401 0.00252199 0.00251895 0.00732644 3.98771808 0.00251895 0.00732644 0.00731762 3.98771216" Properties=species:S:1:pos:R:3:displacements:R:3 energy=-254466.805079872 free_energy=-254466.805079872 polarization="0.22611251 0.226552719 0.226280172" REF_dipole="0.8949249167472922 0.8966672086827385 0.8955885018863532" pbc="T T T"
Ba       0.00054942       0.00154755       0.00154569      -0.00100000       0.00000000       0.00000000
Ti       2.04807538       2.04560932       2.04314920       0.00000000       0.00000000       0.00000000
O        1.95851857       1.95616035       3.91890703       0.00000000       0.00000000       0.00000000
O        3.92361495       1.95379278       1.95144308       0.00000000       0.00000000       0.00000000
O        1.95851857       3.92125815       1.95144308       0.00000000       0.00000000       0.00000000
5
Lattice="3.98772401 0.00252199 0.00251895 0.00732644 3.98771808 0.00251895 0.00732644 0.00731762 3.98771216" Properties=species:S:1:pos:R:3:displacements:R:3 energy=-254466.805088568 free_energy=-254466.805088568 polarization="0.225229035 0.226625419 0.226352786" REF_dipole="0.8914282336543344 0.8969549461522289 0.8958758989786445" pbc="T T T"
Ba       0.00154942       0.00154755       0.00154569       0.00000000       0.00000000       0.00000000
Ti       2.04707538       2.04560932       2.04314920      -0.00100000       0.00000000       0.00000000
O        1.95851857       1.95616035       3.91890703       0.00000000       0.00000000       0.00000000
O        3.92361495       1.95379278       1.95144308       0.00000000       0.00000000       0.00000000
O        1.95851857       3.92125815       1.95144308       0.00000000       0.00000000       0.00000000
5
Lattice="3.98772401 0.00252199 0.00251895 0.00732644 3.98771808 0.00251895 0.00732644 0.00731762 3.98771216" Properties=species:S:1:pos:R:3:displacements:R:3 energy=-254466.80509209 free_energy=-254466.80509209 polarization="0.227329065 0.22655154 0.226251317" REF_dipole="0.8997398886481993 0.8966625423488109 0.8954742974202989" pbc="T T T"
Ba       0.00154942       0.00154755       0.00154569       0.00000000       0.00000000       0.00000000
Ti       2.04807538       2.04560932       2.04314920       0.00000000       0.00000000       0.00000000
O        1.95751857       1.95616035       3.91890703      -0.00100000       0.00000000       0.00000000
O        3.92361495       1.95379278       1.95144308       0.00000000       0.00000000       0.00000000
O        1.95851857       3.92125815       1.95144308       0.00000000       0.00000000       0.00000000
5
Lattice="3.98772401 0.00252199 0.00251895 0.00732644 3.98771808 0.00251895 0.00732644 0.00731762 3.98771216" Properties=species:S:1:pos:R:3:displacements:R:3 energy=-254466.805098671 free_energy=-254466.805098671 polarization="0.226764233 0.226491105 0.227563189" REF_dipole="0.8975043545303558 0.8964233482089395 0.9006665220361908" pbc="T T T"
Ba       0.00154942       0.00154755       0.00154569       0.00000000       0.00000000       0.00000000
Ti       2.04807538       2.04560932       2.04314920       0.00000000       0.00000000       0.00000000
O        1.95851857       1.95616035       3.91790703       0.00000000       0.00000000      -0.00100000
O        3.92361495       1.95379278       1.95144308       0.00000000       0.00000000       0.00000000
O        1.95851857       3.92125815       1.95144308       0.00000000       0.00000000       0.00000000
