8
Lattice="4.283 0.0 0.0 0.0 4.283 0.0 0.0 0.0 4.283" Properties=species:S:1:pos:R:3:displacements:R:3 energy=-30032.2479928793 free_energy=-30032.2479928793 polarization="-0.000473176524 -0.000473176524 -0.000473176524" REF_dipole="-0.002320371856823537 -0.002320371856823537 -0.002320371856823537" pbc="T T T"
Mg      -0.00028868      -0.00028868      -0.00028868      -0.00028868      -0.00028868      -0.00028868
Mg       2.14121132       2.14121132      -0.00028868      -0.00028868      -0.00028868      -0.00028868
Mg       2.14121132      -0.00028868       2.14121132      -0.00028868      -0.00028868      -0.00028868
Mg      -0.00028868       2.14121132       2.14121132      -0.00028868      -0.00028868      -0.00028868
O        0.00000000       0.00000000       2.14150000       0.00000000       0.00000000       0.00000000
O        2.14150000       0.00000000       0.00000000       0.00000000       0.00000000       0.00000000
O        0.00000000       2.14150000       0.00000000       0.00000000       0.00000000       0.00000000
O        2.14150000       2.14150000       2.14150000       0.00000000       0.00000000       0.00000000
8
Lattice="4.283 0.0 0.0 0.0 4.283 0.0 0.0 0.0 4.283" Properties=species:S:1:pos:R:3:displacements:R:3 energy=-30032.2479927112 free_energy=-30032.2479927112 polarization="0.000529027182 0.000423221753 0.000423221753" REF_dipole="0.0025942533543939373 0.0020754027198034075 0.0020754027198034075" pbc="T T T"
Mg       0.00000000       0.00000000       0.00000000       0.00000000       0.00000000       0.00000000
Mg       2.14150000       2.14150000       0.00000000       0.00000000       0.00000000       0.00000000
Mg       2.14150000       0.00000000       2.14150000       0.00000000       0.00000000       0.00000000
Mg       0.00000000       2.14150000       2.14150000       0.00000000       0.00000000       0.00000000
O       -0.00051640      -0.00025820       2.14124180      -0.00051640      -0.00025820      -0.00025820
O        2.14124180      -0.00025820      -0.00025820      -0.00025820      -0.00025820      -0.00025820
O       -0.00025820       2.14124180      -0.00025820      -0.00025820      -0.00025820      -0.00025820
O        2.14124180       2.14124180       2.14124180      -0.00025820      -0.00025820      -0.00025820
8
Lattice="4.283 0.0 0.0 0.0 4.283 0.0 0.0 0.0 4.283" Properties=species:S:1:pos:R:3:displacements:R:3 energy=-30032.2479948375 free_energy=-30032.2479948375 polarization="2.3563009e-14 -1.745408e-15 5.0907735e-14" REF_dipole="1.155487226701038e-13 -8.559164278984088e-15 2.4964229964340024e-13" pbc="T T T"
Mg       0.00000000       0.00000000       0.00000000       0.00000000       0.00000000       0.00000000
Mg       2.14150000       2.14150000       0.00000000       0.00000000       0.00000000       0.00000000
Mg       2.14150000       0.00000000       2.14150000       0.00000000       0.00000000       0.00000000
Mg       0.00000000       2.14150000       2.14150000       0.00000000       0.00000000       0.00000000
O        0.00000000       0.00000000       2.14150000       0.00000000       0.00000000       0.00000000
O        2.14150000       0.00000000       0.00000000       0.00000000       0.00000000       0.00000000
O        0.00000000       2.14150000       0.00000000       0.00000000       0.00000000       0.00000000
O        2.14150000       2.14150000       2.14150000       0.00000000       0.00000000       0.00000000
8
Lattice="4.283 0.0 0.0 0.0 4.283 0.0 0.0 0.0 4.283" Properties=species:S:1:pos:R:3:displacements:R:3 energy=-30032.2479927113 free_energy=-30032.2479927113 polarization="-0.000529027182 -0.000423221753 -0.000423221753" REF_dipole="-0.0025942533543939373 -0.0020754027198034075 -0.0020754027198034075" pbc="T T T"
Mg       0.00000000       0.00000000       0.00000000       0.00000000       0.00000000       0.00000000
Mg       2.14150000       2.14150000       0.00000000       0.00000000       0.00000000       0.00000000
Mg       2.14150000       0.00000000       2.14150000       0.00000000       0.00000000       0.00000000
Mg       0.00000000       2.14150000       2.14150000       0.00000000       0.00000000       0.00000000
O        0.00051640       0.00025820       2.14175820       0.00051640       0.00025820       0.00025820
O        2.14175820       0.00025820       0.00025820       0.00025820       0.00025820       0.00025820
O        0.00025820       2.14175820       0.00025820       0.00025820       0.00025820       0.00025820
O        2.14175820       2.14175820       2.14175820       0.00025820       0.00025820       0.00025820
8
Lattice="4.283 0.0 0.0 0.0 4.283 0.0 0.0 0.0 4.283" Properties=species:S:1:pos:R:3:displacements:R:3 energy=-30032.2479928796 free_energy=-30032.2479928796 polarization="0.000473176524 0.000473176524 0.000473176524" REF_dipole="0.002320371856823537 0.002320371856823537 0.002320371856823537" pbc="T T T"
Mg       0.00028868       0.00028868       0.00028868       0.00028868       0.00028868       0.00028868
Mg       2.14178868       2.14178868       0.00028868       0.00028868       0.00028868       0.00028868
Mg       2.14178868       0.00028868       2.14178868       0.00028868       0.00028868       0.00028868
Mg       0.00028868       2.14178868       2.14178868       0.00028868       0.00028868       0.00028868
O        0.00000000       0.00000000       2.14150000       0.00000000       0.00000000       0.00000000
O        2.14150000       0.00000000       0.00000000       0.00000000       0.00000000       0.00000000
O        0.00000000       2.14150000       0.00000000       0.00000000       0.00000000       0.00000000
O        2.14150000       2.14150000       2.14150000       0.00000000       0.00000000       0.00000000
