8
Lattice="4.283 0.0 0.0 0.0 4.283 0.0 0.0 0.0 4.283" Properties=species:S:1:pos:R:3:spacegroup_kinds:I:1 spacegroup="F m -3 m" unit_cell=conventional occupancy="_JSON {\"0\": {\"Mg\": 1}, \"1\": {\"O\": 1}}" pbc="T T T"
Mg       0.00000000       0.00000000       0.00000000        0
Mg       2.14150000       2.14150000       0.00000000        0
Mg       2.14150000       0.00000000       2.14150000        0
Mg       0.00000000       2.14150000       2.14150000        0
O        0.00000000       0.00000000       2.14150000        1
O        2.14150000       0.00000000       0.00000000        1
O        0.00000000       2.14150000       0.00000000        1
O        2.14150000       2.14150000       2.14150000        1
