5
Lattice="4.0171635390796006 1.4835361839399e-32 3.946542858501867e-33 1.7646923970789746e-32 4.0171635390796006 2.3107457656683953e-20 8.787927243455377e-33 2.3107457656674507e-20 4.0171635390796006" Properties=species:S:1:pos:R:3:forces:R:3 energy=-254603.1942728228 free_energy=-254603.1942728228 stress="-2.2622995637553506e-07 -2.8289198218464726e-11 -5.210231329922023e-11 -2.8289198218464726e-11 1.378060547551834e-07 3.4199919464419405e-11 -5.210231329922023e-11 3.4199919464419405e-11 8.706831781938892e-08" pbc="T T T"
Ba       2.00775307       2.00816742       2.00816742      -0.00000213      -0.00000146      -0.00000194
Ti      -0.00082870      -0.00041435      -0.00041435       0.00000050       0.00000033       0.00000047
O       -0.00082870      -0.00041435       2.00816742       0.00000054       0.00000038       0.00000048
O        2.00775307      -0.00041435      -0.00041435       0.00000054       0.00000037       0.00000049
O       -0.00082870       2.00816742      -0.00041435       0.00000054       0.00000038       0.00000049
