srun: Step created for StepId=30568485.5
------------------------------------------------------------
          Invoking FHI-aims ...

          When using FHI-aims, please cite the following reference:

            Volker Blum, Ralf Gehrke, Felix Hanke, Paula Havu,
            Ville Havu, Xinguo Ren, Karsten Reuter, and Matthias Scheffler,
            'Ab Initio Molecular Simulations with Numeric Atom-Centered Orbitals',
            Computer Physics Communications 180, 2175-2196 (2009)

          In addition, many other developments in FHI-aims are likely important for
          your particular application. If so, please cite them. A partial list of references
          is written at the end of this file. Thank you for giving credit to the authors
          of these developments.

          For general information about FHI-aims please find us at

            https://fhi-aims.org

          Online tutorials can be found at

            https://fhi-aims-club.gitlab.io/tutorials/tutorials-overview/

          For any questions about FHI-aims, please visit our slack channel at

            https://fhi-aims.slack.com

          and our main development and support site at

            https://aims-git.rz-berlin.mpg.de .

          The latter site, in particular, has a wiki to collect information, as well
          as an issue tracker to log discussions, suggest improvements, and report issues
          or bugs. https://aims-git.rz-berlin.mpg.de is also the main development site
          of the project and all new and updated code versions can be obtained there.
          Please send an email to aims-coordinators@ms1p.org and we will add
          you to these sites. They are for you and everyone is welcome there.

------------------------------------------------------------



  Date     :  20260926, Time     :  065356.329
  Time zero on CPU 1             :   0.495880000000000E-01  s.
  Internal wall clock time zero  :           559637636.329  s.

  FHI-aims created a unique identifier for this run for later identification
  aims_uuid : FB4A7479-7A35-40D2-ABC1-854A50A282A9

  Build configuration of the current instance of FHI-aims
  -------------------------------------------------------
  FHI-aims version      : 260326
  Commit number         : 7744e1eea
  CMake host system     : Linux-6.4.0-150700.53.31-default
  CMake version         : 3.28.3
  OS Distribution       : SUSE Linux Enterprise Server 15 SP7
  Built on              : Intel(R) Xeon(R) Platinum 8360Y CPU @ 2.40GHz
  Fortran compiler      : /mpcdf/soft/SLE_15/packages/x86_64/intel_oneapi/2024.0/mpi/2021.11/bin/mpiifort (Intel) version 2021.1.0.20231117
  Fortran compiler flags: -O3 -ip -fp-model precise -diag-disable=10448
  C compiler            : /mpcdf/soft/SLE_15/packages/x86_64/intel/2024.0.2/bin/icx (IntelLLVM) version 2024.0.2
  C compiler flags      : -O3 -std=gnu99
  C++ compiler          : /mpcdf/soft/SLE_15/packages/x86_64/intel/2024.0.2/bin/icpx (IntelLLVM) version 2024.0.2
  C++ compiler flags    : -O3 -std=c++14
  HIP compiler          :
  HIP compiler flags    :
  HIP GPU arch          :
  Using MPI
  Using ScaLAPACK
  Using LibXC
  Using i-PI
  Using RLSY
  Using GREENX
  Linking against: /mpcdf/soft/SLE_15/packages/x86_64/intel_oneapi/2024.0/mkl/latest/lib/libmkl_intel_lp64.so
                   /mpcdf/soft/SLE_15/packages/x86_64/intel_oneapi/2024.0/mkl/latest/lib/libmkl_sequential.so
                   /mpcdf/soft/SLE_15/packages/x86_64/intel_oneapi/2024.0/mkl/latest/lib/libmkl_core.so
                   /mpcdf/soft/SLE_15/packages/x86_64/intel_oneapi/2024.0/mkl/latest/lib/libmkl_blacs_intelmpi_lp64.so
                   /mpcdf/soft/SLE_15/packages/x86_64/intel_oneapi/2024.0/mkl/latest/lib/libmkl_scalapack_lp64.so

  Using       72 parallel tasks.
  Task        0 on host ravc2142 reporting.
  Task        1 on host ravc2142 reporting.
  Task        2 on host ravc2142 reporting.
  Task        3 on host ravc2142 reporting.
  Task        4 on host ravc2142 reporting.
  Task        5 on host ravc2142 reporting.
  Task        6 on host ravc2142 reporting.
  Task        7 on host ravc2142 reporting.
  Task        8 on host ravc2142 reporting.
  Task        9 on host ravc2142 reporting.
  Task       10 on host ravc2142 reporting.
  Task       11 on host ravc2142 reporting.
  Task       12 on host ravc2142 reporting.
  Task       13 on host ravc2142 reporting.
  Task       14 on host ravc2142 reporting.
  Task       15 on host ravc2142 reporting.
  Task       16 on host ravc2142 reporting.
  Task       17 on host ravc2142 reporting.
  Task       18 on host ravc2142 reporting.
  Task       19 on host ravc2142 reporting.
  Task       20 on host ravc2142 reporting.
  Task       21 on host ravc2142 reporting.
  Task       22 on host ravc2142 reporting.
  Task       23 on host ravc2142 reporting.
  Task       24 on host ravc2142 reporting.
  Task       25 on host ravc2142 reporting.
  Task       26 on host ravc2142 reporting.
  Task       27 on host ravc2142 reporting.
  Task       28 on host ravc2142 reporting.
  Task       29 on host ravc2142 reporting.
  Task       30 on host ravc2142 reporting.
  Task       31 on host ravc2142 reporting.
  Task       32 on host ravc2142 reporting.
  Task       33 on host ravc2142 reporting.
  Task       34 on host ravc2142 reporting.
  Task       35 on host ravc2142 reporting.
  Task       36 on host ravc2142 reporting.
  Task       37 on host ravc2142 reporting.
  Task       38 on host ravc2142 reporting.
  Task       39 on host ravc2142 reporting.
  Task       40 on host ravc2142 reporting.
  Task       41 on host ravc2142 reporting.
  Task       42 on host ravc2142 reporting.
  Task       43 on host ravc2142 reporting.
  Task       44 on host ravc2142 reporting.
  Task       45 on host ravc2142 reporting.
  Task       46 on host ravc2142 reporting.
  Task       47 on host ravc2142 reporting.
  Task       48 on host ravc2142 reporting.
  Task       49 on host ravc2142 reporting.
  Task       50 on host ravc2142 reporting.
  Task       51 on host ravc2142 reporting.
  Task       52 on host ravc2142 reporting.
  Task       53 on host ravc2142 reporting.
  Task       54 on host ravc2142 reporting.
  Task       55 on host ravc2142 reporting.
  Task       56 on host ravc2142 reporting.
  Task       57 on host ravc2142 reporting.
  Task       58 on host ravc2142 reporting.
  Task       59 on host ravc2142 reporting.
  Task       60 on host ravc2142 reporting.
  Task       61 on host ravc2142 reporting.
  Task       62 on host ravc2142 reporting.
  Task       63 on host ravc2142 reporting.
  Task       64 on host ravc2142 reporting.
  Task       65 on host ravc2142 reporting.
  Task       66 on host ravc2142 reporting.
  Task       67 on host ravc2142 reporting.
  Task       68 on host ravc2142 reporting.
  Task       69 on host ravc2142 reporting.
  Task       70 on host ravc2142 reporting.
  Task       71 on host ravc2142 reporting.

  Obtaining array dimensions for all initial allocations:
  
  -----------------------------------------------------------------------
  Parsing control.in (first pass over file, find array dimensions only).
  The contents of control.in will be repeated verbatim below
  unless switched off by setting 'verbatim_writeout .false.' .
  in the first line of control.in .
  -----------------------------------------------------------------------
  
  xc                           pbesol
  relativistic                 atomic_zora scalar
  k_grid 8 8 8
  output polarization 1 56 8 8
  output polarization 2 8 56 8
  output polarization 3 8 8 56
  sc_accuracy_rho              1e-6
  KS_method                    serial
  elsi_restart read
  
  
  ################################################################################
  #
  #  FHI-aims code project
  #  Volker Blum, Fritz Haber Institute Berlin, 2009
  #
  #  Suggested "tight" defaults for Ba atom (to be pasted into control.in file)
  #
  #  The onset of the cutoff pot'l WAS set to 8 A by default, because the neutral
  #  Ba atom is a large atom. However, this is very expensive. The radius should be
  #  much smaller in real-world situations, where Ba will be ionic. Please check
  #  and reduce the cutoff radius explicitly.
  #
  #  2015/11/12 : f and g functions from tier2 added to default basis set choice.
  #               These functions make a difference in the "delta test".
  #               Reduced the default cutoff radius to 6AA. The free-atom 6s function
  #               requires more. However, 6AA is already VERY expensive for
  #               any production calculations. In fact, revisit this choice for
  #               ionic systems to see if a smaller cutoff radius will do.
  #
  ################################################################################
    species          Ba
  #     global species definitions
      nucleus        56
      mass           137.327
  #
      l_hartree      6
  #
      cut_pot        6.0  2.0  1.0
      basis_dep_cutoff    1e-4
  #
      radial_base    65  7.0
      radial_multiplier  2
      angular_grids specified
        division   0.6752  110
        division   0.9746  194
        division   1.2241  302
        division   1.3850  434
  #      division   1.4734  590
  #      division   1.6010  770
  #      division   4.8366  974
  #      outer_grid  974
        outer_grid  434
  ################################################################################
  #
  #  Definition of "minimal" basis
  #
  ################################################################################
  #     valence basis states
      valence      6  s   2.
      valence      5  p   6.
      valence      4  d  10.
  #     ion occupancy
      ion_occ      6  s   1.
      ion_occ      5  p   6.
      ion_occ      4  d  10.
  ################################################################################
  #
  #  Suggested additional basis functions. For production calculations,
  #  uncomment them one after another (the most important basis functions are
  #  listed first).
  #
  #  Constructed for dimers: 2.65, 3.00, 3.50, 4.40, 5.50 Ang
  #
  ################################################################################
  #  "First tier" - improvements: -1277.43 meV to -9.16 meV
       ionic 5 d auto
       ionic 4 f auto
       hydro 3 p 2.7
       hydro 4 s 3.3
  #  "Second tier" - improvements: -64.04 (!) meV to -0.25 meV
       hydro 4 f 5.8
       hydro 5 g 7.4
  #     hydro 4 d 4.5
  #     hydro 6 h 11.2
  #     hydro 5 p 6.6
  #     hydro 2 s 3.2
  #  "Third tier" - max. impr. -1.16 meV, min. impr. -0.08 meV
  #     hydro 5 f 7.4
  #     hydro 5 g 10.8
  #     hydro 4 d 2.3
  #     hydro 4 p 3.7
  #     hydro 5 s 4.0
  #  Further functions - impr. -0.35 meV and below
  #     hydro 5 d 3.5
  #     hydro 6 d 0.4
  #     hydro 2 p 2.5
  #     hydro 5 f 12
  #     hydro 6 d 8.8
  ################################################################################
  #
  #  FHI-aims code project
  #  Volker Blum, Fritz Haber Institute Berlin, 2009
  #
  #  Suggested "tight" defaults for O atom (to be pasted into control.in file)
  #
  ################################################################################
    species        O
  #     global species definitions
      nucleus             8
      mass                15.9994
  #
      l_hartree           6
  #
      cut_pot             4.0  2.0  1.0
      basis_dep_cutoff    1e-4
  #
      radial_base         36 7.0
      radial_multiplier   2
       angular_grids specified
        division   0.1817   50
        division   0.3417  110
        division   0.4949  194
        division   0.6251  302
        division   0.8014  434
  #      division   0.8507  590
  #      division   0.8762  770
  #      division   0.9023  974
  #      division   1.2339 1202
  #      outer_grid 974
        outer_grid  434
  ################################################################################
  #
  #  Definition of "minimal" basis
  #
  ################################################################################
  #     valence basis states
      valence      2  s   2.
      valence      2  p   4.
  #     ion occupancy
      ion_occ      2  s   1.
      ion_occ      2  p   3.
  ################################################################################
  #
  #  Suggested additional basis functions. For production calculations,
  #  uncomment them one after another (the most important basis functions are
  #  listed first).
  #
  #  Constructed for dimers: 1.0 A, 1.208 A, 1.5 A, 2.0 A, 3.0 A
  #
  ################################################################################
  #  "First tier" - improvements: -699.05 meV to -159.38 meV
       hydro 2 p 1.8
       hydro 3 d 7.6
       hydro 3 s 6.4
  #  "Second tier" - improvements: -49.91 meV to -5.39 meV
       hydro 4 f 11.6
       hydro 3 p 6.2
       hydro 3 d 5.6
       hydro 5 g 17.6
       hydro 1 s 0.75
  #  "Third tier" - improvements: -2.83 meV to -0.50 meV
  #     ionic 2 p auto
  #     hydro 4 f 10.8
  #     hydro 4 d 4.7
  #     hydro 2 s 6.8
  #  "Fourth tier" - improvements: -0.40 meV to -0.12 meV
  #     hydro 3 p 5
  #     hydro 3 s 3.3
  #     hydro 5 g 15.6
  #     hydro 4 f 17.6
  #     hydro 4 d 14
  # Further basis functions - -0.08 meV and below
  #     hydro 3 s 2.1
  #     hydro 4 d 11.6
  #     hydro 3 p 16
  #     hydro 2 s 17.2
  ################################################################################
  #
  # For methods that use the localized form of the "resolution of identity" for
  # the two-electron Coulomb operator (RI_method LVL), particularly Hartree-Fock and
  # hybrid density functional calculations, the highest accuracy can be obtained by
  # uncommenting the line beginning with "for_aux"  below, thus adding an extra g radial
  # function to the construction of the product basis set for the expansion.
  # See Ref. New J. Phys. 17, 093020 (2015) for more information, particularly Figs. 1 and 6.
  #
  ################################################################################
  #
  # for_aux hydro 5 g 6.0
  ################################################################################
  #
  #  FHI-aims code project
  #  Volker Blum, Fritz Haber Institute Berlin, 2009
  #
  #  Suggested "tight" defaults for Ti atom (to be pasted into control.in file)
  #
  ################################################################################
    species        Ti
  #     global species definitions
      nucleus             22
      mass                47.867
  #
      l_hartree           6
  #
      cut_pot             4.0          2.0  1.0
      basis_dep_cutoff    1e-4
  #
      radial_base         48 7.0
      radial_multiplier   2
      angular_grids       specified
        division   0.3263   50
        division   0.7218  110
        division   1.0925  194
        division   1.3188  302
        division   1.4940  434
  #      division   1.6583  590
  #      division   1.8821  770
  #      division   2.0961  974
  #      division   3.3854 1202
  #      outer_grid  974
        outer_grid  434
  ################################################################################
  #
  #  Definition of "minimal" basis
  #
  ################################################################################
  #     valence basis states
      valence      4  s   2.
      valence      3  p   6.
      valence      3  d   2.
  #     ion occupancy
      ion_occ      4  s   1.
      ion_occ      3  p   6.
      ion_occ      3  d   1.
  ################################################################################
  #
  #  Suggested additional basis functions. For production calculations,
  #  uncomment them one after another (the most important basis functions are
  #  listed first).
  #
  #  Constructed for dimers: 1.6 A, 1.85 A, 2.5 A, 3.25 A, 4.25 A
  #
  ################################################################################
  #  "First tier" - improvements: -396.25 meV to -19.41 meV
       hydro 4 f 8
       hydro 3 d 2.7
       ionic 4 p auto
       hydro 5 g 11.6
       ionic 4 s auto
  #  "Second tier" - improvements: -16.30 meV to -2.03 meV
  #     hydro 3 d 4.4
  #     hydro 6 h 16
  #     hydro 4 f 9.4
  #     hydro 4 p 4.5
  #     hydro 1 s 0.5
  #  "Third tier" - improvements: -6.28 meV to -0.37 meV
  #     hydro 4 d 6.4
  #     hydro 4 f 10
  #     hydro 5 g 12
  #     hydro 2 p 1.7
  #     hydro 6 h 16.4
  #     hydro 4 s 3.8
  #  Further basis functions: -0.45 meV and smaller improvements
  #     hydro 3 d 8.8
  #     hydro 5 p 18
  #     hydro 4 f 22.4
  #     hydro 5 f 7.2  # -0.16 meV
  #     hydro 3 d 2.1  # -0.11 meV
  #     hydro 5 g 7.4  # -0.09 meV
  
  -----------------------------------------------------------------------
  Completed first pass over input file control.in .
  -----------------------------------------------------------------------
  
  
  -----------------------------------------------------------------------
  Parsing geometry.in (first pass over file, find array dimensions only).
  The contents of geometry.in will be repeated verbatim below
  unless switched off by setting 'verbatim_writeout .false.' .
  in the first line of geometry.in .
  -----------------------------------------------------------------------
  
  #===============================================================================
  # Created using the Atomic Simulation Environment (ASE)
  
  # Thu Sep 24 13:47:55 2026
  
  #=======================================================
  lattice_vector 3.9877240129930001 0.0025219866180000 0.0025189535810000
  lattice_vector 0.0073264375850000 3.9877180802479999 0.0025189535810000
  lattice_vector 0.0073264375850000 0.0073176159250000 3.9877121617740001
  atom 0.0005494200000000 0.0015475500000000 0.0015456900000000 Ba
  atom 2.0480753799999998 2.0456093200000001 2.0431492000000002 Ti
  atom 1.9585185700000001 1.9561603500000000 3.9189070300000002 O
  atom 3.9236149500000002 1.9537927799999999 1.9514430800000000 O
  atom 1.9585185700000001 3.9212581499999999 1.9514430800000000 O
  
  -----------------------------------------------------------------------
  Completed first pass over input file geometry.in .
  -----------------------------------------------------------------------
  

  Basic array size parameters:
  | Number of species                 :        3
  | Number of atoms                   :        5
  | Number of lattice vectors         :        3
  | Max. basis fn. angular momentum   :        4
  | Max. atomic/ionic basis occupied n:        6
  | Max. number of basis fn. types    :        3
  | Max. radial fns per species/type  :       12
  | Max. logarithmic grid size        :     1460
  | Max. radial integration grid size :      131
  | Max. angular integration grid size:      434
  | Max. angular grid division number :        8
  | Radial grid for Hartree potential :     1460
  | Number of spin channels           :        1

  Definition of standardized fundamental physical constants in this FHI-aims run:
  | Using the set of values used in FHI-aims up to 2024, which combines values from
  | different CODATA sets - see constants.f90.
  | Use the 'codata' keyword in control.in to change this selection.

  Memory overcommitment is allowed on your operating system.

------------------------------------------------------------
          Reading file control.in.
------------------------------------------------------------
  XC: Using PBEsol gradient-corrected functionals.
  Scalar relativistic treatment of kinetic energy: on-site free-atom approximation to ZORA.
  Found k-point grid:         8         8         8

  Polarization directive number:    1
  | Calculating polarization along reciprocal lattice vector 1 using   56 k-points parallel to this direction.
  | Full Brillouin zone sampling is thus performed on a    56 x     8 x     8 grid

  Polarization directive number:    2
  | Calculating polarization along reciprocal lattice vector 2 using   56 k-points parallel to this direction.
  | Full Brillouin zone sampling is thus performed on a     8 x    56 x     8 grid

  Polarization directive number:    3
  | Calculating polarization along reciprocal lattice vector 3 using   56 k-points parallel to this direction.
  | Full Brillouin zone sampling is thus performed on a     8 x     8 x    56 grid
  Convergence accuracy of self-consistent charge density:  0.1000E-05
  Kohn-Sham eigenvalues and eigenfunctions calculated by LAPACK via ELSI.
  Using elsi_restart infrastructure.
  Restarting calculation from saved density matrices.
 
  Reading configuration options for species Ba                  .
  | Found nuclear charge :  56.0000
  | Found atomic mass :    137.327000000000      amu
  | Found l_max for Hartree potential  :   6
  | Found cutoff potl. onset [A], width [A], scale factor :    6.00000    2.00000    1.00000
  | Threshold for basis-dependent cutoff potential is   0.100000E-03
  | Found data for basic radial integration grid :    65 points, outermost radius =    7.000 A
  | Found multiplier for basic radial grid :   2
  | Found angular grid specification: user-specified.
  | Specified grid contains     5 separate shells.
  | Check grid settings after all constraints further below.
  | Found free-atom valence shell :  6 s   2.000
  | Found free-atom valence shell :  5 p   6.000
  | Found free-atom valence shell :  4 d  10.000
  | Found free-ion valence shell :  6 s   1.000
  | Found free-ion valence shell :  5 p   6.000
  | Found free-ion valence shell :  4 d  10.000
  | Found ionic basis function :  5 d , default cutoff radius.
  | Found ionic basis function :  4 f , default cutoff radius.
  | Found hydrogenic basis function :  3 p   2.700
  | Found hydrogenic basis function :  4 s   3.300
  | Found hydrogenic basis function :  4 f   5.800
  | Found hydrogenic basis function :  5 g   7.400
 | Encountered keyword species, ending the description of species Ba                  .
  Species Ba                  : Missing cutoff potential type.
  Defaulting to exp(1/x)/(1-x)^2 type cutoff potential.
  Species Ba: No 'logarithmic' tag. Using default grid for free atom:
  | Default logarithmic grid data [bohr] : 0.1000E-03 0.1000E+03 0.1012E+01
  | Will include ionic basis functions of  1.0-fold positive Ba                   ion.
  Species Ba: On-site basis accuracy parameter (for Gram-Schmidt orthonormalisation) not specified.
  Using default value basis_acc =  0.1000000E-03.
  Species Ba                  : Using default innermost maximum threshold i_radial=  2 for radial functions.
  Species Ba                  : Default cutoff onset for free atom density etc. : 0.60000000E+01 AA.
  Species Ba                  : Basic radial grid will be enhanced according to radial_multiplier =   2, to contain   131 grid points.
 
  Reading configuration options for species O                   .
  | Found nuclear charge :   8.0000
  | Found atomic mass :    15.9994000000000      amu
  | Found l_max for Hartree potential  :   6
  | Found cutoff potl. onset [A], width [A], scale factor :    4.00000    2.00000    1.00000
  | Threshold for basis-dependent cutoff potential is   0.100000E-03
  | Found data for basic radial integration grid :    36 points, outermost radius =    7.000 A
  | Found multiplier for basic radial grid :   2
  | Found angular grid specification: user-specified.
  | Specified grid contains     6 separate shells.
  | Check grid settings after all constraints further below.
  | Found free-atom valence shell :  2 s   2.000
  | Found free-atom valence shell :  2 p   4.000
  | Found free-ion valence shell :  2 s   1.000
  | Found free-ion valence shell :  2 p   3.000
  | Found hydrogenic basis function :  2 p   1.800
  | Found hydrogenic basis function :  3 d   7.600
  | Found hydrogenic basis function :  3 s   6.400
  | Found hydrogenic basis function :  4 f  11.600
  | Found hydrogenic basis function :  3 p   6.200
  | Found hydrogenic basis function :  3 d   5.600
  | Found hydrogenic basis function :  5 g  17.600
  | Found hydrogenic basis function :  1 s   0.750
 | Encountered keyword species, ending the description of species O                   .
  Species O                   : Missing cutoff potential type.
  Defaulting to exp(1/x)/(1-x)^2 type cutoff potential.
  Species O : No 'logarithmic' tag. Using default grid for free atom:
  | Default logarithmic grid data [bohr] : 0.1000E-03 0.1000E+03 0.1012E+01
  Species O : On-site basis accuracy parameter (for Gram-Schmidt orthonormalisation) not specified.
  Using default value basis_acc =  0.1000000E-03.
  Species O                   : Using default innermost maximum threshold i_radial=  2 for radial functions.
  Species O                   : Default cutoff onset for free atom density etc. : 0.40000000E+01 AA.
  Species O                   : Basic radial grid will be enhanced according to radial_multiplier =   2, to contain    73 grid points.
 
  Reading configuration options for species Ti                  .
  | Found nuclear charge :  22.0000
  | Found atomic mass :    47.8670000000000      amu
  | Found l_max for Hartree potential  :   6
  | Found cutoff potl. onset [A], width [A], scale factor :    4.00000    2.00000    1.00000
  | Threshold for basis-dependent cutoff potential is   0.100000E-03
  | Found data for basic radial integration grid :    48 points, outermost radius =    7.000 A
  | Found multiplier for basic radial grid :   2
  | Found angular grid specification: user-specified.
  | Specified grid contains     6 separate shells.
  | Check grid settings after all constraints further below.
  | Found free-atom valence shell :  4 s   2.000
  | Found free-atom valence shell :  3 p   6.000
  | Found free-atom valence shell :  3 d   2.000
  | Found free-ion valence shell :  4 s   1.000
  | Found free-ion valence shell :  3 p   6.000
  | Found free-ion valence shell :  3 d   1.000
  | Found hydrogenic basis function :  4 f   8.000
  | Found hydrogenic basis function :  3 d   2.700
  | Found ionic basis function :  4 p , default cutoff radius.
  | Found hydrogenic basis function :  5 g  11.600
  | Found ionic basis function :  4 s , default cutoff radius.
  Species Ti                  : Missing cutoff potential type.
  Defaulting to exp(1/x)/(1-x)^2 type cutoff potential.
  Species Ti: No 'logarithmic' tag. Using default grid for free atom:
  | Default logarithmic grid data [bohr] : 0.1000E-03 0.1000E+03 0.1012E+01
  | Will include ionic basis functions of  2.0-fold positive Ti                   ion.
  Species Ti: On-site basis accuracy parameter (for Gram-Schmidt orthonormalisation) not specified.
  Using default value basis_acc =  0.1000000E-03.
  Species Ti                  : Using default innermost maximum threshold i_radial=  2 for radial functions.
  Species Ti                  : Default cutoff onset for free atom density etc. : 0.40000000E+01 AA.
  Species Ti                  : Basic radial grid will be enhanced according to radial_multiplier =   2, to contain    97 grid points.
 
  Finished reading input file 'control.in'.
 
------------------------------------------------------------


------------------------------------------------------------
          Reading geometry description geometry.in.
------------------------------------------------------------
  | The smallest distance between any two atoms is         1.88002366 AA.
  | The first atom of this pair is atom number                      2 .
  | The second atom of this pair is atom number                     4 .
  | Wigner-Seitz cell of the first atom image           0     1     1 .
  | (The Wigner-Seitz cell of the second atom is 0 0 0  by definition.)

  Symmetry information by spglib:
  | Precision set to  0.1E-04
  | Number of Operations  : 2
  | Space group           : 8
  | International         : Cm
  | Schoenflies           : Cs^3
  Input structure read successfully.
  The structure contains        5 atoms,  and a total of        102.000 electrons.

  Input geometry:
  | Unit cell:
  |        3.98772401        0.00252199        0.00251895
  |        0.00732644        3.98771808        0.00251895
  |        0.00732644        0.00731762        3.98771216
  | Atomic structure:
  |       Atom                x [A]            y [A]            z [A]
  |    1: Species Ba            0.00054942        0.00154755        0.00154569
  |    2: Species Ti            2.04807538        2.04560932        2.04314920
  |    3: Species O             1.95851857        1.95616035        3.91890703
  |    4: Species O             3.92361495        1.95379278        1.95144308
  |    5: Species O             1.95851857        3.92125815        1.95144308

  Lattice parameters for 3D lattice (in Angstroms) :     3.987726    3.987726    3.987726
  Angle(s) between unit vectors (in degrees)       :    89.858475   89.858475   89.858475


  Quantities derived from the lattice vectors (in Angstrom^-1):
  | Reciprocal lattice vector 1:  1.575636 -0.002893 -0.002890
  | Reciprocal lattice vector 2: -0.000995  1.575638 -0.002890
  | Reciprocal lattice vector 3: -0.000995 -0.000993  1.575640
  | Unit cell volume                               :   0.634121E+02  Angstrom^3

  Fractional coordinates:
                         L1                L2                L3
       atom_frac         0.00013635        0.00038728        0.00038728  Ba
       atom_frac         0.51171477        0.51171477        0.51171477  Ti
       atom_frac         0.48843515        0.48843515        0.98212864  O
       atom_frac         0.98212864        0.48843515        0.48843515  O
       atom_frac         0.48843515        0.98212864        0.48843515  O

  Slab Identifier: This seems to be a bulk system.
 
  Finished reading input file 'geometry.in'.
 

 
  Consistency checks for stacksize environment parameter are next.
 
  | Maximum stacksize for task 0: unlimited
  | Maximum stacksize for task 1: unlimited
  | Maximum stacksize for task 2: unlimited
  | Maximum stacksize for task 3: unlimited
  | Maximum stacksize for task 4: unlimited
  | Maximum stacksize for task 5: unlimited
  | Maximum stacksize for task 6: unlimited
  | Maximum stacksize for task 7: unlimited
  | Maximum stacksize for task 8: unlimited
  | Maximum stacksize for task 9: unlimited
  | Maximum stacksize for task 10: unlimited
  | Maximum stacksize for task 11: unlimited
  | Maximum stacksize for task 12: unlimited
  | Maximum stacksize for task 13: unlimited
  | Maximum stacksize for task 14: unlimited
  | Maximum stacksize for task 15: unlimited
  | Maximum stacksize for task 16: unlimited
  | Maximum stacksize for task 17: unlimited
  | Maximum stacksize for task 18: unlimited
  | Maximum stacksize for task 19: unlimited
  | Maximum stacksize for task 20: unlimited
  | Maximum stacksize for task 21: unlimited
  | Maximum stacksize for task 22: unlimited
  | Maximum stacksize for task 23: unlimited
  | Maximum stacksize for task 24: unlimited
  | Maximum stacksize for task 25: unlimited
  | Maximum stacksize for task 26: unlimited
  | Maximum stacksize for task 27: unlimited
  | Maximum stacksize for task 28: unlimited
  | Maximum stacksize for task 29: unlimited
  | Maximum stacksize for task 30: unlimited
  | Maximum stacksize for task 31: unlimited
  | Maximum stacksize for task 32: unlimited
  | Maximum stacksize for task 33: unlimited
  | Maximum stacksize for task 34: unlimited
  | Maximum stacksize for task 35: unlimited
  | Maximum stacksize for task 36: unlimited
  | Maximum stacksize for task 37: unlimited
  | Maximum stacksize for task 38: unlimited
  | Maximum stacksize for task 39: unlimited
  | Maximum stacksize for task 40: unlimited
  | Maximum stacksize for task 41: unlimited
  | Maximum stacksize for task 42: unlimited
  | Maximum stacksize for task 43: unlimited
  | Maximum stacksize for task 44: unlimited
  | Maximum stacksize for task 45: unlimited
  | Maximum stacksize for task 46: unlimited
  | Maximum stacksize for task 47: unlimited
  | Maximum stacksize for task 48: unlimited
  | Maximum stacksize for task 49: unlimited
  | Maximum stacksize for task 50: unlimited
  | Maximum stacksize for task 51: unlimited
  | Maximum stacksize for task 52: unlimited
  | Maximum stacksize for task 53: unlimited
  | Maximum stacksize for task 54: unlimited
  | Maximum stacksize for task 55: unlimited
  | Maximum stacksize for task 56: unlimited
  | Maximum stacksize for task 57: unlimited
  | Maximum stacksize for task 58: unlimited
  | Maximum stacksize for task 59: unlimited
  | Maximum stacksize for task 60: unlimited
  | Maximum stacksize for task 61: unlimited
  | Maximum stacksize for task 62: unlimited
  | Maximum stacksize for task 63: unlimited
  | Maximum stacksize for task 64: unlimited
  | Maximum stacksize for task 65: unlimited
  | Maximum stacksize for task 66: unlimited
  | Maximum stacksize for task 67: unlimited
  | Maximum stacksize for task 68: unlimited
  | Maximum stacksize for task 69: unlimited
  | Maximum stacksize for task 70: unlimited
  | Maximum stacksize for task 71: unlimited
  | Current stacksize for task 0: unlimited
  | Current stacksize for task 1: unlimited
  | Current stacksize for task 2: unlimited
  | Current stacksize for task 3: unlimited
  | Current stacksize for task 4: unlimited
  | Current stacksize for task 5: unlimited
  | Current stacksize for task 6: unlimited
  | Current stacksize for task 7: unlimited
  | Current stacksize for task 8: unlimited
  | Current stacksize for task 9: unlimited
  | Current stacksize for task 10: unlimited
  | Current stacksize for task 11: unlimited
  | Current stacksize for task 12: unlimited
  | Current stacksize for task 13: unlimited
  | Current stacksize for task 14: unlimited
  | Current stacksize for task 15: unlimited
  | Current stacksize for task 16: unlimited
  | Current stacksize for task 17: unlimited
  | Current stacksize for task 18: unlimited
  | Current stacksize for task 19: unlimited
  | Current stacksize for task 20: unlimited
  | Current stacksize for task 21: unlimited
  | Current stacksize for task 22: unlimited
  | Current stacksize for task 23: unlimited
  | Current stacksize for task 24: unlimited
  | Current stacksize for task 25: unlimited
  | Current stacksize for task 26: unlimited
  | Current stacksize for task 27: unlimited
  | Current stacksize for task 28: unlimited
  | Current stacksize for task 29: unlimited
  | Current stacksize for task 30: unlimited
  | Current stacksize for task 31: unlimited
  | Current stacksize for task 32: unlimited
  | Current stacksize for task 33: unlimited
  | Current stacksize for task 34: unlimited
  | Current stacksize for task 35: unlimited
  | Current stacksize for task 36: unlimited
  | Current stacksize for task 37: unlimited
  | Current stacksize for task 38: unlimited
  | Current stacksize for task 39: unlimited
  | Current stacksize for task 40: unlimited
  | Current stacksize for task 41: unlimited
  | Current stacksize for task 42: unlimited
  | Current stacksize for task 43: unlimited
  | Current stacksize for task 44: unlimited
  | Current stacksize for task 45: unlimited
  | Current stacksize for task 46: unlimited
  | Current stacksize for task 47: unlimited
  | Current stacksize for task 48: unlimited
  | Current stacksize for task 49: unlimited
  | Current stacksize for task 50: unlimited
  | Current stacksize for task 51: unlimited
  | Current stacksize for task 52: unlimited
  | Current stacksize for task 53: unlimited
  | Current stacksize for task 54: unlimited
  | Current stacksize for task 55: unlimited
  | Current stacksize for task 56: unlimited
  | Current stacksize for task 57: unlimited
  | Current stacksize for task 58: unlimited
  | Current stacksize for task 59: unlimited
  | Current stacksize for task 60: unlimited
  | Current stacksize for task 61: unlimited
  | Current stacksize for task 62: unlimited
  | Current stacksize for task 63: unlimited
  | Current stacksize for task 64: unlimited
  | Current stacksize for task 65: unlimited
  | Current stacksize for task 66: unlimited
  | Current stacksize for task 67: unlimited
  | Current stacksize for task 68: unlimited
  | Current stacksize for task 69: unlimited
  | Current stacksize for task 70: unlimited
  | Current stacksize for task 71: unlimited
 
  Consistency checks for the contents of control.in are next.
 
  MPI_IN_PLACE appears to work with this MPI implementation.
  | Keeping use_mpi_in_place .true. (see manual).
  Target number of points in a grid batch is not set. Defaulting to  100
  Method for grid partitioning is not set. Defaulting to parallel hash+maxmin partitioning.
  Batch size limit is not set. Defaulting to    200
  By default, will store active basis functions for each batch.
  If in need of memory, prune_basis_once .false. can be used to disable this option.
  communication_type for Hartree potential was not specified.
  Defaulting to calc_hartree .
  Defaulting to Pulay charge density mixer.
  Pulay mixer: Number of relevant iterations not set.
  Defaulting to    8 iterations.
  Pulay mixer: Number of initial linear mixing iterations not set.
  Defaulting to    0 iterations.
  Work space size for distributed Hartree potential not set.
  Defaulting to   0.200000E+03 MB.
  Mixing parameter for charge density mixing has not been set.
  Using default: charge_mix_param =     0.0500.
  The mixing parameter will be adjusted in iteration number     2 of each s.c.f. cycle (i.e., each geometry step).
  Algorithm-dependent basis array size parameters:
  | n_max_pulay                         :        8
  Maximum number of self-consistency iterations not provided.
  Presetting  1000 iterations.
  Presetting      1001 iterations before the initial mixing cycle
  is restarted anyway using the sc_init_iter criterion / keyword.
  Presetting a factor      1.000 between actual scf density residual
  and density convergence criterion sc_accuracy_rho below which sc_init_iter
  takes no effect.
  Calculation of forces was not defined in control.in. No forces will be calculated.
  Geometry relaxation not requested: no relaxation will be performed.
  No accuracy limit for integral partition fn. given. Defaulting to  0.1000E-14.
  No threshold value for u(r) in integrations given. Defaulting to  0.1000E-05.
  No occupation type (smearing scheme) given. Defaulting to Gaussian broadening, width =  0.1000E-01 eV.
  The width will be adjusted in iteration number     2 of each s.c.f. cycle (i.e., each geometry step).
  No accuracy for occupation numbers given. Defaulting to  0.1000E-12.
  No threshold value for occupation numbers given. Defaulting to  0.0000E+00.
  No accuracy for fermi level given. Defaulting to  0.1000E-19.
  Maximum # of iterations to find E_F not set. Defaulting to  200.
  Threshold for basis singularities not set.
  Default threshold for basis singularities:  0.1000E-04
  partition_type (choice of integration weights) for integrals was not specified.
  | Using a version of the partition function of Stratmann and coworkers ('stratmann_sparse').
  | At each grid point, the set of atoms used to build the partition table is smoothly restricted to
  | only those atoms whose free-atom density would be non-zero at that grid point.
  Partitioning for Hartree potential was not defined. Using partition_type for integrals.
  | Adjusted default value of keyword multip_moments_threshold to:       0.10000000E-11
  | This value may affect high angular momentum components of the Hartree potential in periodic systems.
  Using 2025 definition of centers list for evaluation of the Stratmann partition function.
  Spin handling was not defined in control.in. Defaulting to unpolarized case.
  No q(lm)/r^(l+1) cutoff set for long-range Hartree potential.
  | Using default value of  0.100000E-09 .
  | Verify using the multipole_threshold keyword.
  Defaulting to new monopole extrapolation.
  Density update method: automatic selection selected.
  Using density matrix based charge density update.
  Using density matrix based charge density update.
  Using packed matrix style: index .
  Threshold of packed matrixes:  0.000000E+00
  Defaulting to use time-reversal symmetry for k-point grid.
  Charge integration errors on the 3D integration grid will be compensated
  by explicit normalization and distribution of residual charges.
  Use the "compensate_multipole_errors" flag to change this behaviour.
  You have selected one (or more) of: output band; output band_mulliken; output polarization
  output Z2_invariant; and use_spin_texture_scf in your control.in
  Therefore COMPLEX eigenvectors will be used in the calculation.
  Set 'collect_eigenvectors' to be '.true.' for all serial calculations. This is mandatory.
  Set 'collect_eigenvectors' to be '.true.' for KS_method lapack_fast and serial.
  Found potential conflicts with setting 'use_local_index' for this calculation. Will not set it.
 
  Consistency checks for the contents of geometry.in are next.
 

  Range separation radius for Ewald summation (hartree_convergence_parameter):      3.27250433 bohr.
  Number of empty states per atom not set in control.in - providing a guess from actual geometry.
  | Total number of empty states used during s.c.f. cycle:       20
  If you use a very high smearing, use empty_states (per atom!) in control.in to increase this value.

  Structure-dependent array size parameters: 
  | Maximum number of distinct radial functions  :       41
  | Maximum number of basis functions            :      217
  | Number of Kohn-Sham states (occupied + empty):       71
------------------------------------------------------------

  Checking k-grid inconsistencies now:
  | k-point density for reciprocal lattice vector 1 is    5.08 nkpts / Angstrom^-1
  | k-point density for reciprocal lattice vector 2 is    5.08 nkpts / Angstrom^-1
  | k-point density for reciprocal lattice vector 3 is    5.08 nkpts / Angstrom^-1

  | Ratio of k-point densities for reciprocal lattice vectors 1 vs 2 is    1.00
  | Ratio of k-point densities for reciprocal lattice vectors 1 vs 3 is    1.00
  | Ratio of k-point densities for reciprocal lattice vectors 2 vs 3 is    1.00

  * The specified k_grid leads to a nearly homogenous k-grid density in non-vacuum directions,
  * and seems sensible.

  | Checks passed.
  After read_input_data [GB]:    242.90

  Performing system and environment tests:
  | Environment variable OMP_NUM_THREADS correctly set to 1.
  | Checking for ScaLAPACK...
  | Testing pdtran()...
  | All pdtran() tests passed.
  | Testing CPU compatibility for run-time vs. build-time.
  | Reading /proc/cpuinfo for CPU information ...
  | Built for  : Intel(R) Xeon(R) Platinum 8360Y CPU @ 2.40GHz
  | Running on : Intel(R) Xeon(R) Platinum 8360Y CPU @ 2.40GHz
  | Runtime CPU compatibility verified.
  
  After prepare_system [GB]:    242.63

------------------------------------------------------------
          Preparing all fixed parts of the calculation.
------------------------------------------------------------
  Determining machine precision:
    2.225073858507201E-308
  Setting up grids for atomic and cluster calculations.

  Creating wave function, potential, and density for free atoms.
  Runtime choices for atomic solver:
  | atomic solver xc        : PBEsol
  | compute density gradient: 1
  | compute kinetic density : F

  Species: Ba

  List of occupied orbitals and eigenvalues:
    n    l              occ      energy [Ha]    energy [eV]
    1    0           2.0000     -1428.052574    -38859.2877
    2    0           2.0000      -218.064105     -5933.8262
    3    0           2.0000       -45.732246     -1244.4377
    4    0           2.0000        -8.949791      -243.5362
    5    0           2.0000        -1.236502       -33.6469
    6    0           2.0000        -0.118091        -3.2134
    2    1           6.0000      -195.455061     -5318.6028
    3    1           6.0000       -38.553167     -1049.0850
    4    1           6.0000        -6.640068      -180.6854
    5    1           6.0000        -0.686815       -18.6892
    3    2          10.0000       -28.144426      -765.8488
    4    2          10.0000        -3.291887       -89.5768


  Species: O

  List of occupied orbitals and eigenvalues:
    n    l              occ      energy [Ha]    energy [eV]
    1    0           2.0000       -18.856576      -513.1135
    2    0           2.0000        -0.874917       -23.8077
    2    1           4.0000        -0.329738        -8.9726


  Species: Ti

  List of occupied orbitals and eigenvalues:
    n    l              occ      energy [Ha]    energy [eV]
    1    0           2.0000      -179.749822     -4891.2415
    2    0           2.0000       -19.714362      -536.4551
    3    0           2.0000        -2.288773       -62.2807
    4    0           2.0000        -0.159534        -4.3411
    2    1           6.0000       -16.317611      -444.0248
    3    1           6.0000        -1.418589       -38.6018
    3    2           2.0000        -0.151454        -4.1213


  Adding cutoff potential to free-atom effective potential.
  Creating fixed part of basis set: Ionic, confined, hydrogenic.
 
  Ba                   ion:
  Runtime choices for ionic solver:
  | ionic solver xc        : PBEsol

  List of free ionic orbitals and eigenvalues:
    n    l      energy [Ha]    energy [eV]
    1    0     -1428.274350    -38865.3225
    2    0      -218.278762     -5939.6673
    3    0       -45.945796     -1250.2487
    4    0        -9.162664      -249.3288
    5    0        -1.447125       -39.3783
    6    0        -0.278800        -7.5865
    2    1      -195.669589     -5324.4404
    3    1       -38.766675     -1054.8949
    4    1        -6.852852      -186.4756
    5    1        -0.895781       -24.3754
    3    2       -28.357891      -771.6575
    4    2        -3.504472       -95.3615


  List of ionic basis orbitals and eigenvalues:
    n    l      energy [Ha]    energy [eV]    outer radius [A]
    5    2        -0.260318        -7.0836       7.007670
    4    3        -0.144591        -3.9345       7.007670

 
  Ba                   hydrogenic:
 
  List of hydrogenic basis orbitals: 
    n    l      effective z      eigenvalue [eV]  inner max. [A]     outer max. [A]     outer radius [A]   
    3    1         2.700000       -11.0183           0.585865           2.360755           7.358861
    4    0         3.300000        -9.1387           0.118110           3.896996           7.449375
    4    3         5.800000       -28.6057           1.465516           1.465516           5.905331
    5    4         7.400000       -29.8017           1.782126           1.782126           6.354768
 
 
  O                    hydrogenic:
 
  List of hydrogenic basis orbitals: 
    n    l      effective z      eigenvalue [eV]  inner max. [A]     outer max. [A]     outer radius [A]   
    2    1         1.800000       -11.0118           1.178562           1.178562           5.432602
    3    2         7.600000       -87.3182           0.624125           0.624125           3.541477
    3    0         6.400000       -61.9209           0.061167           1.081902           4.306578
    4    3        11.600000      -114.4238           0.731631           0.731631           3.585037
    3    1         6.200000       -58.1113           0.255680           1.030270           4.306578
    3    2         5.600000       -47.4081           0.847233           0.847233           4.413171
    5    4        17.600000      -168.5799           0.749740           0.749740           3.372465
    1    0         0.750000        -7.6499           0.705284           0.705284           5.366593
 
 
  Ti                   ion:
  Runtime choices for ionic solver:
  | ionic solver xc        : PBEsol

  List of free ionic orbitals and eigenvalues:
    n    l      energy [Ha]    energy [eV]
    1    0      -180.597222     -4914.3004
    2    0       -20.582785      -560.0861
    3    0        -3.109108       -84.6031
    4    0        -0.696270       -18.9465
    2    1       -17.183801      -467.5950
    3    1        -2.228247       -60.6337
    3    2        -0.911748       -24.8099


  List of ionic basis orbitals and eigenvalues:
    n    l      energy [Ha]    energy [eV]    outer radius [A]
    4    1        -0.518115       -14.0986       5.449321
    4    0        -0.696238       -18.9456       5.383109

 
  Ti                   hydrogenic:
 
  List of hydrogenic basis orbitals: 
    n    l      effective z      eigenvalue [eV]  inner max. [A]     outer max. [A]     outer radius [A]   
    4    3         8.000000       -54.4226           1.059019           1.059019           4.648601
    3    2         2.700000       -10.9576           1.748166           1.748166           5.449321
    5    4        11.600000       -73.2312           1.139618           1.139618           4.536321
 
  Creating atomic-like basis functions for current effective potential.

  Species Ba                  :

  List of atomic basis orbitals and eigenvalues:
    n    l      energy [Ha]    energy [eV]    outer radius [A]
    1    0     -1428.052574    -38859.2877       0.181180
    2    0      -218.064105     -5933.8262       0.481781
    3    0       -45.732246     -1244.4377       1.053516
    4    0        -8.949791      -243.5362       2.303735
    5    0        -1.236502       -33.6469       5.905331
    6    0        -0.118091        -3.2134       7.358861
    2    1      -195.455061     -5318.6028       0.493705
    3    1       -38.553167     -1049.0850       1.119920
    4    1        -6.640068      -180.6854       2.603304
    5    1        -0.686815       -18.6892       6.838410
    3    2       -28.144426      -765.8488       1.250174
    4    2        -3.291887       -89.5768       3.490975


  Species O                   :

  List of atomic basis orbitals and eigenvalues:
    n    l      energy [Ha]    energy [eV]    outer radius [A]
    1    0       -18.856576      -513.1135       1.415765
    2    0        -0.874917       -23.8077       5.048385
    2    1        -0.329738        -8.9726       5.301386


  Species Ti                  :

  List of atomic basis orbitals and eigenvalues:
    n    l      energy [Ha]    energy [eV]    outer radius [A]
    1    0      -179.749822     -4891.2415       0.490254
    2    0       -19.714362      -536.4551       1.491292
    3    0        -2.288773       -62.2807       4.215492
    4    0        -0.159534        -4.3411       5.449321
    2    1       -16.317611      -444.0248       1.585290
    3    1        -1.418589       -38.6018       4.822253
    3    2        -0.151454        -4.1213       5.383109

  Assembling full basis from fixed parts.
  | Species Ba :   atomic orbital   1 s accepted.
  | Species Ba :   atomic orbital   2 s accepted.
  | Species Ba :   atomic orbital   3 s accepted.
  | Species Ba :   atomic orbital   4 s accepted.
  | Species Ba :   atomic orbital   5 s accepted.
  | Species Ba :   atomic orbital   6 s accepted.
  | Species Ba :    hydro orbital   4 s accepted.
  | Species Ba :   atomic orbital   2 p accepted.
  | Species Ba :   atomic orbital   3 p accepted.
  | Species Ba :   atomic orbital   4 p accepted.
  | Species Ba :   atomic orbital   5 p accepted.
  | Species Ba :    hydro orbital   3 p accepted.
  | Species Ba :   atomic orbital   3 d accepted.
  | Species Ba :   atomic orbital   4 d accepted.
  | Species Ba :    ionic orbital   5 d accepted.
  | Species Ba :    hydro orbital   4 f accepted.
  | Species Ba :    ionic orbital   4 f accepted.
  | Species Ba :    hydro orbital   5 g accepted.
  | Species O :   atomic orbital   1 s accepted.
  | Species O :    hydro orbital   3 s accepted.
  | Species O :   atomic orbital   2 s accepted.
  | Species O :    hydro orbital   1 s accepted.
  | Species O :    hydro orbital   3 p accepted.
  | Species O :   atomic orbital   2 p accepted.
  | Species O :    hydro orbital   2 p accepted.
  | Species O :    hydro orbital   3 d accepted.
  | Species O :    hydro orbital   3 d accepted.
  | Species O :    hydro orbital   4 f accepted.
  | Species O :    hydro orbital   5 g accepted.
  | Species Ti :   atomic orbital   1 s accepted.
  | Species Ti :   atomic orbital   2 s accepted.
  | Species Ti :   atomic orbital   3 s accepted.
  | Species Ti :    ionic orbital   4 s accepted.
  | Species Ti :   atomic orbital   4 s accepted.
  | Species Ti :   atomic orbital   2 p accepted.
  | Species Ti :   atomic orbital   3 p accepted.
  | Species Ti :    ionic orbital   4 p accepted.
  | Species Ti :   atomic orbital   3 d accepted.
  | Species Ti :    hydro orbital   3 d accepted.
  | Species Ti :    hydro orbital   4 f accepted.
  | Species Ti :    hydro orbital   5 g accepted.
 
  Basis size parameters after reduction:
  | Total number of radial functions:       41
  | Total number of basis functions :      217
 
  Per-task memory consumption for arrays in subroutine allocate_ext:
  |          15.331996MB.
  Testing on-site integration grid accuracy.
  |  Species  Function  <phi|h_atom|phi> (log., in eV)  <phi|h_atom|phi> (rad., in eV)
           1        1             -38859.2876816117             -38859.2826880259
           1        2              -5933.8262176291              -5933.8261226337
           1        3              -1244.4377181838              -1244.4377109221
           1        4               -243.5361920709               -243.5361897446
           1        5                -33.6469410500                -33.6469405112
           1        6                 -3.2147887054                 -3.2136311766
           1        7                  1.7459584490                  1.7643762471
           1        8              -5318.6028267209              -5318.6028214838
           1        9              -1049.0850489979              -1049.0850466626
           1       10               -180.6854430426               -180.6854414146
           1       11                -18.6891821428                -18.6891818182
           1       12                 -0.6733887230                 -0.6728495597
           1       13               -765.8487937203               -765.8487930636
           1       14                -89.5768057322                -89.5768048341
           1       15                 -1.8917440348                 -1.8918154716
           1       16                  8.1306445240                  8.1306455477
           1       17                  8.5114418087                  8.5112764116
           1       18                 17.5336142275                 17.5335929597
           2       19               -513.1135426335               -513.1135381065
           2       20                 15.2033728996                 15.2033659762
           2       21                -21.4071248108                -21.4071290296
           2       22                 14.6281473167                 14.6281809214
           2       23                 20.8806643754                 20.8806647419
           2       24                 -2.4164738554                 -2.4164745510
           2       25                 14.0162997190                 14.0162630334
           2       26                 45.8617855537                 45.8617855346
           2       27                 52.3318320523                 52.3318336082
           2       28                 85.4064222961                 85.4064223248
           2       29                142.0787622501                142.0787622551
           3       30              -4891.2415326551              -4891.2413838670
           3       31               -536.4550730849               -536.4550703639
           3       32                -62.2806776735                -62.2806772813
           3       33                 -3.5198520646                 -3.5198447862
           3       34                  4.8749593168                  4.8758812602
           3       35               -444.0247794311               -444.0247788571
           3       36                -38.6017713722                -38.6017711666
           3       37                 -0.0214616080                 -0.0214168744
           3       38                 -4.1217363042                 -4.1217287050
           3       39                  5.3182599607                  5.3185590217
           3       40                 27.5338255406                 27.5338258932
           3       41                 51.2636223634                 51.2636221171

  Preparing densities etc. for the partition functions (integrals / Hartree potential).

  Preparations completed.
  max(cpu_time)          :      0.568 s.
  Wall clock time (cpu1) :      0.568 s.
------------------------------------------------------------
  After prepare_scf [GB]:    238.60

  Initializing index lists of integration centers etc. from given atomic structure:
  Mapping all atomic coordinates to central unit cell.

  Initializing the k-points
  Using symmetry for reducing the k-points
  | k-points reduced from:      512 to      260
  | Number of k-points                             :       260
  The eigenvectors in the calculations are COMPLEX.
  | K-points in task   0:         3
  | K-points in task   1:         4
  | K-points in task   2:         4
  | K-points in task   3:         4
  | K-points in task   4:         4
  | K-points in task   5:         4
  | K-points in task   6:         4
  | K-points in task   7:         4
  | K-points in task   8:         4
  | K-points in task   9:         4
  | K-points in task  10:         4
  | K-points in task  11:         4
  | K-points in task  12:         4
  | K-points in task  13:         4
  | K-points in task  14:         4
  | K-points in task  15:         4
  | K-points in task  16:         4
  | K-points in task  17:         4
  | K-points in task  18:         4
  | K-points in task  19:         4
  | K-points in task  20:         4
  | K-points in task  21:         4
  | K-points in task  22:         4
  | K-points in task  23:         4
  | K-points in task  24:         4
  | K-points in task  25:         4
  | K-points in task  26:         4
  | K-points in task  27:         4
  | K-points in task  28:         4
  | K-points in task  29:         4
  | K-points in task  30:         4
  | K-points in task  31:         4
  | K-points in task  32:         4
  | K-points in task  33:         4
  | K-points in task  34:         4
  | K-points in task  35:         4
  | K-points in task  36:         4
  | K-points in task  37:         4
  | K-points in task  38:         4
  | K-points in task  39:         4
  | K-points in task  40:         4
  | K-points in task  41:         4
  | K-points in task  42:         4
  | K-points in task  43:         4
  | K-points in task  44:         4
  | K-points in task  45:         3
  | K-points in task  46:         3
  | K-points in task  47:         3
  | K-points in task  48:         3
  | K-points in task  49:         3
  | K-points in task  50:         3
  | K-points in task  51:         3
  | K-points in task  52:         3
  | K-points in task  53:         3
  | K-points in task  54:         3
  | K-points in task  55:         3
  | K-points in task  56:         3
  | K-points in task  57:         3
  | K-points in task  58:         3
  | K-points in task  59:         3
  | K-points in task  60:         3
  | K-points in task  61:         3
  | K-points in task  62:         3
  | K-points in task  63:         3
  | K-points in task  64:         3
  | K-points in task  65:         3
  | K-points in task  66:         3
  | K-points in task  67:         3
  | K-points in task  68:         3
  | K-points in task  69:         3
  | K-points in task  70:         3
  | K-points in task  71:         3
  | Number of basis functions in the Hamiltonian integrals       :      7007
  | Number of basis functions in a single unit cell              :       217
  | Number of centers in hartree potential                       :      1501
  | Number of centers in hartree multipole                       :      1233
  | Number of centers in electron density summation              :       897
  | Number of centers in basis integrals                         :       957
  | Number of centers in integrals                               :       305
  | Number of centers in hamiltonian                             :      1673
  | Number of centers in partition table from touching 0-cell    :       493
  | Number of centers in partition table total                   :      1474
  | Consuming       1860 KiB for k_phase.
  | Number of super-cells (origin) [n_cells]                     :        1331
  | Number of super-cells (after PM_index) [n_cells]             :         458
  | Number of super-cells in hamiltonian [n_cells_in_hamiltonian]:         458
  | Size of matrix packed + index [n_hamiltonian_matrix_size]    :     1387021
  After initialize_bc_dependent_lists [GB]:    237.96

------------------------------------------------------------
          Begin self-consistency loop: Initialization.

          Date     :  20260926, Time     :  065357.216
------------------------------------------------------------
  Available memory per node after initialize_hartree_non_periodic_ewald [GB]:    237.96
  | Estimated reciprocal-space cutoff momentum G_max:         3.02257183 bohr^-1 .
  | Reciprocal lattice points for long-range Hartree potential:     202
  Available memory per node after initialize_recip_hartree_potential [GB]:    237.96
  Available memory per node after initialize_scalapack [GB]:    237.96
  Available memory per node after aims_elsi_init_scf [GB]:    237.96
  Available memory per node after initialize_fixed_grids [GB]:    237.96
  Partitioning the integration grid into batches with parallel hashing+maxmin method.
  | Number of batches:     1506
  | Maximal batch size:     105
  | Minimal batch size:      50
  | Average batch size:      73.741
  | Standard deviation of batch sizes:      13.860

  Integration load balanced across    72 MPI tasks.
  Work distribution over tasks is as follows:
  Task     0 has       1524 integration points.
  Task     1 has       1610 integration points.
  Task     2 has       1524 integration points.
  Task     3 has       1520 integration points.
  Task     4 has       1601 integration points.
  Task     5 has       1520 integration points.
  Task     6 has       1521 integration points.
  Task     7 has       1523 integration points.
  Task     8 has       1514 integration points.
  Task     9 has       1527 integration points.
  Task    10 has       1527 integration points.
  Task    11 has       1547 integration points.
  Task    12 has       1523 integration points.
  Task    13 has       1525 integration points.
  Task    14 has       1607 integration points.
  Task    15 has       1605 integration points.
  Task    16 has       1524 integration points.
  Task    17 has       1518 integration points.
  Task    18 has       1512 integration points.
  Task    19 has       1521 integration points.
  Task    20 has       1532 integration points.
  Task    21 has       1519 integration points.
  Task    22 has       1529 integration points.
  Task    23 has       1603 integration points.
  Task    24 has       1551 integration points.
  Task    25 has       1525 integration points.
  Task    26 has       1604 integration points.
  Task    27 has       1524 integration points.
  Task    28 has       1544 integration points.
  Task    29 has       1608 integration points.
  Task    30 has       1514 integration points.
  Task    31 has       1513 integration points.
  Task    32 has       1524 integration points.
  Task    33 has       1535 integration points.
  Task    34 has       1598 integration points.
  Task    35 has       1605 integration points.
  Task    36 has       1513 integration points.
  Task    37 has       1524 integration points.
  Task    38 has       1519 integration points.
  Task    39 has       1518 integration points.
  Task    40 has       1515 integration points.
  Task    41 has       1602 integration points.
  Task    42 has       1528 integration points.
  Task    43 has       1605 integration points.
  Task    44 has       1520 integration points.
  Task    45 has       1521 integration points.
  Task    46 has       1526 integration points.
  Task    47 has       1549 integration points.
  Task    48 has       1512 integration points.
  Task    49 has       1560 integration points.
  Task    50 has       1607 integration points.
  Task    51 has       1541 integration points.
  Task    52 has       1608 integration points.
  Task    53 has       1604 integration points.
  Task    54 has       1530 integration points.
  Task    55 has       1527 integration points.
  Task    56 has       1515 integration points.
  Task    57 has       1601 integration points.
  Task    58 has       1517 integration points.
  Task    59 has       1517 integration points.
  Task    60 has       1514 integration points.
  Task    61 has       1520 integration points.
  Task    62 has       1603 integration points.
  Task    63 has       1517 integration points.
  Task    64 has       1526 integration points.
  Task    65 has       1528 integration points.
  Task    66 has       1529 integration points.
  Task    67 has       1542 integration points.
  Task    68 has       1530 integration points.
  Task    69 has       1515 integration points.
  Task    70 has       1516 integration points.
  Task    71 has       1514 integration points.
  Available memory per node after partition_grid [GB]:    237.96
  Initializing partition tables, free-atom densities, potentials, etc. across the integration grid (initialize_grid_storage).
  | initialize_grid_storage: Actual outermost partition radius vs. multipole_radius_free
  | (-- VB: in principle, multipole_radius_free should be larger, hence this output)
  | Species        1: Confinement radius =              8.000000000000000 AA, multipole_radius_free =              8.016324652127386 AA.
  | Species        1: outer_partition_radius set to              8.016324652127386 AA .
  | Species        2: Confinement radius =              6.000000000000000 AA, multipole_radius_free =              6.064445521808699 AA.
  | Species        2: outer_partition_radius set to              6.064445521808699 AA .
  | Species        3: Confinement radius =              6.000000000000000 AA, multipole_radius_free =              6.009195547060584 AA.
  | Species        3: outer_partition_radius set to              6.009195547060584 AA .
  | The sparse table of interatomic distances needs      13572.72 kbyte instead of     17381.41 kbyte of memory.
  | Net number of integration points:   111054
  | of which are non-zero points    :    81643
  | Numerical average free-atom electrostatic potential    :    -23.44601906 eV
  Available memory per node after initialize_grid_storage_p1 [GB]:    237.94
  Renormalizing the initial density to the exact electron count on the 3D integration grid.
  | Initial density: Formal number of electrons (from input files) :     102.0000000000
  | Integrated number of electrons on 3D grid     :     102.0005473552
  | Charge integration error                      :       0.0005473552
  | Normalization factor for density and gradient :       0.9999946338
  Renormalizing the free-atom superposition density to the exact electron count on the 3D integration grid.
  | Formal number of electrons (from input files) :     102.0000000000
  | Integrated number of electrons on 3D grid     :     102.0005473552
  | Charge integration error                      :       0.0005473552
  | Normalization factor for density and gradient :       0.9999946338
  Obtaining max. number of non-zero basis functions in each batch (get_n_compute_maxes).
  | Maximal number of non-zero basis functions:     2189 in task     0
  | Maximal number of non-zero basis functions:     2128 in task     1
  | Maximal number of non-zero basis functions:     2144 in task     2
  | Maximal number of non-zero basis functions:     2118 in task     3
  | Maximal number of non-zero basis functions:     2107 in task     4
  | Maximal number of non-zero basis functions:     2135 in task     5
  | Maximal number of non-zero basis functions:     2151 in task     6
  | Maximal number of non-zero basis functions:     2119 in task     7
  | Maximal number of non-zero basis functions:     2156 in task     8
  | Maximal number of non-zero basis functions:     2212 in task     9
  | Maximal number of non-zero basis functions:     2136 in task    10
  | Maximal number of non-zero basis functions:     2123 in task    11
  | Maximal number of non-zero basis functions:     2074 in task    12
  | Maximal number of non-zero basis functions:     2105 in task    13
  | Maximal number of non-zero basis functions:     2155 in task    14
  | Maximal number of non-zero basis functions:     2122 in task    15
  | Maximal number of non-zero basis functions:     2137 in task    16
  | Maximal number of non-zero basis functions:     2099 in task    17
  | Maximal number of non-zero basis functions:     2152 in task    18
  | Maximal number of non-zero basis functions:     2089 in task    19
  | Maximal number of non-zero basis functions:     2160 in task    20
  | Maximal number of non-zero basis functions:     2123 in task    21
  | Maximal number of non-zero basis functions:     2124 in task    22
  | Maximal number of non-zero basis functions:     2108 in task    23
  | Maximal number of non-zero basis functions:     2142 in task    24
  | Maximal number of non-zero basis functions:     2134 in task    25
  | Maximal number of non-zero basis functions:     2146 in task    26
  | Maximal number of non-zero basis functions:     2158 in task    27
  | Maximal number of non-zero basis functions:     2163 in task    28
  | Maximal number of non-zero basis functions:     2144 in task    29
  | Maximal number of non-zero basis functions:     2143 in task    30
  | Maximal number of non-zero basis functions:     2180 in task    31
  | Maximal number of non-zero basis functions:     2102 in task    32
  | Maximal number of non-zero basis functions:     2110 in task    33
  | Maximal number of non-zero basis functions:     2171 in task    34
  | Maximal number of non-zero basis functions:     2097 in task    35
  | Maximal number of non-zero basis functions:     2107 in task    36
  | Maximal number of non-zero basis functions:     2112 in task    37
  | Maximal number of non-zero basis functions:     2151 in task    38
  | Maximal number of non-zero basis functions:     2114 in task    39
  | Maximal number of non-zero basis functions:     2104 in task    40
  | Maximal number of non-zero basis functions:     2103 in task    41
  | Maximal number of non-zero basis functions:     2099 in task    42
  | Maximal number of non-zero basis functions:     2144 in task    43
  | Maximal number of non-zero basis functions:     2091 in task    44
  | Maximal number of non-zero basis functions:     2138 in task    45
  | Maximal number of non-zero basis functions:     2094 in task    46
  | Maximal number of non-zero basis functions:     2088 in task    47
  | Maximal number of non-zero basis functions:     2156 in task    48
  | Maximal number of non-zero basis functions:     2146 in task    49
  | Maximal number of non-zero basis functions:     2165 in task    50
  | Maximal number of non-zero basis functions:     2142 in task    51
  | Maximal number of non-zero basis functions:     2108 in task    52
  | Maximal number of non-zero basis functions:     2176 in task    53
  | Maximal number of non-zero basis functions:     2115 in task    54
  | Maximal number of non-zero basis functions:     2121 in task    55
  | Maximal number of non-zero basis functions:     2136 in task    56
  | Maximal number of non-zero basis functions:     2130 in task    57
  | Maximal number of non-zero basis functions:     2115 in task    58
  | Maximal number of non-zero basis functions:     2098 in task    59
  | Maximal number of non-zero basis functions:     2141 in task    60
  | Maximal number of non-zero basis functions:     2131 in task    61
  | Maximal number of non-zero basis functions:     2169 in task    62
  | Maximal number of non-zero basis functions:     2136 in task    63
  | Maximal number of non-zero basis functions:     2148 in task    64
  | Maximal number of non-zero basis functions:     2116 in task    65
  | Maximal number of non-zero basis functions:     2151 in task    66
  | Maximal number of non-zero basis functions:     2152 in task    67
  | Maximal number of non-zero basis functions:     2094 in task    68
  | Maximal number of non-zero basis functions:     2135 in task    69
  | Maximal number of non-zero basis functions:     2114 in task    70
  | Maximal number of non-zero basis functions:     2166 in task    71
  Available memory per node after get_n_compute_maxes_p1 [GB]:    237.94
  Allocating        0.705 MB for KS_eigenvector_complex
  Available memory per node after allocate_matrices [GB]:    237.94
  Available memory per node after init_comm_sparse_local_matrix_scalapack [GB]:    237.94
  Integrating Hamiltonian matrix: batch-based integration.
  Time summed over all CPUs for integration: real work       80.651 s, elapsed       85.871 s
  Available memory per node after integrate hamiltonian matrix [GB]:    236.15
  Integrating overlap matrix.
  Time summed over all CPUs for integration: real work       64.543 s, elapsed       69.054 s
  Available memory per node after integrate ovlp matrix [GB]:    233.25
  Available memory per node after save_overlap_scalapack [GB]:    233.56
  Available memory per node after advance_KS_solution [GB]:    233.56
  Calculating total energy contributions from superposition of free atom densities.
  Initialize hartree_potential_storage
  Max. number of atoms included in rho_multipole:            5

  End scf initialization - timings             :  max(cpu_time)    wall_clock(cpu1)
  | Time for scf. initialization                :        2.722 s           2.722 s
  | Boundary condition initialization           :        0.156 s           0.156 s
  | Integration                                 :        2.204 s           2.203 s
  | Grid partitioning                           :        0.070 s           0.066 s
  | Preloading free-atom quantities on grid     :        0.379 s           0.380 s
  | Free-atom superposition energy              :        0.021 s           0.020 s

  Partial memory accounting:
  | Current value for overall tracked memory usage:
  |   Minimum:       27.213 MB (on task  0)
  |   Maximum:       27.448 MB (on task  1)
  |   Average:       27.356 MB
  | Peak value for overall tracked memory usage:
  |   Minimum:       65.297 MB (on task 12 after allocating wave)
  |   Maximum:       70.145 MB (on task  9 after allocating wave)
  |   Average:       67.193 MB
  | Largest tracked array allocation so far:
  |   Minimum:       32.818 MB (hamiltonian_shell on task 12)
  |   Maximum:       37.330 MB (hamiltonian_shell on task  9)
  |   Average:       34.665 MB
  Note:  These values currently only include a subset of arrays which are explicitly tracked.
  The "true" memory usage will be greater.
------------------------------------------------------------
  Available memory after initialize_scf [GB]:    233.55
  Available memory after allocating mixing [GB]:    233.56
  Evaluating new KS density using the density matrix
  Evaluating density matrix
  Finished reading density matrices from file
  | Time :      0.005 s

  Time summed over all CPUs for getting density from density matrix: real work      132.655 s, elapsed      141.821 s
  Integration grid: deviation in total charge (<rho> - N_e) =  -1.037585E-05

  Time for density update prior                :  max(cpu_time)    wall_clock(cpu1)
  | self-consistency iterative process          :        2.026 s           2.025 s
  Available memory before start of SCF loop [GB]:    232.39

------------------------------------------------------------
          Initial SCF-cycle to compute last known
          density from restart information.

  Date     :  20260926, Time     :  065401.965
------------------------------------------------------------
  Available memory per node after mixing [GB]:    232.39
  Renormalizing the density to the exact electron count on the 3D integration grid.
  | Formal number of electrons (from input files) :     102.0000000000
  | Integrated number of electrons on 3D grid     :     101.9999896242
  | Charge integration error                      :      -0.0000103758
  | Normalization factor for density and gradient :       1.0000001017

  Evaluating partitioned Hartree potential by multipole expansion.
  | Original multipole sum: apparent total charge =   0.543610E-14
  | Sum of charges compensated after spline to logarithmic grids =   0.287616E-06
  | Analytical far-field extrapolation by fixed multipoles:
  | Hartree multipole sum: apparent total charge =   0.573127E-14
  Summing up the Hartree potential.
  Time summed over all CPUs for potential: real work        0.063 s, elapsed        0.066 s
  | RMS charge density error from multipole expansion :   0.101465E-01
  | Average real-space part of the electrostatic potential :      0.57685270 eV

  Integrating Hamiltonian matrix: batch-based integration.
  Time summed over all CPUs for integration: real work       80.344 s, elapsed       85.718 s

  Updating Kohn-Sham eigenvalues and eigenvectors using ELSI and the (modified) LAPACK eigensolver.
  Singularity check in k-point 72, task 0 (analysis for other k-points/tasks may follow below):
  Overlap matrix is not singular
  | Lowest and highest eigenvalues :  0.7072E-04,  0.1385E+02
  Finished singularity check of overlap matrix
  | Time :     0.008 s
  Starting LAPACK eigensolver
  Finished Cholesky decomposition
  | Time :     0.001 s
  Finished transformation to standard eigenproblem
  | Time :     0.002 s
  Finished solving standard eigenproblem
  | Time :     0.007 s
  Finished back-transformation of eigenvectors
  | Time :     0.000 s

  Obtaining occupation numbers and electronic chemical potential using ELSI.
  | Note that, for insulating systems, the printed 'chemical potential' value is not uniquely defined.
  | It can be anywhere in the energy gap, as long as it correctly separates occupied and unoccupied states.
  | In systems with a gap, the physically relevant chemical potential is the VBM or HOMO.

  | Chemical potential (Fermi level):   -10.03595324 eV
  Writing Kohn-Sham eigenvalues.
  K-point:       1 at    0.000000    0.000000    0.000000 (in units of recip. lattice)

  State    Occupation    Eigenvalue [Ha]    Eigenvalue [eV]
      1       2.00000       -1428.108388       -38860.80645
      2       2.00000        -218.120010        -5935.34747
      3       2.00000        -195.510995        -5320.12485
      4       2.00000        -195.510987        -5320.12464
      5       2.00000        -195.510987        -5320.12464
      6       2.00000        -179.927190        -4896.06794
      7       2.00000         -45.789083        -1245.98433
      8       2.00000         -38.610024        -1050.63221
      9       2.00000         -38.609998        -1050.63151
     10       2.00000         -38.609998        -1050.63151
     11       2.00000         -28.201167         -767.39281
     12       2.00000         -28.201167         -767.39281
     13       2.00000         -28.201134         -767.39190
     14       2.00000         -28.201114         -767.39136
     15       2.00000         -28.201114         -767.39136
     16       2.00000         -19.916798         -541.96365
     17       2.00000         -18.878945         -513.72223
     18       2.00000         -18.878936         -513.72199
     19       2.00000         -18.878936         -513.72199
     20       2.00000         -16.518009         -449.47790
     21       2.00000         -16.517674         -449.46879
     22       2.00000         -16.517674         -449.46878
     23       2.00000          -9.008011         -245.12044
     24       2.00000          -6.698467         -182.27456
     25       2.00000          -6.698420         -182.27329
     26       2.00000          -6.698420         -182.27329
     27       2.00000          -3.350624          -91.17513
     28       2.00000          -3.350624          -91.17512
     29       2.00000          -3.350545          -91.17297
     30       2.00000          -3.350502          -91.17179
     31       2.00000          -3.350502          -91.17179
     32       2.00000          -2.468496          -67.17120
     33       2.00000          -1.600432          -43.54997
     34       2.00000          -1.600432          -43.54997
     35       2.00000          -1.600171          -43.54286
     36       2.00000          -1.313635          -35.74583
     37       2.00000          -1.026328          -27.92781
     38       2.00000          -1.001470          -27.25139
     39       2.00000          -1.001465          -27.25124
     40       2.00000          -0.769508          -20.93938
     41       2.00000          -0.769503          -20.93924
     42       2.00000          -0.769468          -20.93828
     43       2.00000          -0.492399          -13.39887
     44       2.00000          -0.492395          -13.39875
     45       2.00000          -0.492391          -13.39864
     46       2.00000          -0.460400          -12.52811
     47       2.00000          -0.460393          -12.52793
     48       2.00000          -0.452684          -12.31815
     49       2.00000          -0.427771          -11.64025
     50       2.00000          -0.422885          -11.50730
     51       2.00000          -0.422882          -11.50721
     52       0.00000          -0.326437           -8.88279
     53       0.00000          -0.326432           -8.88267
     54       0.00000          -0.320770           -8.72859
     55       0.00000          -0.244063           -6.64129
     56       0.00000          -0.244062           -6.64125
     57       0.00000          -0.224971           -6.12178
     58       0.00000          -0.224970           -6.12174
     59       0.00000          -0.139578           -3.79811
     60       0.00000          -0.090386           -2.45952
     61       0.00000          -0.090384           -2.45948
     62       0.00000          -0.090040           -2.45013
     63       0.00000           0.000830            0.02258
     64       0.00000           0.012749            0.34692
     65       0.00000           0.013754            0.37426
     66       0.00000           0.013757            0.37435
     67       0.00000           0.018565            0.50517
     68       0.00000           0.018629            0.50691
     69       0.00000           0.018636            0.50710
     70       0.00000           0.129953            3.53619
     71       0.00000           0.250044            6.80406

  What follows are estimated values for band gap, HOMO, LUMO, etc.
  | They are estimated on a discrete k-point grid and not necessarily exact.
  | For converged numbers, create a DOS and/or band structure plot on a denser k-grid.

  Highest occupied state (VBM) at    -11.18911322 eV (relative to internal zero)
  | Occupation number:      2.00000000
  | K-point:     205 at    0.500000    0.500000    0.500000 (in units of recip. lattice)

  Lowest unoccupied state (CBM) at    -8.88279326 eV (relative to internal zero)
  | Occupation number:      0.00000000
  | K-point:       1 at    0.000000    0.000000    0.000000 (in units of recip. lattice)

  The gap value is above 0.2 eV. Unless you are using a very sparse k-point grid,
  this system is most likely an insulator or a semiconductor.
  ESTIMATED overall HOMO-LUMO gap:      2.30631996 eV between HOMO at k-point 205 and LUMO at k-point 1
  | This appears to be an indirect band gap.
  | Smallest direct gap :      2.62441582 eV for k_point 1 at    0.000000    0.000000    0.000000 (in units of recip. lattice)

  Total energy components:
  | Sum of eigenvalues            :       -5811.13728221 Ha     -158129.09096856 eV
  | XC energy correction          :        -262.17820311 Ha       -7134.23189229 eV
  | XC potential correction       :         344.14235990 Ha        9364.59007809 eV
  | Free-atom electrostatic energy:       -3624.12427124 Ha      -98617.43902040 eV
  | Hartree energy correction     :           1.81419375 Ha          49.36672361 eV
  | Entropy correction            :           0.00000000 Ha           0.00000000 eV
  | ---------------------------
  | Total energy                  :       -9351.48320291 Ha     -254466.80507954 eV
  | Total energy, T -> 0          :       -9351.48320291 Ha     -254466.80507954 eV  <-- do not rely on this value for anything but (periodic) metals
  | Electronic free energy        :       -9351.48320291 Ha     -254466.80507954 eV

  Derived energy quantities:
  | Kinetic energy                :        9822.65171439 Ha      267287.95260995 eV
  | Electrostatic energy          :      -18911.95671419 Ha     -514620.52579720 eV
  | Energy correction for multipole
  | error in Hartree potential    :           0.00407362 Ha           0.11084885 eV
  | Sum of eigenvalues per atom                           :      -31625.81819371 eV
  | Total energy (T->0) per atom                          :      -50893.36101591 eV  <-- do not rely on this value for anything but (periodic) metals
  | Electronic free energy per atom                       :      -50893.36101591 eV
  Evaluating new KS density using the density matrix
  Evaluating density matrix
  Time summed over all CPUs for getting density from density matrix: real work      131.679 s, elapsed      140.450 s
  Integration grid: deviation in total charge (<rho> - N_e) =   2.842171E-14

  Self-consistency convergence accuracy:
  | Change of charge density      :  0.1918E+00
  | Change of unmixed KS density  :  0.2618E+03
  | Change of sum of eigenvalues  : -0.1581E+06 eV
  | Change of total energy        : -0.2545E+06 eV


------------------------------------------------------------
  End self-consistency iteration #     0       :  max(cpu_time)    wall_clock(cpu1)
  | Time for this iteration                     :        3.421 s           3.420 s
  | Charge density update                       :        2.005 s           2.005 s
  | Density mixing                              :        0.000 s           0.000 s
  | Hartree multipole update                    :        0.002 s           0.002 s
  | Hartree multipole summation                 :        0.073 s           0.073 s
  | Integration                                 :        1.220 s           1.220 s
  | Solution of K.-S. eqns.                     :        0.118 s           0.119 s
  | Total energy evaluation                     :        0.001 s           0.001 s

  Partial memory accounting:
  | Current value for overall tracked memory usage:
  |   Minimum:       28.055 MB (on task 48)
  |   Maximum:       28.345 MB (on task  1)
  |   Average:       28.216 MB
  | Peak value for overall tracked memory usage:
  |   Minimum:       71.083 MB (on task 12 after allocating gradient_basis_wave)
  |   Maximum:       76.261 MB (on task  9 after allocating gradient_basis_wave)
  |   Average:       73.126 MB
  | Largest tracked array allocation so far:
  |   Minimum:       32.818 MB (hamiltonian_shell on task 12)
  |   Maximum:       37.330 MB (hamiltonian_shell on task  9)
  |   Average:       34.665 MB
  Note:  These values currently only include a subset of arrays which are explicitly tracked.
  The "true" memory usage will be greater.
------------------------------------------------------------

------------------------------------------------------------
          Begin self-consistency iteration #    1

  Date     :  20260926, Time     :  065405.386
------------------------------------------------------------
  Pulay mixing of updated and previous charge densities.
  Available memory per node after mixing [GB]:    231.79
  Renormalizing the density to the exact electron count on the 3D integration grid.
  | Formal number of electrons (from input files) :     102.0000000000
  | Integrated number of electrons on 3D grid     :     102.0000000000
  | Charge integration error                      :      -0.0000000000
  | Normalization factor for density and gradient :       1.0000000000

  Evaluating partitioned Hartree potential by multipole expansion.
  | Original multipole sum: apparent total charge =  -0.177596E-13
  | Sum of charges compensated after spline to logarithmic grids =   0.287617E-06
  | Analytical far-field extrapolation by fixed multipoles:
  | Hartree multipole sum: apparent total charge =  -0.178088E-13
  Summing up the Hartree potential.
  Time summed over all CPUs for potential: real work        0.063 s, elapsed        0.066 s
  | RMS charge density error from multipole expansion :   0.101465E-01
  | Average real-space part of the electrostatic potential :      0.57685331 eV

  Integrating Hamiltonian matrix: batch-based integration.
  Time summed over all CPUs for integration: real work       80.376 s, elapsed       85.509 s

  Updating Kohn-Sham eigenvalues and eigenvectors using ELSI and the (modified) LAPACK eigensolver.
  Starting LAPACK eigensolver
  Finished Cholesky decomposition
  | Time :     0.001 s
  Finished transformation to standard eigenproblem
  | Time :     0.002 s
  Finished solving standard eigenproblem
  | Time :     0.008 s
  Finished back-transformation of eigenvectors
  | Time :     0.000 s

  Obtaining occupation numbers and electronic chemical potential using ELSI.
  | Note that, for insulating systems, the printed 'chemical potential' value is not uniquely defined.
  | It can be anywhere in the energy gap, as long as it correctly separates occupied and unoccupied states.
  | In systems with a gap, the physically relevant chemical potential is the VBM or HOMO.

  | Chemical potential (Fermi level):   -10.03594596 eV
  Writing Kohn-Sham eigenvalues.
  K-point:       1 at    0.000000    0.000000    0.000000 (in units of recip. lattice)

  State    Occupation    Eigenvalue [Ha]    Eigenvalue [eV]
      1       2.00000       -1428.108390       -38860.80652
      2       2.00000        -218.120012        -5935.34752
      3       2.00000        -195.510996        -5320.12490
      4       2.00000        -195.510989        -5320.12469
      5       2.00000        -195.510989        -5320.12469
      6       2.00000        -179.927189        -4896.06792
      7       2.00000         -45.789084        -1245.98437
      8       2.00000         -38.610026        -1050.63225
      9       2.00000         -38.610000        -1050.63155
     10       2.00000         -38.610000        -1050.63154
     11       2.00000         -28.201169         -767.39285
     12       2.00000         -28.201169         -767.39285
     13       2.00000         -28.201135         -767.39194
     14       2.00000         -28.201116         -767.39140
     15       2.00000         -28.201115         -767.39140
     16       2.00000         -19.916797         -541.96363
     17       2.00000         -18.878944         -513.72221
     18       2.00000         -18.878936         -513.72200
     19       2.00000         -18.878936         -513.72199
     20       2.00000         -16.518009         -449.47788
     21       2.00000         -16.517673         -449.46876
     22       2.00000         -16.517673         -449.46876
     23       2.00000          -9.008012         -245.12047
     24       2.00000          -6.698468         -182.27459
     25       2.00000          -6.698421         -182.27332
     26       2.00000          -6.698421         -182.27331
     27       2.00000          -3.350625          -91.17515
     28       2.00000          -3.350625          -91.17515
     29       2.00000          -3.350546          -91.17300
     30       2.00000          -3.350503          -91.17182
     31       2.00000          -3.350503          -91.17181
     32       2.00000          -2.468495          -67.17118
     33       2.00000          -1.600431          -43.54995
     34       2.00000          -1.600431          -43.54995
     35       2.00000          -1.600170          -43.54284
     36       2.00000          -1.313636          -35.74584
     37       2.00000          -1.026328          -27.92781
     38       2.00000          -1.001470          -27.25138
     39       2.00000          -1.001465          -27.25124
     40       2.00000          -0.769508          -20.93939
     41       2.00000          -0.769503          -20.93925
     42       2.00000          -0.769468          -20.93829
     43       2.00000          -0.492399          -13.39886
     44       2.00000          -0.492395          -13.39875
     45       2.00000          -0.492391          -13.39863
     46       2.00000          -0.460399          -12.52811
     47       2.00000          -0.460393          -12.52793
     48       2.00000          -0.452684          -12.31815
     49       2.00000          -0.427771          -11.64025
     50       2.00000          -0.422885          -11.50729
     51       2.00000          -0.422882          -11.50721
     52       0.00000          -0.326436           -8.88278
     53       0.00000          -0.326432           -8.88266
     54       0.00000          -0.320769           -8.72858
     55       0.00000          -0.244062           -6.64127
     56       0.00000          -0.244061           -6.64124
     57       0.00000          -0.224972           -6.12179
     58       0.00000          -0.224970           -6.12174
     59       0.00000          -0.139578           -3.79812
     60       0.00000          -0.090386           -2.45952
     61       0.00000          -0.090384           -2.45949
     62       0.00000          -0.090041           -2.45013
     63       0.00000           0.000829            0.02256
     64       0.00000           0.012748            0.34690
     65       0.00000           0.013753            0.37425
     66       0.00000           0.013757            0.37434
     67       0.00000           0.018564            0.50515
     68       0.00000           0.018628            0.50689
     69       0.00000           0.018635            0.50709
     70       0.00000           0.129953            3.53620
     71       0.00000           0.250044            6.80406

  What follows are estimated values for band gap, HOMO, LUMO, etc.
  | They are estimated on a discrete k-point grid and not necessarily exact.
  | For converged numbers, create a DOS and/or band structure plot on a denser k-grid.

  Highest occupied state (VBM) at    -11.18911025 eV (relative to internal zero)
  | Occupation number:      2.00000000
  | K-point:     205 at    0.500000    0.500000    0.500000 (in units of recip. lattice)

  Lowest unoccupied state (CBM) at    -8.88278167 eV (relative to internal zero)
  | Occupation number:      0.00000000
  | K-point:       1 at    0.000000    0.000000    0.000000 (in units of recip. lattice)

  The gap value is above 0.2 eV. Unless you are using a very sparse k-point grid,
  this system is most likely an insulator or a semiconductor.
  ESTIMATED overall HOMO-LUMO gap:      2.30632857 eV between HOMO at k-point 205 and LUMO at k-point 1
  | This appears to be an indirect band gap.
  | Smallest direct gap :      2.62442344 eV for k_point 1 at    0.000000    0.000000    0.000000 (in units of recip. lattice)

  Total energy components:
  | Sum of eigenvalues            :       -5811.13733250 Ha     -158129.09233690 eV
  | XC energy correction          :        -262.17820127 Ha       -7134.23184222 eV
  | XC potential correction       :         344.14235747 Ha        9364.59001194 eV
  | Free-atom electrostatic energy:       -3624.12427124 Ha      -98617.43902040 eV
  | Hartree energy correction     :           1.81424462 Ha          49.36810803 eV
  | Entropy correction            :           0.00000000 Ha           0.00000000 eV
  | ---------------------------
  | Total energy                  :       -9351.48320291 Ha     -254466.80507955 eV
  | Total energy, T -> 0          :       -9351.48320291 Ha     -254466.80507955 eV  <-- do not rely on this value for anything but (periodic) metals
  | Electronic free energy        :       -9351.48320291 Ha     -254466.80507955 eV

  Derived energy quantities:
  | Kinetic energy                :        9822.65162150 Ha      267287.95008231 eV
  | Electrostatic energy          :      -18911.95662314 Ha     -514620.52331964 eV
  | Energy correction for multipole
  | error in Hartree potential    :           0.00407362 Ha           0.11084898 eV
  | Sum of eigenvalues per atom                           :      -31625.81846738 eV
  | Total energy (T->0) per atom                          :      -50893.36101591 eV  <-- do not rely on this value for anything but (periodic) metals
  | Electronic free energy per atom                       :      -50893.36101591 eV
  Evaluating new KS density using the density matrix
  Evaluating density matrix
  Time summed over all CPUs for getting density from density matrix: real work      131.654 s, elapsed      140.661 s
  Integration grid: deviation in total charge (<rho> - N_e) =   2.842171E-14

  Self-consistency convergence accuracy:
  | Change of charge density      :  0.6315E-04
  | Change of unmixed KS density  :  0.5628E-04
  | Change of sum of eigenvalues  : -0.1368E-02 eV
  | Change of total energy        : -0.1005E-07 eV


------------------------------------------------------------
  End self-consistency iteration #     1       :  max(cpu_time)    wall_clock(cpu1)
  | Time for this iteration                     :        3.388 s           3.388 s
  | Charge density update                       :        2.009 s           2.008 s
  | Density mixing                              :        0.000 s           0.000 s
  | Hartree multipole update                    :        0.002 s           0.002 s
  | Hartree multipole summation                 :        0.071 s           0.071 s
  | Integration                                 :        1.216 s           1.216 s
  | Solution of K.-S. eqns.                     :        0.089 s           0.090 s
  | Total energy evaluation                     :        0.001 s           0.000 s

  Partial memory accounting:
  | Current value for overall tracked memory usage:
  |   Minimum:       28.055 MB (on task 48)
  |   Maximum:       28.345 MB (on task  1)
  |   Average:       28.216 MB
  | Peak value for overall tracked memory usage:
  |   Minimum:       71.083 MB (on task 12 after allocating gradient_basis_wave)
  |   Maximum:       76.261 MB (on task  9 after allocating gradient_basis_wave)
  |   Average:       73.126 MB
  | Largest tracked array allocation so far:
  |   Minimum:       32.818 MB (hamiltonian_shell on task 12)
  |   Maximum:       37.330 MB (hamiltonian_shell on task  9)
  |   Average:       34.665 MB
  Note:  These values currently only include a subset of arrays which are explicitly tracked.
  The "true" memory usage will be greater.
------------------------------------------------------------

------------------------------------------------------------
          Begin self-consistency iteration #    2

  Date     :  20260926, Time     :  065408.775
------------------------------------------------------------
  Pulay mixing of updated and previous charge densities.
  Available memory per node after mixing [GB]:    231.67
  Renormalizing the density to the exact electron count on the 3D integration grid.
  | Formal number of electrons (from input files) :     102.0000000000
  | Integrated number of electrons on 3D grid     :     102.0000000000
  | Charge integration error                      :       0.0000000000
  | Normalization factor for density and gradient :       1.0000000000

  Evaluating partitioned Hartree potential by multipole expansion.
  | Original multipole sum: apparent total charge =   0.265164E-13
  | Sum of charges compensated after spline to logarithmic grids =   0.287633E-06
  | Analytical far-field extrapolation by fixed multipoles:
  | Hartree multipole sum: apparent total charge =   0.264180E-13
  Summing up the Hartree potential.
  Time summed over all CPUs for potential: real work        0.064 s, elapsed        0.067 s
  | RMS charge density error from multipole expansion :   0.101465E-01
  | Average real-space part of the electrostatic potential :      0.57686077 eV

  Integrating Hamiltonian matrix: batch-based integration.
  Time summed over all CPUs for integration: real work       80.303 s, elapsed       85.766 s

  Updating Kohn-Sham eigenvalues and eigenvectors using ELSI and the (modified) LAPACK eigensolver.
  Starting LAPACK eigensolver
  Finished Cholesky decomposition
  | Time :     0.001 s
  Finished transformation to standard eigenproblem
  | Time :     0.002 s
  Finished solving standard eigenproblem
  | Time :     0.007 s
  Finished back-transformation of eigenvectors
  | Time :     0.001 s

  Obtaining occupation numbers and electronic chemical potential using ELSI.
  | Note that, for insulating systems, the printed 'chemical potential' value is not uniquely defined.
  | It can be anywhere in the energy gap, as long as it correctly separates occupied and unoccupied states.
  | In systems with a gap, the physically relevant chemical potential is the VBM or HOMO.

  | Chemical potential (Fermi level):   -10.03586413 eV
  What follows are estimated values for band gap, HOMO, LUMO, etc.
  | They are estimated on a discrete k-point grid and not necessarily exact.
  | For converged numbers, create a DOS and/or band structure plot on a denser k-grid.

  Highest occupied state (VBM) at    -11.18906931 eV (relative to internal zero)
  | Occupation number:      2.00000000
  | K-point:     205 at    0.500000    0.500000    0.500000 (in units of recip. lattice)

  Lowest unoccupied state (CBM) at    -8.88265895 eV (relative to internal zero)
  | Occupation number:      0.00000000
  | K-point:       1 at    0.000000    0.000000    0.000000 (in units of recip. lattice)

  The gap value is above 0.2 eV. Unless you are using a very sparse k-point grid,
  this system is most likely an insulator or a semiconductor.
  ESTIMATED overall HOMO-LUMO gap:      2.30641036 eV between HOMO at k-point 205 and LUMO at k-point 1
  | This appears to be an indirect band gap.
  | Smallest direct gap :      2.62449537 eV for k_point 1 at    0.000000    0.000000    0.000000 (in units of recip. lattice)

  Checking to see if s.c.f. parameters should be adjusted.
  The system likely has a gap. Increased the default Pulay mixing parameter (charge_mix_param). Value:   0.200000 .
  Kept the default occupation width. Value:   0.010000 eV.

  Total energy components:
  | Sum of eigenvalues            :       -5811.13795849 Ha     -158129.10937096 eV
  | XC energy correction          :        -262.17817807 Ha       -7134.23121102 eV
  | XC potential correction       :         344.14232682 Ha        9364.58917775 eV
  | Free-atom electrostatic energy:       -3624.12427124 Ha      -98617.43902040 eV
  | Hartree energy correction     :           1.81487807 Ha          49.38534487 eV
  | Entropy correction            :           0.00000000 Ha           0.00000000 eV
  | ---------------------------
  | Total energy                  :       -9351.48320291 Ha     -254466.80507975 eV
  | Total energy, T -> 0          :       -9351.48320291 Ha     -254466.80507975 eV  <-- do not rely on this value for anything but (periodic) metals
  | Electronic free energy        :       -9351.48320291 Ha     -254466.80507975 eV

  Derived energy quantities:
  | Kinetic energy                :        9822.65045923 Ha      267287.91845508 eV
  | Electrostatic energy          :      -18911.95548407 Ha     -514620.49232382 eV
  | Energy correction for multipole
  | error in Hartree potential    :           0.00407369 Ha           0.11085066 eV
  | Sum of eigenvalues per atom                           :      -31625.82187419 eV
  | Total energy (T->0) per atom                          :      -50893.36101595 eV  <-- do not rely on this value for anything but (periodic) metals
  | Electronic free energy per atom                       :      -50893.36101595 eV
  Evaluating new KS density using the density matrix
  Evaluating density matrix
  Time summed over all CPUs for getting density from density matrix: real work      131.563 s, elapsed      140.217 s
  Integration grid: deviation in total charge (<rho> - N_e) =   1.421085E-14

  Self-consistency convergence accuracy:
  | Change of charge density      :  0.5919E-04
  | Change of unmixed KS density  :  0.1950E-05
  | Change of sum of eigenvalues  : -0.1703E-01 eV
  | Change of total energy        : -0.2009E-06 eV


------------------------------------------------------------
  End self-consistency iteration #     2       :  max(cpu_time)    wall_clock(cpu1)
  | Time for this iteration                     :        3.385 s           3.385 s
  | Charge density update                       :        2.002 s           2.002 s
  | Density mixing                              :        0.001 s           0.000 s
  | Hartree multipole update                    :        0.002 s           0.002 s
  | Hartree multipole summation                 :        0.072 s           0.072 s
  | Integration                                 :        1.219 s           1.219 s
  | Solution of K.-S. eqns.                     :        0.089 s           0.089 s
  | Total energy evaluation                     :        0.001 s           0.001 s

  Partial memory accounting:
  | Current value for overall tracked memory usage:
  |   Minimum:       28.056 MB (on task 48)
  |   Maximum:       28.345 MB (on task  1)
  |   Average:       28.216 MB
  | Peak value for overall tracked memory usage:
  |   Minimum:       71.083 MB (on task 12 after allocating gradient_basis_wave)
  |   Maximum:       76.261 MB (on task  9 after allocating gradient_basis_wave)
  |   Average:       73.126 MB
  | Largest tracked array allocation so far:
  |   Minimum:       32.818 MB (hamiltonian_shell on task 12)
  |   Maximum:       37.330 MB (hamiltonian_shell on task  9)
  |   Average:       34.665 MB
  Note:  These values currently only include a subset of arrays which are explicitly tracked.
  The "true" memory usage will be greater.
------------------------------------------------------------

------------------------------------------------------------
          Begin self-consistency iteration #    3

  Date     :  20260926, Time     :  065412.160
------------------------------------------------------------
  Pulay mixing of updated and previous charge densities.
  Available memory per node after mixing [GB]:    231.65
  Renormalizing the density to the exact electron count on the 3D integration grid.
  | Formal number of electrons (from input files) :     102.0000000000
  | Integrated number of electrons on 3D grid     :     102.0000000000
  | Charge integration error                      :       0.0000000000
  | Normalization factor for density and gradient :       1.0000000000

  Evaluating partitioned Hartree potential by multipole expansion.
  | Original multipole sum: apparent total charge =   0.165789E-13
  | Sum of charges compensated after spline to logarithmic grids =   0.287635E-06
  | Analytical far-field extrapolation by fixed multipoles:
  | Hartree multipole sum: apparent total charge =   0.155212E-13
  Summing up the Hartree potential.
  Time summed over all CPUs for potential: real work        0.063 s, elapsed        0.066 s
  | RMS charge density error from multipole expansion :   0.101465E-01
  | Average real-space part of the electrostatic potential :      0.57685997 eV

  Integrating Hamiltonian matrix: batch-based integration.
  Time summed over all CPUs for integration: real work       80.311 s, elapsed       85.708 s

  Updating Kohn-Sham eigenvalues and eigenvectors using ELSI and the (modified) LAPACK eigensolver.
  Starting LAPACK eigensolver
  Finished Cholesky decomposition
  | Time :     0.001 s
  Finished transformation to standard eigenproblem
  | Time :     0.002 s
  Finished solving standard eigenproblem
  | Time :     0.007 s
  Finished back-transformation of eigenvectors
  | Time :     0.000 s

  Obtaining occupation numbers and electronic chemical potential using ELSI.
  | Note that, for insulating systems, the printed 'chemical potential' value is not uniquely defined.
  | It can be anywhere in the energy gap, as long as it correctly separates occupied and unoccupied states.
  | In systems with a gap, the physically relevant chemical potential is the VBM or HOMO.

  | Chemical potential (Fermi level):   -10.03589284 eV
  What follows are estimated values for band gap, HOMO, LUMO, etc.
  | They are estimated on a discrete k-point grid and not necessarily exact.
  | For converged numbers, create a DOS and/or band structure plot on a denser k-grid.

  Highest occupied state (VBM) at    -11.18906385 eV (relative to internal zero)
  | Occupation number:      2.00000000
  | K-point:     205 at    0.500000    0.500000    0.500000 (in units of recip. lattice)

  Lowest unoccupied state (CBM) at    -8.88272182 eV (relative to internal zero)
  | Occupation number:      0.00000000
  | K-point:       1 at    0.000000    0.000000    0.000000 (in units of recip. lattice)

  The gap value is above 0.2 eV. Unless you are using a very sparse k-point grid,
  this system is most likely an insulator or a semiconductor.
  ESTIMATED overall HOMO-LUMO gap:      2.30634203 eV between HOMO at k-point 205 and LUMO at k-point 1
  | This appears to be an indirect band gap.
  | Smallest direct gap :      2.62443370 eV for k_point 1 at    0.000000    0.000000    0.000000 (in units of recip. lattice)

  Total energy components:
  | Sum of eigenvalues            :       -5811.13805217 Ha     -158129.11192020 eV
  | XC energy correction          :        -262.17817052 Ha       -7134.23100551 eV
  | XC potential correction       :         344.14231685 Ha        9364.58890647 eV
  | Free-atom electrostatic energy:       -3624.12427124 Ha      -98617.43902040 eV
  | Hartree energy correction     :           1.81497416 Ha          49.38795981 eV
  | Entropy correction            :           0.00000000 Ha           0.00000000 eV
  | ---------------------------
  | Total energy                  :       -9351.48320292 Ha     -254466.80507983 eV
  | Total energy, T -> 0          :       -9351.48320292 Ha     -254466.80507983 eV  <-- do not rely on this value for anything but (periodic) metals
  | Electronic free energy        :       -9351.48320292 Ha     -254466.80507983 eV

  Derived energy quantities:
  | Kinetic energy                :        9822.65016415 Ha      267287.91042564 eV
  | Electrostatic energy          :      -18911.95519654 Ha     -514620.48449996 eV
  | Energy correction for multipole
  | error in Hartree potential    :           0.00407372 Ha           0.11085168 eV
  | Sum of eigenvalues per atom                           :      -31625.82238404 eV
  | Total energy (T->0) per atom                          :      -50893.36101597 eV  <-- do not rely on this value for anything but (periodic) metals
  | Electronic free energy per atom                       :      -50893.36101597 eV
  Evaluating new KS density using the density matrix
  Evaluating density matrix
  Time summed over all CPUs for getting density from density matrix: real work      131.495 s, elapsed      140.332 s
  Integration grid: deviation in total charge (<rho> - N_e) =   1.421085E-14

  Self-consistency convergence accuracy:
  | Change of charge density      :  0.2223E-04
  | Change of unmixed KS density  :  0.2150E-04
  | Change of sum of eigenvalues  : -0.2549E-02 eV
  | Change of total energy        : -0.7039E-07 eV


------------------------------------------------------------
  End self-consistency iteration #     3       :  max(cpu_time)    wall_clock(cpu1)
  | Time for this iteration                     :        3.385 s           3.386 s
  | Charge density update                       :        2.003 s           2.003 s
  | Density mixing                              :        0.001 s           0.001 s
  | Hartree multipole update                    :        0.002 s           0.002 s
  | Hartree multipole summation                 :        0.071 s           0.071 s
  | Integration                                 :        1.218 s           1.219 s
  | Solution of K.-S. eqns.                     :        0.089 s           0.088 s
  | Total energy evaluation                     :        0.001 s           0.000 s

  Partial memory accounting:
  | Current value for overall tracked memory usage:
  |   Minimum:       28.056 MB (on task 48)
  |   Maximum:       28.345 MB (on task  1)
  |   Average:       28.216 MB
  | Peak value for overall tracked memory usage:
  |   Minimum:       71.083 MB (on task 12 after allocating gradient_basis_wave)
  |   Maximum:       76.261 MB (on task  9 after allocating gradient_basis_wave)
  |   Average:       73.126 MB
  | Largest tracked array allocation so far:
  |   Minimum:       32.818 MB (hamiltonian_shell on task 12)
  |   Maximum:       37.330 MB (hamiltonian_shell on task  9)
  |   Average:       34.665 MB
  Note:  These values currently only include a subset of arrays which are explicitly tracked.
  The "true" memory usage will be greater.
------------------------------------------------------------

------------------------------------------------------------
          Begin self-consistency iteration #    4

  Date     :  20260926, Time     :  065415.546
------------------------------------------------------------
  Pulay mixing of updated and previous charge densities.
  Available memory per node after mixing [GB]:    231.64
  Renormalizing the density to the exact electron count on the 3D integration grid.
  | Formal number of electrons (from input files) :     102.0000000000
  | Integrated number of electrons on 3D grid     :     102.0000000000
  | Charge integration error                      :       0.0000000000
  | Normalization factor for density and gradient :       1.0000000000

  Evaluating partitioned Hartree potential by multipole expansion.
  | Original multipole sum: apparent total charge =   0.248437E-14
  | Sum of charges compensated after spline to logarithmic grids =   0.287639E-06
  | Analytical far-field extrapolation by fixed multipoles:
  | Hartree multipole sum: apparent total charge =   0.125448E-14
  Summing up the Hartree potential.
  Time summed over all CPUs for potential: real work        0.063 s, elapsed        0.066 s
  | RMS charge density error from multipole expansion :   0.101465E-01
  | Average real-space part of the electrostatic potential :      0.57685950 eV

  Integrating Hamiltonian matrix: batch-based integration.
  Time summed over all CPUs for integration: real work       80.290 s, elapsed       85.605 s

  Updating Kohn-Sham eigenvalues and eigenvectors using ELSI and the (modified) LAPACK eigensolver.
  Starting LAPACK eigensolver
  Finished Cholesky decomposition
  | Time :     0.001 s
  Finished transformation to standard eigenproblem
  | Time :     0.001 s
  Finished solving standard eigenproblem
  | Time :     0.008 s
  Finished back-transformation of eigenvectors
  | Time :     0.000 s

  Obtaining occupation numbers and electronic chemical potential using ELSI.
  | Note that, for insulating systems, the printed 'chemical potential' value is not uniquely defined.
  | It can be anywhere in the energy gap, as long as it correctly separates occupied and unoccupied states.
  | In systems with a gap, the physically relevant chemical potential is the VBM or HOMO.

  | Chemical potential (Fermi level):   -10.03590599 eV
  What follows are estimated values for band gap, HOMO, LUMO, etc.
  | They are estimated on a discrete k-point grid and not necessarily exact.
  | For converged numbers, create a DOS and/or band structure plot on a denser k-grid.

  Highest occupied state (VBM) at    -11.18907569 eV (relative to internal zero)
  | Occupation number:      2.00000000
  | K-point:     205 at    0.500000    0.500000    0.500000 (in units of recip. lattice)

  Lowest unoccupied state (CBM) at    -8.88273630 eV (relative to internal zero)
  | Occupation number:      0.00000000
  | K-point:       1 at    0.000000    0.000000    0.000000 (in units of recip. lattice)

  The gap value is above 0.2 eV. Unless you are using a very sparse k-point grid,
  this system is most likely an insulator or a semiconductor.
  ESTIMATED overall HOMO-LUMO gap:      2.30633939 eV between HOMO at k-point 205 and LUMO at k-point 1
  | This appears to be an indirect band gap.
  | Smallest direct gap :      2.62443267 eV for k_point 1 at    0.000000    0.000000    0.000000 (in units of recip. lattice)

  Total energy components:
  | Sum of eigenvalues            :       -5811.13803334 Ha     -158129.11140781 eV
  | XC energy correction          :        -262.17816816 Ha       -7134.23094122 eV
  | XC potential correction       :         344.14231375 Ha        9364.58882219 eV
  | Free-atom electrostatic energy:       -3624.12427124 Ha      -98617.43902040 eV
  | Hartree energy correction     :           1.81495607 Ha          49.38746740 eV
  | Entropy correction            :           0.00000000 Ha           0.00000000 eV
  | ---------------------------
  | Total energy                  :       -9351.48320292 Ha     -254466.80507984 eV
  | Total energy, T -> 0          :       -9351.48320292 Ha     -254466.80507984 eV  <-- do not rely on this value for anything but (periodic) metals
  | Electronic free energy        :       -9351.48320292 Ha     -254466.80507984 eV

  Derived energy quantities:
  | Kinetic energy                :        9822.65005884 Ha      267287.90755999 eV
  | Electrostatic energy          :      -18911.95509360 Ha     -514620.48169861 eV
  | Energy correction for multipole
  | error in Hartree potential    :           0.00407375 Ha           0.11085224 eV
  | Sum of eigenvalues per atom                           :      -31625.82228156 eV
  | Total energy (T->0) per atom                          :      -50893.36101597 eV  <-- do not rely on this value for anything but (periodic) metals
  | Electronic free energy per atom                       :      -50893.36101597 eV
  Evaluating new KS density using the density matrix
  Evaluating density matrix
  Time summed over all CPUs for getting density from density matrix: real work      131.551 s, elapsed      140.395 s
  Integration grid: deviation in total charge (<rho> - N_e) =   1.421085E-14

  Self-consistency convergence accuracy:
  | Change of charge density      :  0.7996E-05
  | Change of unmixed KS density  :  0.9584E-05
  | Change of sum of eigenvalues  :  0.5124E-03 eV
  | Change of total energy        : -0.1312E-07 eV


------------------------------------------------------------
  End self-consistency iteration #     4       :  max(cpu_time)    wall_clock(cpu1)
  | Time for this iteration                     :        3.385 s           3.385 s
  | Charge density update                       :        2.004 s           2.005 s
  | Density mixing                              :        0.000 s           0.000 s
  | Hartree multipole update                    :        0.002 s           0.002 s
  | Hartree multipole summation                 :        0.071 s           0.072 s
  | Integration                                 :        1.217 s           1.216 s
  | Solution of K.-S. eqns.                     :        0.089 s           0.089 s
  | Total energy evaluation                     :        0.001 s           0.000 s

  Partial memory accounting:
  | Current value for overall tracked memory usage:
  |   Minimum:       28.056 MB (on task 48)
  |   Maximum:       28.345 MB (on task  1)
  |   Average:       28.216 MB
  | Peak value for overall tracked memory usage:
  |   Minimum:       71.083 MB (on task 12 after allocating gradient_basis_wave)
  |   Maximum:       76.261 MB (on task  9 after allocating gradient_basis_wave)
  |   Average:       73.126 MB
  | Largest tracked array allocation so far:
  |   Minimum:       32.818 MB (hamiltonian_shell on task 12)
  |   Maximum:       37.330 MB (hamiltonian_shell on task  9)
  |   Average:       34.665 MB
  Note:  These values currently only include a subset of arrays which are explicitly tracked.
  The "true" memory usage will be greater.
------------------------------------------------------------

------------------------------------------------------------
          Begin self-consistency iteration #    5

  Date     :  20260926, Time     :  065418.931
------------------------------------------------------------
  Pulay mixing of updated and previous charge densities.
  Available memory per node after mixing [GB]:    231.62
  Renormalizing the density to the exact electron count on the 3D integration grid.
  | Formal number of electrons (from input files) :     102.0000000000
  | Integrated number of electrons on 3D grid     :     102.0000000000
  | Charge integration error                      :       0.0000000000
  | Normalization factor for density and gradient :       1.0000000000

  Evaluating partitioned Hartree potential by multipole expansion.
  | Original multipole sum: apparent total charge =   0.617403E-14
  | Sum of charges compensated after spline to logarithmic grids =   0.287639E-06
  | Analytical far-field extrapolation by fixed multipoles:
  | Hartree multipole sum: apparent total charge =   0.506713E-14
  Summing up the Hartree potential.
  Time summed over all CPUs for potential: real work        0.063 s, elapsed        0.066 s
  | RMS charge density error from multipole expansion :   0.101465E-01
  | Average real-space part of the electrostatic potential :      0.57686044 eV

  Integrating Hamiltonian matrix: batch-based integration.
  Time summed over all CPUs for integration: real work       80.285 s, elapsed       85.754 s

  Updating Kohn-Sham eigenvalues and eigenvectors using ELSI and the (modified) LAPACK eigensolver.
  Starting LAPACK eigensolver
  Finished Cholesky decomposition
  | Time :     0.000 s
  Finished transformation to standard eigenproblem
  | Time :     0.002 s
  Finished solving standard eigenproblem
  | Time :     0.008 s
  Finished back-transformation of eigenvectors
  | Time :     0.000 s

  Obtaining occupation numbers and electronic chemical potential using ELSI.
  | Note that, for insulating systems, the printed 'chemical potential' value is not uniquely defined.
  | It can be anywhere in the energy gap, as long as it correctly separates occupied and unoccupied states.
  | In systems with a gap, the physically relevant chemical potential is the VBM or HOMO.

  | Chemical potential (Fermi level):   -10.03590383 eV
  What follows are estimated values for band gap, HOMO, LUMO, etc.
  | They are estimated on a discrete k-point grid and not necessarily exact.
  | For converged numbers, create a DOS and/or band structure plot on a denser k-grid.

  Highest occupied state (VBM) at    -11.18907414 eV (relative to internal zero)
  | Occupation number:      2.00000000
  | K-point:     205 at    0.500000    0.500000    0.500000 (in units of recip. lattice)

  Lowest unoccupied state (CBM) at    -8.88273353 eV (relative to internal zero)
  | Occupation number:      0.00000000
  | K-point:       1 at    0.000000    0.000000    0.000000 (in units of recip. lattice)

  The gap value is above 0.2 eV. Unless you are using a very sparse k-point grid,
  this system is most likely an insulator or a semiconductor.
  ESTIMATED overall HOMO-LUMO gap:      2.30634061 eV between HOMO at k-point 205 and LUMO at k-point 1
  | This appears to be an indirect band gap.
  | Smallest direct gap :      2.62443396 eV for k_point 1 at    0.000000    0.000000    0.000000 (in units of recip. lattice)

  Total energy components:
  | Sum of eigenvalues            :       -5811.13801581 Ha     -158129.11093071 eV
  | XC energy correction          :        -262.17816915 Ha       -7134.23096838 eV
  | XC potential correction       :         344.14231507 Ha        9364.58885802 eV
  | Free-atom electrostatic energy:       -3624.12427124 Ha      -98617.43902040 eV
  | Hartree energy correction     :           1.81493821 Ha          49.38698161 eV
  | Entropy correction            :           0.00000000 Ha           0.00000000 eV
  | ---------------------------
  | Total energy                  :       -9351.48320292 Ha     -254466.80507986 eV
  | Total energy, T -> 0          :       -9351.48320292 Ha     -254466.80507986 eV  <-- do not rely on this value for anything but (periodic) metals
  | Electronic free energy        :       -9351.48320292 Ha     -254466.80507986 eV

  Derived energy quantities:
  | Kinetic energy                :        9822.65005892 Ha      267287.90756219 eV
  | Electrostatic energy          :      -18911.95509268 Ha     -514620.48167367 eV
  | Energy correction for multipole
  | error in Hartree potential    :           0.00407375 Ha           0.11085238 eV
  | Sum of eigenvalues per atom                           :      -31625.82218614 eV
  | Total energy (T->0) per atom                          :      -50893.36101597 eV  <-- do not rely on this value for anything but (periodic) metals
  | Electronic free energy per atom                       :      -50893.36101597 eV
  Evaluating new KS density using the density matrix
  Evaluating density matrix
  Time summed over all CPUs for getting density from density matrix: real work      131.584 s, elapsed      140.504 s
  Integration grid: deviation in total charge (<rho> - N_e) =   2.842171E-14

  Self-consistency convergence accuracy:
  | Change of charge density      :  0.1992E-05
  | Change of unmixed KS density  :  0.2927E-05
  | Change of sum of eigenvalues  :  0.4771E-03 eV
  | Change of total energy        : -0.1846E-07 eV


------------------------------------------------------------
  End self-consistency iteration #     5       :  max(cpu_time)    wall_clock(cpu1)
  | Time for this iteration                     :        3.389 s           3.389 s
  | Charge density update                       :        2.006 s           2.006 s
  | Density mixing                              :        0.000 s           0.001 s
  | Hartree multipole update                    :        0.002 s           0.001 s
  | Hartree multipole summation                 :        0.071 s           0.072 s
  | Integration                                 :        1.219 s           1.218 s
  | Solution of K.-S. eqns.                     :        0.090 s           0.090 s
  | Total energy evaluation                     :        0.001 s           0.000 s

  Partial memory accounting:
  | Current value for overall tracked memory usage:
  |   Minimum:       28.056 MB (on task 48)
  |   Maximum:       28.345 MB (on task  1)
  |   Average:       28.216 MB
  | Peak value for overall tracked memory usage:
  |   Minimum:       71.083 MB (on task 12 after allocating gradient_basis_wave)
  |   Maximum:       76.261 MB (on task  9 after allocating gradient_basis_wave)
  |   Average:       73.126 MB
  | Largest tracked array allocation so far:
  |   Minimum:       32.818 MB (hamiltonian_shell on task 12)
  |   Maximum:       37.330 MB (hamiltonian_shell on task  9)
  |   Average:       34.665 MB
  Note:  These values currently only include a subset of arrays which are explicitly tracked.
  The "true" memory usage will be greater.
------------------------------------------------------------

------------------------------------------------------------
          Begin self-consistency iteration #    6

  Date     :  20260926, Time     :  065422.321
------------------------------------------------------------
  Pulay mixing of updated and previous charge densities.
  Available memory per node after mixing [GB]:    231.60
  Renormalizing the density to the exact electron count on the 3D integration grid.
  | Formal number of electrons (from input files) :     102.0000000000
  | Integrated number of electrons on 3D grid     :     102.0000000000
  | Charge integration error                      :       0.0000000000
  | Normalization factor for density and gradient :       1.0000000000

  Evaluating partitioned Hartree potential by multipole expansion.
  | Original multipole sum: apparent total charge =   0.590346E-14
  | Sum of charges compensated after spline to logarithmic grids =   0.287639E-06
  | Analytical far-field extrapolation by fixed multipoles:
  | Hartree multipole sum: apparent total charge =   0.585426E-14
  Summing up the Hartree potential.
  Time summed over all CPUs for potential: real work        0.063 s, elapsed        0.066 s
  | RMS charge density error from multipole expansion :   0.101466E-01
  | Average real-space part of the electrostatic potential :      0.57686126 eV

  Integrating Hamiltonian matrix: batch-based integration.
  Time summed over all CPUs for integration: real work       80.291 s, elapsed       85.517 s

  Updating Kohn-Sham eigenvalues and eigenvectors using ELSI and the (modified) LAPACK eigensolver.
  Starting LAPACK eigensolver
  Finished Cholesky decomposition
  | Time :     0.001 s
  Finished transformation to standard eigenproblem
  | Time :     0.001 s
  Finished solving standard eigenproblem
  | Time :     0.008 s
  Finished back-transformation of eigenvectors
  | Time :     0.000 s

  Obtaining occupation numbers and electronic chemical potential using ELSI.
  | Note that, for insulating systems, the printed 'chemical potential' value is not uniquely defined.
  | It can be anywhere in the energy gap, as long as it correctly separates occupied and unoccupied states.
  | In systems with a gap, the physically relevant chemical potential is the VBM or HOMO.

  | Chemical potential (Fermi level):   -10.03590153 eV
  What follows are estimated values for band gap, HOMO, LUMO, etc.
  | They are estimated on a discrete k-point grid and not necessarily exact.
  | For converged numbers, create a DOS and/or band structure plot on a denser k-grid.

  Highest occupied state (VBM) at    -11.18907217 eV (relative to internal zero)
  | Occupation number:      2.00000000
  | K-point:     205 at    0.500000    0.500000    0.500000 (in units of recip. lattice)

  Lowest unoccupied state (CBM) at    -8.88273089 eV (relative to internal zero)
  | Occupation number:      0.00000000
  | K-point:       1 at    0.000000    0.000000    0.000000 (in units of recip. lattice)

  The gap value is above 0.2 eV. Unless you are using a very sparse k-point grid,
  this system is most likely an insulator or a semiconductor.
  ESTIMATED overall HOMO-LUMO gap:      2.30634128 eV between HOMO at k-point 205 and LUMO at k-point 1
  | This appears to be an indirect band gap.
  | Smallest direct gap :      2.62443448 eV for k_point 1 at    0.000000    0.000000    0.000000 (in units of recip. lattice)

  Total energy components:
  | Sum of eigenvalues            :       -5811.13800115 Ha     -158129.11053173 eV
  | XC energy correction          :        -262.17817014 Ha       -7134.23099507 eV
  | XC potential correction       :         344.14231636 Ha        9364.58889320 eV
  | Free-atom electrostatic energy:       -3624.12427124 Ha      -98617.43902040 eV
  | Hartree energy correction     :           1.81492324 Ha          49.38657413 eV
  | Entropy correction            :           0.00000000 Ha           0.00000000 eV
  | ---------------------------
  | Total energy                  :       -9351.48320292 Ha     -254466.80507987 eV
  | Total energy, T -> 0          :       -9351.48320292 Ha     -254466.80507987 eV  <-- do not rely on this value for anything but (periodic) metals
  | Electronic free energy        :       -9351.48320292 Ha     -254466.80507987 eV

  Derived energy quantities:
  | Kinetic energy                :        9822.65006187 Ha      267287.90764243 eV
  | Electrostatic energy          :      -18911.95509465 Ha     -514620.48172723 eV
  | Energy correction for multipole
  | error in Hartree potential    :           0.00407375 Ha           0.11085250 eV
  | Sum of eigenvalues per atom                           :      -31625.82210635 eV
  | Total energy (T->0) per atom                          :      -50893.36101597 eV  <-- do not rely on this value for anything but (periodic) metals
  | Electronic free energy per atom                       :      -50893.36101597 eV
  Evaluating new KS density using the density matrix
  Evaluating density matrix
  Time summed over all CPUs for getting density from density matrix: real work      132.009 s, elapsed      141.264 s
  Integration grid: deviation in total charge (<rho> - N_e) =   2.842171E-14

  Self-consistency convergence accuracy:
  | Change of charge density      :  0.1106E-05
  | Change of unmixed KS density  :  0.4876E-06
  | Change of sum of eigenvalues  :  0.3990E-03 eV
  | Change of total energy        : -0.1515E-07 eV


------------------------------------------------------------
  End self-consistency iteration #     6       :  max(cpu_time)    wall_clock(cpu1)
  | Time for this iteration                     :        3.395 s           3.395 s
  | Charge density update                       :        2.016 s           2.017 s
  | Density mixing                              :        0.001 s           0.000 s
  | Hartree multipole update                    :        0.002 s           0.002 s
  | Hartree multipole summation                 :        0.071 s           0.071 s
  | Integration                                 :        1.216 s           1.215 s
  | Solution of K.-S. eqns.                     :        0.089 s           0.090 s
  | Total energy evaluation                     :        0.001 s           0.000 s

  Partial memory accounting:
  | Current value for overall tracked memory usage:
  |   Minimum:       28.056 MB (on task 48)
  |   Maximum:       28.345 MB (on task  1)
  |   Average:       28.216 MB
  | Peak value for overall tracked memory usage:
  |   Minimum:       71.083 MB (on task 12 after allocating gradient_basis_wave)
  |   Maximum:       76.261 MB (on task  9 after allocating gradient_basis_wave)
  |   Average:       73.126 MB
  | Largest tracked array allocation so far:
  |   Minimum:       32.818 MB (hamiltonian_shell on task 12)
  |   Maximum:       37.330 MB (hamiltonian_shell on task  9)
  |   Average:       34.665 MB
  Note:  These values currently only include a subset of arrays which are explicitly tracked.
  The "true" memory usage will be greater.
------------------------------------------------------------

------------------------------------------------------------
          Begin self-consistency iteration #    7

  Date     :  20260926, Time     :  065425.716
------------------------------------------------------------
  Pulay mixing of updated and previous charge densities.
  Available memory per node after mixing [GB]:    231.59
  Renormalizing the density to the exact electron count on the 3D integration grid.
  | Formal number of electrons (from input files) :     102.0000000000
  | Integrated number of electrons on 3D grid     :     102.0000000000
  | Charge integration error                      :       0.0000000000
  | Normalization factor for density and gradient :       1.0000000000

  Evaluating partitioned Hartree potential by multipole expansion.
  | Original multipole sum: apparent total charge =  -0.863381E-14
  | Sum of charges compensated after spline to logarithmic grids =   0.287639E-06
  | Analytical far-field extrapolation by fixed multipoles:
  | Hartree multipole sum: apparent total charge =  -0.924875E-14
  Summing up the Hartree potential.
  Time summed over all CPUs for potential: real work        0.063 s, elapsed        0.066 s
  | RMS charge density error from multipole expansion :   0.101466E-01
  | Average real-space part of the electrostatic potential :      0.57686110 eV

  Integrating Hamiltonian matrix: batch-based integration.
  Time summed over all CPUs for integration: real work       80.314 s, elapsed       85.615 s

  Updating Kohn-Sham eigenvalues and eigenvectors using ELSI and the (modified) LAPACK eigensolver.
  Starting LAPACK eigensolver
  Finished Cholesky decomposition
  | Time :     0.001 s
  Finished transformation to standard eigenproblem
  | Time :     0.001 s
  Finished solving standard eigenproblem
  | Time :     0.008 s
  Finished back-transformation of eigenvectors
  | Time :     0.000 s

  Obtaining occupation numbers and electronic chemical potential using ELSI.
  | Note that, for insulating systems, the printed 'chemical potential' value is not uniquely defined.
  | It can be anywhere in the energy gap, as long as it correctly separates occupied and unoccupied states.
  | In systems with a gap, the physically relevant chemical potential is the VBM or HOMO.

  | Chemical potential (Fermi level):   -10.03590263 eV
  What follows are estimated values for band gap, HOMO, LUMO, etc.
  | They are estimated on a discrete k-point grid and not necessarily exact.
  | For converged numbers, create a DOS and/or band structure plot on a denser k-grid.

  Highest occupied state (VBM) at    -11.18907320 eV (relative to internal zero)
  | Occupation number:      2.00000000
  | K-point:     205 at    0.500000    0.500000    0.500000 (in units of recip. lattice)

  Lowest unoccupied state (CBM) at    -8.88273205 eV (relative to internal zero)
  | Occupation number:      0.00000000
  | K-point:       1 at    0.000000    0.000000    0.000000 (in units of recip. lattice)

  The gap value is above 0.2 eV. Unless you are using a very sparse k-point grid,
  this system is most likely an insulator or a semiconductor.
  ESTIMATED overall HOMO-LUMO gap:      2.30634115 eV between HOMO at k-point 205 and LUMO at k-point 1
  | This appears to be an indirect band gap.
  | Smallest direct gap :      2.62443437 eV for k_point 1 at    0.000000    0.000000    0.000000 (in units of recip. lattice)

  Total energy components:
  | Sum of eigenvalues            :       -5811.13799801 Ha     -158129.11044628 eV
  | XC energy correction          :        -262.17817007 Ha       -7134.23099337 eV
  | XC potential correction       :         344.14231628 Ha        9364.58889099 eV
  | Free-atom electrostatic energy:       -3624.12427124 Ha      -98617.43902040 eV
  | Hartree energy correction     :           1.81492012 Ha          49.38648918 eV
  | Entropy correction            :           0.00000000 Ha           0.00000000 eV
  | ---------------------------
  | Total energy                  :       -9351.48320292 Ha     -254466.80507987 eV
  | Total energy, T -> 0          :       -9351.48320292 Ha     -254466.80507987 eV  <-- do not rely on this value for anything but (periodic) metals
  | Electronic free energy        :       -9351.48320292 Ha     -254466.80507987 eV

  Derived energy quantities:
  | Kinetic energy                :        9822.65005962 Ha      267287.90758124 eV
  | Electrostatic energy          :      -18911.95509246 Ha     -514620.48166775 eV
  | Energy correction for multipole
  | error in Hartree potential    :           0.00407376 Ha           0.11085256 eV
  | Sum of eigenvalues per atom                           :      -31625.82208926 eV
  | Total energy (T->0) per atom                          :      -50893.36101597 eV  <-- do not rely on this value for anything but (periodic) metals
  | Electronic free energy per atom                       :      -50893.36101597 eV

  Self-consistency convergence accuracy:
  | Change of charge density      :  0.4085E-06
  | Change of unmixed KS density  :  0.3383E-06
  | Change of sum of eigenvalues  :  0.8545E-04 eV
  | Change of total energy        : -0.1485E-09 eV

  Writing Kohn-Sham eigenvalues.
  K-point:       1 at    0.000000    0.000000    0.000000 (in units of recip. lattice)

  State    Occupation    Eigenvalue [Ha]    Eigenvalue [eV]
      1       2.00000       -1428.108421       -38860.80736
      2       2.00000        -218.120035        -5935.34814
      3       2.00000        -195.511020        -5320.12554
      4       2.00000        -195.511012        -5320.12533
      5       2.00000        -195.511012        -5320.12533
      6       2.00000        -179.927191        -4896.06797
      7       2.00000         -45.789099        -1245.98479
      8       2.00000         -38.610041        -1050.63267
      9       2.00000         -38.610015        -1050.63196
     10       2.00000         -38.610015        -1050.63196
     11       2.00000         -28.201185         -767.39328
     12       2.00000         -28.201185         -767.39328
     13       2.00000         -28.201151         -767.39237
     14       2.00000         -28.201131         -767.39183
     15       2.00000         -28.201131         -767.39183
     16       2.00000         -19.916796         -541.96361
     17       2.00000         -18.878942         -513.72215
     18       2.00000         -18.878937         -513.72202
     19       2.00000         -18.878937         -513.72202
     20       2.00000         -16.518008         -449.47786
     21       2.00000         -16.517673         -449.46874
     22       2.00000         -16.517673         -449.46874
     23       2.00000          -9.008021         -245.12073
     24       2.00000          -6.698477         -182.27484
     25       2.00000          -6.698431         -182.27357
     26       2.00000          -6.698431         -182.27357
     27       2.00000          -3.350634          -91.17539
     28       2.00000          -3.350634          -91.17538
     29       2.00000          -3.350555          -91.17323
     30       2.00000          -3.350511          -91.17205
     31       2.00000          -3.350511          -91.17205
     32       2.00000          -2.468493          -67.17110
     33       2.00000          -1.600429          -43.54988
     34       2.00000          -1.600429          -43.54988
     35       2.00000          -1.600167          -43.54277
     36       2.00000          -1.313640          -35.74596
     37       2.00000          -1.026327          -27.92777
     38       2.00000          -1.001468          -27.25133
     39       2.00000          -1.001463          -27.25121
     40       2.00000          -0.769512          -20.93948
     41       2.00000          -0.769507          -20.93935
     42       2.00000          -0.769471          -20.93838
     43       2.00000          -0.492398          -13.39884
     44       2.00000          -0.492394          -13.39872
     45       2.00000          -0.492389          -13.39860
     46       2.00000          -0.460398          -12.52806
     47       2.00000          -0.460392          -12.52791
     48       2.00000          -0.452683          -12.31812
     49       2.00000          -0.427770          -11.64021
     50       2.00000          -0.422884          -11.50725
     51       2.00000          -0.422881          -11.50717
     52       0.00000          -0.326434           -8.88273
     53       0.00000          -0.326429           -8.88260
     54       0.00000          -0.320767           -8.72852
     55       0.00000          -0.244060           -6.64120
     56       0.00000          -0.244059           -6.64117
     57       0.00000          -0.224973           -6.12183
     58       0.00000          -0.224971           -6.12177
     59       0.00000          -0.139579           -3.79813
     60       0.00000          -0.090388           -2.45957
     61       0.00000          -0.090386           -2.45953
     62       0.00000          -0.090042           -2.45018
     63       0.00000           0.000824            0.02242
     64       0.00000           0.012743            0.34675
     65       0.00000           0.013748            0.37410
     66       0.00000           0.013751            0.37418
     67       0.00000           0.018558            0.50500
     68       0.00000           0.018623            0.50674
     69       0.00000           0.018630            0.50694
     70       0.00000           0.129953            3.53619
     71       0.00000           0.250044            6.80404

  What follows are estimated values for band gap, HOMO, LUMO, etc.
  | They are estimated on a discrete k-point grid and not necessarily exact.
  | For converged numbers, create a DOS and/or band structure plot on a denser k-grid.

  Highest occupied state (VBM) at    -11.18907320 eV (relative to internal zero)
  | Occupation number:      2.00000000
  | K-point:     205 at    0.500000    0.500000    0.500000 (in units of recip. lattice)

  Lowest unoccupied state (CBM) at    -8.88273205 eV (relative to internal zero)
  | Occupation number:      0.00000000
  | K-point:       1 at    0.000000    0.000000    0.000000 (in units of recip. lattice)

  The gap value is above 0.2 eV. Unless you are using a very sparse k-point grid,
  this system is most likely an insulator or a semiconductor.
  ESTIMATED overall HOMO-LUMO gap:      2.30634115 eV between HOMO at k-point 205 and LUMO at k-point 1
  | This appears to be an indirect band gap.
  | Smallest direct gap :      2.62443437 eV for k_point 1 at    0.000000    0.000000    0.000000 (in units of recip. lattice)

  | Chemical Potential                          :   -10.03590263 eV
  | Note that, for insulating systems, the printed 'chemical potential' value is not uniquely defined.
  | It can be anywhere in the energy gap, as long as it correctly separates occupied and unoccupied states.
  | In systems with a gap, the physically relevant chemical potential is the VBM or HOMO.

  Self-consistency cycle converged.


------------------------------------------------------------
  End self-consistency iteration #     7       :  max(cpu_time)    wall_clock(cpu1)
  | Time for this iteration                     :        1.380 s           1.380 s
  | Charge density update                       :        0.000 s           0.000 s
  | Density mixing                              :        0.001 s           0.001 s
  | Hartree multipole update                    :        0.002 s           0.002 s
  | Hartree multipole summation                 :        0.071 s           0.071 s
  | Integration                                 :        1.217 s           1.216 s
  | Solution of K.-S. eqns.                     :        0.089 s           0.089 s
  | Total energy evaluation                     :        0.001 s           0.001 s

  Partial memory accounting:
  | Current value for overall tracked memory usage:
  |   Minimum:       28.056 MB (on task 48)
  |   Maximum:       28.345 MB (on task  1)
  |   Average:       28.216 MB
  | Peak value for overall tracked memory usage:
  |   Minimum:       71.083 MB (on task 12 after allocating gradient_basis_wave)
  |   Maximum:       76.261 MB (on task  9 after allocating gradient_basis_wave)
  |   Average:       73.126 MB
  | Largest tracked array allocation so far:
  |   Minimum:       32.818 MB (hamiltonian_shell on task 12)
  |   Maximum:       37.330 MB (hamiltonian_shell on task  9)
  |   Average:       34.665 MB
  Note:  These values currently only include a subset of arrays which are explicitly tracked.
  The "true" memory usage will be greater.
------------------------------------------------------------

  Energy and forces in a compact form:
  | Total energy uncorrected      :         -0.254466805079872E+06 eV
  | Total energy corrected        :         -0.254466805079872E+06 eV  <-- do not rely on this value for anything but (periodic) metals
  | Electronic free energy        :         -0.254466805079872E+06 eV

  ------------------------------------ 
  Start decomposition of the XC Energy 
  ------------------------------------ 
  X and C from original XC functional choice 
  Hartree-Fock Energy :          0.000000000 Ha              0.000000000 eV
  X Energy            :       -256.635111407 Ha          -6983.396692701 eV
  C Energy            :         -5.543058666 Ha           -150.834300669 eV
  XC Energy w/o HF    :       -262.178170073 Ha          -7134.230993369 eV
  Total XC Energy     :       -262.178170073 Ha          -7134.230993369 eV
  ------------------------------------ 
  LDA X and C from self-consistent density 
  X Energy LDA        :       -248.620731228 Ha          -6765.314312126 eV
  C Energy LDA        :         -8.925556261 Ha           -242.876743303 eV
  ------------------------------------ 
  End decomposition of the XC Energy 
  ------------------------------------ 

------------------------------------------------------------

  Starting with the calculation of the polarization (LAPACK version):
   |-> Using LAPACK for polarization directive   1 of   3 directives

  -------------------------------------------------------------------
  Computing Wannier centers of charge         (LAPACK version):
  -------------------------------------------------------------------


  Integrating Hamiltonian matrix: batch-based integration.
  Time summed over all CPUs for integration: real work       80.348 s, elapsed       85.867 s

  Number of k-points for which the Wannier centers of charge are calculated for:    64
  Number of k-points used at each of this k-points to obtain the Wannier center of charge:    56
  Wannier center evolution is sampled along the reciprocal lattice vector  1 in    64 steps.
  - The Wannier center evoulution is computed along the following     64 strings in k_space:
    Band     1 from k_start =  0.500 -0.500 -0.500 to k_end = -0.500 -0.500 -0.500
    Band     2 from k_start =  0.500 -0.500 -0.357 to k_end = -0.500 -0.500 -0.357
    Band     3 from k_start =  0.500 -0.500 -0.214 to k_end = -0.500 -0.500 -0.214
    Band     4 from k_start =  0.500 -0.500 -0.071 to k_end = -0.500 -0.500 -0.071
    Band     5 from k_start =  0.500 -0.500  0.071 to k_end = -0.500 -0.500  0.071
    Band     6 from k_start =  0.500 -0.500  0.214 to k_end = -0.500 -0.500  0.214
    Band     7 from k_start =  0.500 -0.500  0.357 to k_end = -0.500 -0.500  0.357
    Band     8 from k_start =  0.500 -0.500  0.500 to k_end = -0.500 -0.500  0.500
    Band     9 from k_start =  0.500 -0.357 -0.500 to k_end = -0.500 -0.357 -0.500
    Band    10 from k_start =  0.500 -0.357 -0.357 to k_end = -0.500 -0.357 -0.357
    Band    11 from k_start =  0.500 -0.357 -0.214 to k_end = -0.500 -0.357 -0.214
    Band    12 from k_start =  0.500 -0.357 -0.071 to k_end = -0.500 -0.357 -0.071
    Band    13 from k_start =  0.500 -0.357  0.071 to k_end = -0.500 -0.357  0.071
    Band    14 from k_start =  0.500 -0.357  0.214 to k_end = -0.500 -0.357  0.214
    Band    15 from k_start =  0.500 -0.357  0.357 to k_end = -0.500 -0.357  0.357
    Band    16 from k_start =  0.500 -0.357  0.500 to k_end = -0.500 -0.357  0.500
    Band    17 from k_start =  0.500 -0.214 -0.500 to k_end = -0.500 -0.214 -0.500
    Band    18 from k_start =  0.500 -0.214 -0.357 to k_end = -0.500 -0.214 -0.357
    Band    19 from k_start =  0.500 -0.214 -0.214 to k_end = -0.500 -0.214 -0.214
    Band    20 from k_start =  0.500 -0.214 -0.071 to k_end = -0.500 -0.214 -0.071
    Band    21 from k_start =  0.500 -0.214  0.071 to k_end = -0.500 -0.214  0.071
    Band    22 from k_start =  0.500 -0.214  0.214 to k_end = -0.500 -0.214  0.214
    Band    23 from k_start =  0.500 -0.214  0.357 to k_end = -0.500 -0.214  0.357
    Band    24 from k_start =  0.500 -0.214  0.500 to k_end = -0.500 -0.214  0.500
    Band    25 from k_start =  0.500 -0.071 -0.500 to k_end = -0.500 -0.071 -0.500
    Band    26 from k_start =  0.500 -0.071 -0.357 to k_end = -0.500 -0.071 -0.357
    Band    27 from k_start =  0.500 -0.071 -0.214 to k_end = -0.500 -0.071 -0.214
    Band    28 from k_start =  0.500 -0.071 -0.071 to k_end = -0.500 -0.071 -0.071
    Band    29 from k_start =  0.500 -0.071  0.071 to k_end = -0.500 -0.071  0.071
    Band    30 from k_start =  0.500 -0.071  0.214 to k_end = -0.500 -0.071  0.214
    Band    31 from k_start =  0.500 -0.071  0.357 to k_end = -0.500 -0.071  0.357
    Band    32 from k_start =  0.500 -0.071  0.500 to k_end = -0.500 -0.071  0.500
    Band    33 from k_start =  0.500  0.071 -0.500 to k_end = -0.500  0.071 -0.500
    Band    34 from k_start =  0.500  0.071 -0.357 to k_end = -0.500  0.071 -0.357
    Band    35 from k_start =  0.500  0.071 -0.214 to k_end = -0.500  0.071 -0.214
    Band    36 from k_start =  0.500  0.071 -0.071 to k_end = -0.500  0.071 -0.071
    Band    37 from k_start =  0.500  0.071  0.071 to k_end = -0.500  0.071  0.071
    Band    38 from k_start =  0.500  0.071  0.214 to k_end = -0.500  0.071  0.214
    Band    39 from k_start =  0.500  0.071  0.357 to k_end = -0.500  0.071  0.357
    Band    40 from k_start =  0.500  0.071  0.500 to k_end = -0.500  0.071  0.500
    Band    41 from k_start =  0.500  0.214 -0.500 to k_end = -0.500  0.214 -0.500
    Band    42 from k_start =  0.500  0.214 -0.357 to k_end = -0.500  0.214 -0.357
    Band    43 from k_start =  0.500  0.214 -0.214 to k_end = -0.500  0.214 -0.214
    Band    44 from k_start =  0.500  0.214 -0.071 to k_end = -0.500  0.214 -0.071
    Band    45 from k_start =  0.500  0.214  0.071 to k_end = -0.500  0.214  0.071
    Band    46 from k_start =  0.500  0.214  0.214 to k_end = -0.500  0.214  0.214
    Band    47 from k_start =  0.500  0.214  0.357 to k_end = -0.500  0.214  0.357
    Band    48 from k_start =  0.500  0.214  0.500 to k_end = -0.500  0.214  0.500
    Band    49 from k_start =  0.500  0.357 -0.500 to k_end = -0.500  0.357 -0.500
    Band    50 from k_start =  0.500  0.357 -0.357 to k_end = -0.500  0.357 -0.357
    Band    51 from k_start =  0.500  0.357 -0.214 to k_end = -0.500  0.357 -0.214
    Band    52 from k_start =  0.500  0.357 -0.071 to k_end = -0.500  0.357 -0.071
    Band    53 from k_start =  0.500  0.357  0.071 to k_end = -0.500  0.357  0.071
    Band    54 from k_start =  0.500  0.357  0.214 to k_end = -0.500  0.357  0.214
    Band    55 from k_start =  0.500  0.357  0.357 to k_end = -0.500  0.357  0.357
    Band    56 from k_start =  0.500  0.357  0.500 to k_end = -0.500  0.357  0.500
    Band    57 from k_start =  0.500  0.500 -0.500 to k_end = -0.500  0.500 -0.500
    Band    58 from k_start =  0.500  0.500 -0.357 to k_end = -0.500  0.500 -0.357
    Band    59 from k_start =  0.500  0.500 -0.214 to k_end = -0.500  0.500 -0.214
    Band    60 from k_start =  0.500  0.500 -0.071 to k_end = -0.500  0.500 -0.071
    Band    61 from k_start =  0.500  0.500  0.071 to k_end = -0.500  0.500  0.071
    Band    62 from k_start =  0.500  0.500  0.214 to k_end = -0.500  0.500  0.214
    Band    63 from k_start =  0.500  0.500  0.357 to k_end = -0.500  0.500  0.357
    Band    64 from k_start =  0.500  0.500  0.500 to k_end = -0.500  0.500  0.500


  Treating all   56 k-points in band plot segment #   1:
   Sampling over :
   - k =   0.500 -0.500 -0.500
   - k =   0.482 -0.500 -0.500
   - k =   0.464 -0.500 -0.500
   - k =   0.445 -0.500 -0.500
   - k =   0.427 -0.500 -0.500
   - k =   0.409 -0.500 -0.500
   - k =   0.391 -0.500 -0.500
   - k =   0.373 -0.500 -0.500
   - k =   0.355 -0.500 -0.500
   - k =   0.336 -0.500 -0.500
   - k =   0.318 -0.500 -0.500
   - k =   0.300 -0.500 -0.500
   - k =   0.282 -0.500 -0.500
   - k =   0.264 -0.500 -0.500
   - k =   0.245 -0.500 -0.500
   - k =   0.227 -0.500 -0.500
   - k =   0.209 -0.500 -0.500
   - k =   0.191 -0.500 -0.500
   - k =   0.173 -0.500 -0.500
   - k =   0.155 -0.500 -0.500
   - k =   0.136 -0.500 -0.500
   - k =   0.118 -0.500 -0.500
   - k =   0.100 -0.500 -0.500
   - k =   0.082 -0.500 -0.500
   - k =   0.064 -0.500 -0.500
   - k =   0.045 -0.500 -0.500
   - k =   0.027 -0.500 -0.500
   - k =   0.009 -0.500 -0.500
   - k =  -0.009 -0.500 -0.500
   - k =  -0.027 -0.500 -0.500
   - k =  -0.045 -0.500 -0.500
   - k =  -0.064 -0.500 -0.500
   - k =  -0.082 -0.500 -0.500
   - k =  -0.100 -0.500 -0.500
   - k =  -0.118 -0.500 -0.500
   - k =  -0.136 -0.500 -0.500
   - k =  -0.155 -0.500 -0.500
   - k =  -0.173 -0.500 -0.500
   - k =  -0.191 -0.500 -0.500
   - k =  -0.209 -0.500 -0.500
   - k =  -0.227 -0.500 -0.500
   - k =  -0.245 -0.500 -0.500
   - k =  -0.264 -0.500 -0.500
   - k =  -0.282 -0.500 -0.500
   - k =  -0.300 -0.500 -0.500
   - k =  -0.318 -0.500 -0.500
   - k =  -0.336 -0.500 -0.500
   - k =  -0.355 -0.500 -0.500
   - k =  -0.373 -0.500 -0.500
   - k =  -0.391 -0.500 -0.500
   - k =  -0.409 -0.500 -0.500
   - k =  -0.427 -0.500 -0.500
   - k =  -0.445 -0.500 -0.500
   - k =  -0.464 -0.500 -0.500
   - k =  -0.482 -0.500 -0.500
   - k =  -0.500 -0.500 -0.500

  |-> Computing Wannier center evolution at k-point number:      1
 Calculating dipole matrix along reciprocal lattice vector 1:     0.834    -0.002    -0.002
  Integrating momentum matrix.
  Time summed over all CPUs for integration: real work      135.409 s, elapsed      143.852 s

  Treating all   56 k-points in band plot segment #   2:
   Sampling over :
   - k =   0.500 -0.500 -0.357
   - k =   0.482 -0.500 -0.357
   - k =   0.464 -0.500 -0.357
   - k =   0.445 -0.500 -0.357
   - k =   0.427 -0.500 -0.357
   - k =   0.409 -0.500 -0.357
   - k =   0.391 -0.500 -0.357
   - k =   0.373 -0.500 -0.357
   - k =   0.355 -0.500 -0.357
   - k =   0.336 -0.500 -0.357
   - k =   0.318 -0.500 -0.357
   - k =   0.300 -0.500 -0.357
   - k =   0.282 -0.500 -0.357
   - k =   0.264 -0.500 -0.357
   - k =   0.245 -0.500 -0.357
   - k =   0.227 -0.500 -0.357
   - k =   0.209 -0.500 -0.357
   - k =   0.191 -0.500 -0.357
   - k =   0.173 -0.500 -0.357
   - k =   0.155 -0.500 -0.357
   - k =   0.136 -0.500 -0.357
   - k =   0.118 -0.500 -0.357
   - k =   0.100 -0.500 -0.357
   - k =   0.082 -0.500 -0.357
   - k =   0.064 -0.500 -0.357
   - k =   0.045 -0.500 -0.357
   - k =   0.027 -0.500 -0.357
   - k =   0.009 -0.500 -0.357
   - k =  -0.009 -0.500 -0.357
   - k =  -0.027 -0.500 -0.357
   - k =  -0.045 -0.500 -0.357
   - k =  -0.064 -0.500 -0.357
   - k =  -0.082 -0.500 -0.357
   - k =  -0.100 -0.500 -0.357
   - k =  -0.118 -0.500 -0.357
   - k =  -0.136 -0.500 -0.357
   - k =  -0.155 -0.500 -0.357
   - k =  -0.173 -0.500 -0.357
   - k =  -0.191 -0.500 -0.357
   - k =  -0.209 -0.500 -0.357
   - k =  -0.227 -0.500 -0.357
   - k =  -0.245 -0.500 -0.357
   - k =  -0.264 -0.500 -0.357
   - k =  -0.282 -0.500 -0.357
   - k =  -0.300 -0.500 -0.357
   - k =  -0.318 -0.500 -0.357
   - k =  -0.336 -0.500 -0.357
   - k =  -0.355 -0.500 -0.357
   - k =  -0.373 -0.500 -0.357
   - k =  -0.391 -0.500 -0.357
   - k =  -0.409 -0.500 -0.357
   - k =  -0.427 -0.500 -0.357
   - k =  -0.445 -0.500 -0.357
   - k =  -0.464 -0.500 -0.357
   - k =  -0.482 -0.500 -0.357
   - k =  -0.500 -0.500 -0.357

  |-> Computing Wannier center evolution at k-point number:      2

  Treating all   56 k-points in band plot segment #   3:
   Sampling over :
   - k =   0.500 -0.500 -0.214
   - k =   0.482 -0.500 -0.214
   - k =   0.464 -0.500 -0.214
   - k =   0.445 -0.500 -0.214
   - k =   0.427 -0.500 -0.214
   - k =   0.409 -0.500 -0.214
   - k =   0.391 -0.500 -0.214
   - k =   0.373 -0.500 -0.214
   - k =   0.355 -0.500 -0.214
   - k =   0.336 -0.500 -0.214
   - k =   0.318 -0.500 -0.214
   - k =   0.300 -0.500 -0.214
   - k =   0.282 -0.500 -0.214
   - k =   0.264 -0.500 -0.214
   - k =   0.245 -0.500 -0.214
   - k =   0.227 -0.500 -0.214
   - k =   0.209 -0.500 -0.214
   - k =   0.191 -0.500 -0.214
   - k =   0.173 -0.500 -0.214
   - k =   0.155 -0.500 -0.214
   - k =   0.136 -0.500 -0.214
   - k =   0.118 -0.500 -0.214
   - k =   0.100 -0.500 -0.214
   - k =   0.082 -0.500 -0.214
   - k =   0.064 -0.500 -0.214
   - k =   0.045 -0.500 -0.214
   - k =   0.027 -0.500 -0.214
   - k =   0.009 -0.500 -0.214
   - k =  -0.009 -0.500 -0.214
   - k =  -0.027 -0.500 -0.214
   - k =  -0.045 -0.500 -0.214
   - k =  -0.064 -0.500 -0.214
   - k =  -0.082 -0.500 -0.214
   - k =  -0.100 -0.500 -0.214
   - k =  -0.118 -0.500 -0.214
   - k =  -0.136 -0.500 -0.214
   - k =  -0.155 -0.500 -0.214
   - k =  -0.173 -0.500 -0.214
   - k =  -0.191 -0.500 -0.214
   - k =  -0.209 -0.500 -0.214
   - k =  -0.227 -0.500 -0.214
   - k =  -0.245 -0.500 -0.214
   - k =  -0.264 -0.500 -0.214
   - k =  -0.282 -0.500 -0.214
   - k =  -0.300 -0.500 -0.214
   - k =  -0.318 -0.500 -0.214
   - k =  -0.336 -0.500 -0.214
   - k =  -0.355 -0.500 -0.214
   - k =  -0.373 -0.500 -0.214
   - k =  -0.391 -0.500 -0.214
   - k =  -0.409 -0.500 -0.214
   - k =  -0.427 -0.500 -0.214
   - k =  -0.445 -0.500 -0.214
   - k =  -0.464 -0.500 -0.214
   - k =  -0.482 -0.500 -0.214
   - k =  -0.500 -0.500 -0.214

  |-> Computing Wannier center evolution at k-point number:      3

  Treating all   56 k-points in band plot segment #   4:
   Sampling over :
   - k =   0.500 -0.500 -0.071
   - k =   0.482 -0.500 -0.071
   - k =   0.464 -0.500 -0.071
   - k =   0.445 -0.500 -0.071
   - k =   0.427 -0.500 -0.071
   - k =   0.409 -0.500 -0.071
   - k =   0.391 -0.500 -0.071
   - k =   0.373 -0.500 -0.071
   - k =   0.355 -0.500 -0.071
   - k =   0.336 -0.500 -0.071
   - k =   0.318 -0.500 -0.071
   - k =   0.300 -0.500 -0.071
   - k =   0.282 -0.500 -0.071
   - k =   0.264 -0.500 -0.071
   - k =   0.245 -0.500 -0.071
   - k =   0.227 -0.500 -0.071
   - k =   0.209 -0.500 -0.071
   - k =   0.191 -0.500 -0.071
   - k =   0.173 -0.500 -0.071
   - k =   0.155 -0.500 -0.071
   - k =   0.136 -0.500 -0.071
   - k =   0.118 -0.500 -0.071
   - k =   0.100 -0.500 -0.071
   - k =   0.082 -0.500 -0.071
   - k =   0.064 -0.500 -0.071
   - k =   0.045 -0.500 -0.071
   - k =   0.027 -0.500 -0.071
   - k =   0.009 -0.500 -0.071
   - k =  -0.009 -0.500 -0.071
   - k =  -0.027 -0.500 -0.071
   - k =  -0.045 -0.500 -0.071
   - k =  -0.064 -0.500 -0.071
   - k =  -0.082 -0.500 -0.071
   - k =  -0.100 -0.500 -0.071
   - k =  -0.118 -0.500 -0.071
   - k =  -0.136 -0.500 -0.071
   - k =  -0.155 -0.500 -0.071
   - k =  -0.173 -0.500 -0.071
   - k =  -0.191 -0.500 -0.071
   - k =  -0.209 -0.500 -0.071
   - k =  -0.227 -0.500 -0.071
   - k =  -0.245 -0.500 -0.071
   - k =  -0.264 -0.500 -0.071
   - k =  -0.282 -0.500 -0.071
   - k =  -0.300 -0.500 -0.071
   - k =  -0.318 -0.500 -0.071
   - k =  -0.336 -0.500 -0.071
   - k =  -0.355 -0.500 -0.071
   - k =  -0.373 -0.500 -0.071
   - k =  -0.391 -0.500 -0.071
   - k =  -0.409 -0.500 -0.071
   - k =  -0.427 -0.500 -0.071
   - k =  -0.445 -0.500 -0.071
   - k =  -0.464 -0.500 -0.071
   - k =  -0.482 -0.500 -0.071
   - k =  -0.500 -0.500 -0.071

  |-> Computing Wannier center evolution at k-point number:      4

  Treating all   56 k-points in band plot segment #   5:
   Sampling over :
   - k =   0.500 -0.500  0.071
   - k =   0.482 -0.500  0.071
   - k =   0.464 -0.500  0.071
   - k =   0.445 -0.500  0.071
   - k =   0.427 -0.500  0.071
   - k =   0.409 -0.500  0.071
   - k =   0.391 -0.500  0.071
   - k =   0.373 -0.500  0.071
   - k =   0.355 -0.500  0.071
   - k =   0.336 -0.500  0.071
   - k =   0.318 -0.500  0.071
   - k =   0.300 -0.500  0.071
   - k =   0.282 -0.500  0.071
   - k =   0.264 -0.500  0.071
   - k =   0.245 -0.500  0.071
   - k =   0.227 -0.500  0.071
   - k =   0.209 -0.500  0.071
   - k =   0.191 -0.500  0.071
   - k =   0.173 -0.500  0.071
   - k =   0.155 -0.500  0.071
   - k =   0.136 -0.500  0.071
   - k =   0.118 -0.500  0.071
   - k =   0.100 -0.500  0.071
   - k =   0.082 -0.500  0.071
   - k =   0.064 -0.500  0.071
   - k =   0.045 -0.500  0.071
   - k =   0.027 -0.500  0.071
   - k =   0.009 -0.500  0.071
   - k =  -0.009 -0.500  0.071
   - k =  -0.027 -0.500  0.071
   - k =  -0.045 -0.500  0.071
   - k =  -0.064 -0.500  0.071
   - k =  -0.082 -0.500  0.071
   - k =  -0.100 -0.500  0.071
   - k =  -0.118 -0.500  0.071
   - k =  -0.136 -0.500  0.071
   - k =  -0.155 -0.500  0.071
   - k =  -0.173 -0.500  0.071
   - k =  -0.191 -0.500  0.071
   - k =  -0.209 -0.500  0.071
   - k =  -0.227 -0.500  0.071
   - k =  -0.245 -0.500  0.071
   - k =  -0.264 -0.500  0.071
   - k =  -0.282 -0.500  0.071
   - k =  -0.300 -0.500  0.071
   - k =  -0.318 -0.500  0.071
   - k =  -0.336 -0.500  0.071
   - k =  -0.355 -0.500  0.071
   - k =  -0.373 -0.500  0.071
   - k =  -0.391 -0.500  0.071
   - k =  -0.409 -0.500  0.071
   - k =  -0.427 -0.500  0.071
   - k =  -0.445 -0.500  0.071
   - k =  -0.464 -0.500  0.071
   - k =  -0.482 -0.500  0.071
   - k =  -0.500 -0.500  0.071

  |-> Computing Wannier center evolution at k-point number:      5

  Treating all   56 k-points in band plot segment #   6:
   Sampling over :
   - k =   0.500 -0.500  0.214
   - k =   0.482 -0.500  0.214
   - k =   0.464 -0.500  0.214
   - k =   0.445 -0.500  0.214
   - k =   0.427 -0.500  0.214
   - k =   0.409 -0.500  0.214
   - k =   0.391 -0.500  0.214
   - k =   0.373 -0.500  0.214
   - k =   0.355 -0.500  0.214
   - k =   0.336 -0.500  0.214
   - k =   0.318 -0.500  0.214
   - k =   0.300 -0.500  0.214
   - k =   0.282 -0.500  0.214
   - k =   0.264 -0.500  0.214
   - k =   0.245 -0.500  0.214
   - k =   0.227 -0.500  0.214
   - k =   0.209 -0.500  0.214
   - k =   0.191 -0.500  0.214
   - k =   0.173 -0.500  0.214
   - k =   0.155 -0.500  0.214
   - k =   0.136 -0.500  0.214
   - k =   0.118 -0.500  0.214
   - k =   0.100 -0.500  0.214
   - k =   0.082 -0.500  0.214
   - k =   0.064 -0.500  0.214
   - k =   0.045 -0.500  0.214
   - k =   0.027 -0.500  0.214
   - k =   0.009 -0.500  0.214
   - k =  -0.009 -0.500  0.214
   - k =  -0.027 -0.500  0.214
   - k =  -0.045 -0.500  0.214
   - k =  -0.064 -0.500  0.214
   - k =  -0.082 -0.500  0.214
   - k =  -0.100 -0.500  0.214
   - k =  -0.118 -0.500  0.214
   - k =  -0.136 -0.500  0.214
   - k =  -0.155 -0.500  0.214
   - k =  -0.173 -0.500  0.214
   - k =  -0.191 -0.500  0.214
   - k =  -0.209 -0.500  0.214
   - k =  -0.227 -0.500  0.214
   - k =  -0.245 -0.500  0.214
   - k =  -0.264 -0.500  0.214
   - k =  -0.282 -0.500  0.214
   - k =  -0.300 -0.500  0.214
   - k =  -0.318 -0.500  0.214
   - k =  -0.336 -0.500  0.214
   - k =  -0.355 -0.500  0.214
   - k =  -0.373 -0.500  0.214
   - k =  -0.391 -0.500  0.214
   - k =  -0.409 -0.500  0.214
   - k =  -0.427 -0.500  0.214
   - k =  -0.445 -0.500  0.214
   - k =  -0.464 -0.500  0.214
   - k =  -0.482 -0.500  0.214
   - k =  -0.500 -0.500  0.214

  |-> Computing Wannier center evolution at k-point number:      6

  Treating all   56 k-points in band plot segment #   7:
   Sampling over :
   - k =   0.500 -0.500  0.357
   - k =   0.482 -0.500  0.357
   - k =   0.464 -0.500  0.357
   - k =   0.445 -0.500  0.357
   - k =   0.427 -0.500  0.357
   - k =   0.409 -0.500  0.357
   - k =   0.391 -0.500  0.357
   - k =   0.373 -0.500  0.357
   - k =   0.355 -0.500  0.357
   - k =   0.336 -0.500  0.357
   - k =   0.318 -0.500  0.357
   - k =   0.300 -0.500  0.357
   - k =   0.282 -0.500  0.357
   - k =   0.264 -0.500  0.357
   - k =   0.245 -0.500  0.357
   - k =   0.227 -0.500  0.357
   - k =   0.209 -0.500  0.357
   - k =   0.191 -0.500  0.357
   - k =   0.173 -0.500  0.357
   - k =   0.155 -0.500  0.357
   - k =   0.136 -0.500  0.357
   - k =   0.118 -0.500  0.357
   - k =   0.100 -0.500  0.357
   - k =   0.082 -0.500  0.357
   - k =   0.064 -0.500  0.357
   - k =   0.045 -0.500  0.357
   - k =   0.027 -0.500  0.357
   - k =   0.009 -0.500  0.357
   - k =  -0.009 -0.500  0.357
   - k =  -0.027 -0.500  0.357
   - k =  -0.045 -0.500  0.357
   - k =  -0.064 -0.500  0.357
   - k =  -0.082 -0.500  0.357
   - k =  -0.100 -0.500  0.357
   - k =  -0.118 -0.500  0.357
   - k =  -0.136 -0.500  0.357
   - k =  -0.155 -0.500  0.357
   - k =  -0.173 -0.500  0.357
   - k =  -0.191 -0.500  0.357
   - k =  -0.209 -0.500  0.357
   - k =  -0.227 -0.500  0.357
   - k =  -0.245 -0.500  0.357
   - k =  -0.264 -0.500  0.357
   - k =  -0.282 -0.500  0.357
   - k =  -0.300 -0.500  0.357
   - k =  -0.318 -0.500  0.357
   - k =  -0.336 -0.500  0.357
   - k =  -0.355 -0.500  0.357
   - k =  -0.373 -0.500  0.357
   - k =  -0.391 -0.500  0.357
   - k =  -0.409 -0.500  0.357
   - k =  -0.427 -0.500  0.357
   - k =  -0.445 -0.500  0.357
   - k =  -0.464 -0.500  0.357
   - k =  -0.482 -0.500  0.357
   - k =  -0.500 -0.500  0.357

  |-> Computing Wannier center evolution at k-point number:      7

  Treating all   56 k-points in band plot segment #   8:
   Sampling over :
   - k =   0.500 -0.500  0.500
   - k =   0.482 -0.500  0.500
   - k =   0.464 -0.500  0.500
   - k =   0.445 -0.500  0.500
   - k =   0.427 -0.500  0.500
   - k =   0.409 -0.500  0.500
   - k =   0.391 -0.500  0.500
   - k =   0.373 -0.500  0.500
   - k =   0.355 -0.500  0.500
   - k =   0.336 -0.500  0.500
   - k =   0.318 -0.500  0.500
   - k =   0.300 -0.500  0.500
   - k =   0.282 -0.500  0.500
   - k =   0.264 -0.500  0.500
   - k =   0.245 -0.500  0.500
   - k =   0.227 -0.500  0.500
   - k =   0.209 -0.500  0.500
   - k =   0.191 -0.500  0.500
   - k =   0.173 -0.500  0.500
   - k =   0.155 -0.500  0.500
   - k =   0.136 -0.500  0.500
   - k =   0.118 -0.500  0.500
   - k =   0.100 -0.500  0.500
   - k =   0.082 -0.500  0.500
   - k =   0.064 -0.500  0.500
   - k =   0.045 -0.500  0.500
   - k =   0.027 -0.500  0.500
   - k =   0.009 -0.500  0.500
   - k =  -0.009 -0.500  0.500
   - k =  -0.027 -0.500  0.500
   - k =  -0.045 -0.500  0.500
   - k =  -0.064 -0.500  0.500
   - k =  -0.082 -0.500  0.500
   - k =  -0.100 -0.500  0.500
   - k =  -0.118 -0.500  0.500
   - k =  -0.136 -0.500  0.500
   - k =  -0.155 -0.500  0.500
   - k =  -0.173 -0.500  0.500
   - k =  -0.191 -0.500  0.500
   - k =  -0.209 -0.500  0.500
   - k =  -0.227 -0.500  0.500
   - k =  -0.245 -0.500  0.500
   - k =  -0.264 -0.500  0.500
   - k =  -0.282 -0.500  0.500
   - k =  -0.300 -0.500  0.500
   - k =  -0.318 -0.500  0.500
   - k =  -0.336 -0.500  0.500
   - k =  -0.355 -0.500  0.500
   - k =  -0.373 -0.500  0.500
   - k =  -0.391 -0.500  0.500
   - k =  -0.409 -0.500  0.500
   - k =  -0.427 -0.500  0.500
   - k =  -0.445 -0.500  0.500
   - k =  -0.464 -0.500  0.500
   - k =  -0.482 -0.500  0.500
   - k =  -0.500 -0.500  0.500

  |-> Computing Wannier center evolution at k-point number:      8

  Treating all   56 k-points in band plot segment #   9:
   Sampling over :
   - k =   0.500 -0.357 -0.500
   - k =   0.482 -0.357 -0.500
   - k =   0.464 -0.357 -0.500
   - k =   0.445 -0.357 -0.500
   - k =   0.427 -0.357 -0.500
   - k =   0.409 -0.357 -0.500
   - k =   0.391 -0.357 -0.500
   - k =   0.373 -0.357 -0.500
   - k =   0.355 -0.357 -0.500
   - k =   0.336 -0.357 -0.500
   - k =   0.318 -0.357 -0.500
   - k =   0.300 -0.357 -0.500
   - k =   0.282 -0.357 -0.500
   - k =   0.264 -0.357 -0.500
   - k =   0.245 -0.357 -0.500
   - k =   0.227 -0.357 -0.500
   - k =   0.209 -0.357 -0.500
   - k =   0.191 -0.357 -0.500
   - k =   0.173 -0.357 -0.500
   - k =   0.155 -0.357 -0.500
   - k =   0.136 -0.357 -0.500
   - k =   0.118 -0.357 -0.500
   - k =   0.100 -0.357 -0.500
   - k =   0.082 -0.357 -0.500
   - k =   0.064 -0.357 -0.500
   - k =   0.045 -0.357 -0.500
   - k =   0.027 -0.357 -0.500
   - k =   0.009 -0.357 -0.500
   - k =  -0.009 -0.357 -0.500
   - k =  -0.027 -0.357 -0.500
   - k =  -0.045 -0.357 -0.500
   - k =  -0.064 -0.357 -0.500
   - k =  -0.082 -0.357 -0.500
   - k =  -0.100 -0.357 -0.500
   - k =  -0.118 -0.357 -0.500
   - k =  -0.136 -0.357 -0.500
   - k =  -0.155 -0.357 -0.500
   - k =  -0.173 -0.357 -0.500
   - k =  -0.191 -0.357 -0.500
   - k =  -0.209 -0.357 -0.500
   - k =  -0.227 -0.357 -0.500
   - k =  -0.245 -0.357 -0.500
   - k =  -0.264 -0.357 -0.500
   - k =  -0.282 -0.357 -0.500
   - k =  -0.300 -0.357 -0.500
   - k =  -0.318 -0.357 -0.500
   - k =  -0.336 -0.357 -0.500
   - k =  -0.355 -0.357 -0.500
   - k =  -0.373 -0.357 -0.500
   - k =  -0.391 -0.357 -0.500
   - k =  -0.409 -0.357 -0.500
   - k =  -0.427 -0.357 -0.500
   - k =  -0.445 -0.357 -0.500
   - k =  -0.464 -0.357 -0.500
   - k =  -0.482 -0.357 -0.500
   - k =  -0.500 -0.357 -0.500

  |-> Computing Wannier center evolution at k-point number:      9

  Treating all   56 k-points in band plot segment #  10:
   Sampling over :
   - k =   0.500 -0.357 -0.357
   - k =   0.482 -0.357 -0.357
   - k =   0.464 -0.357 -0.357
   - k =   0.445 -0.357 -0.357
   - k =   0.427 -0.357 -0.357
   - k =   0.409 -0.357 -0.357
   - k =   0.391 -0.357 -0.357
   - k =   0.373 -0.357 -0.357
   - k =   0.355 -0.357 -0.357
   - k =   0.336 -0.357 -0.357
   - k =   0.318 -0.357 -0.357
   - k =   0.300 -0.357 -0.357
   - k =   0.282 -0.357 -0.357
   - k =   0.264 -0.357 -0.357
   - k =   0.245 -0.357 -0.357
   - k =   0.227 -0.357 -0.357
   - k =   0.209 -0.357 -0.357
   - k =   0.191 -0.357 -0.357
   - k =   0.173 -0.357 -0.357
   - k =   0.155 -0.357 -0.357
   - k =   0.136 -0.357 -0.357
   - k =   0.118 -0.357 -0.357
   - k =   0.100 -0.357 -0.357
   - k =   0.082 -0.357 -0.357
   - k =   0.064 -0.357 -0.357
   - k =   0.045 -0.357 -0.357
   - k =   0.027 -0.357 -0.357
   - k =   0.009 -0.357 -0.357
   - k =  -0.009 -0.357 -0.357
   - k =  -0.027 -0.357 -0.357
   - k =  -0.045 -0.357 -0.357
   - k =  -0.064 -0.357 -0.357
   - k =  -0.082 -0.357 -0.357
   - k =  -0.100 -0.357 -0.357
   - k =  -0.118 -0.357 -0.357
   - k =  -0.136 -0.357 -0.357
   - k =  -0.155 -0.357 -0.357
   - k =  -0.173 -0.357 -0.357
   - k =  -0.191 -0.357 -0.357
   - k =  -0.209 -0.357 -0.357
   - k =  -0.227 -0.357 -0.357
   - k =  -0.245 -0.357 -0.357
   - k =  -0.264 -0.357 -0.357
   - k =  -0.282 -0.357 -0.357
   - k =  -0.300 -0.357 -0.357
   - k =  -0.318 -0.357 -0.357
   - k =  -0.336 -0.357 -0.357
   - k =  -0.355 -0.357 -0.357
   - k =  -0.373 -0.357 -0.357
   - k =  -0.391 -0.357 -0.357
   - k =  -0.409 -0.357 -0.357
   - k =  -0.427 -0.357 -0.357
   - k =  -0.445 -0.357 -0.357
   - k =  -0.464 -0.357 -0.357
   - k =  -0.482 -0.357 -0.357
   - k =  -0.500 -0.357 -0.357

  |-> Computing Wannier center evolution at k-point number:     10

  Treating all   56 k-points in band plot segment #  11:
   Sampling over :
   - k =   0.500 -0.357 -0.214
   - k =   0.482 -0.357 -0.214
   - k =   0.464 -0.357 -0.214
   - k =   0.445 -0.357 -0.214
   - k =   0.427 -0.357 -0.214
   - k =   0.409 -0.357 -0.214
   - k =   0.391 -0.357 -0.214
   - k =   0.373 -0.357 -0.214
   - k =   0.355 -0.357 -0.214
   - k =   0.336 -0.357 -0.214
   - k =   0.318 -0.357 -0.214
   - k =   0.300 -0.357 -0.214
   - k =   0.282 -0.357 -0.214
   - k =   0.264 -0.357 -0.214
   - k =   0.245 -0.357 -0.214
   - k =   0.227 -0.357 -0.214
   - k =   0.209 -0.357 -0.214
   - k =   0.191 -0.357 -0.214
   - k =   0.173 -0.357 -0.214
   - k =   0.155 -0.357 -0.214
   - k =   0.136 -0.357 -0.214
   - k =   0.118 -0.357 -0.214
   - k =   0.100 -0.357 -0.214
   - k =   0.082 -0.357 -0.214
   - k =   0.064 -0.357 -0.214
   - k =   0.045 -0.357 -0.214
   - k =   0.027 -0.357 -0.214
   - k =   0.009 -0.357 -0.214
   - k =  -0.009 -0.357 -0.214
   - k =  -0.027 -0.357 -0.214
   - k =  -0.045 -0.357 -0.214
   - k =  -0.064 -0.357 -0.214
   - k =  -0.082 -0.357 -0.214
   - k =  -0.100 -0.357 -0.214
   - k =  -0.118 -0.357 -0.214
   - k =  -0.136 -0.357 -0.214
   - k =  -0.155 -0.357 -0.214
   - k =  -0.173 -0.357 -0.214
   - k =  -0.191 -0.357 -0.214
   - k =  -0.209 -0.357 -0.214
   - k =  -0.227 -0.357 -0.214
   - k =  -0.245 -0.357 -0.214
   - k =  -0.264 -0.357 -0.214
   - k =  -0.282 -0.357 -0.214
   - k =  -0.300 -0.357 -0.214
   - k =  -0.318 -0.357 -0.214
   - k =  -0.336 -0.357 -0.214
   - k =  -0.355 -0.357 -0.214
   - k =  -0.373 -0.357 -0.214
   - k =  -0.391 -0.357 -0.214
   - k =  -0.409 -0.357 -0.214
   - k =  -0.427 -0.357 -0.214
   - k =  -0.445 -0.357 -0.214
   - k =  -0.464 -0.357 -0.214
   - k =  -0.482 -0.357 -0.214
   - k =  -0.500 -0.357 -0.214

  |-> Computing Wannier center evolution at k-point number:     11

  Treating all   56 k-points in band plot segment #  12:
   Sampling over :
   - k =   0.500 -0.357 -0.071
   - k =   0.482 -0.357 -0.071
   - k =   0.464 -0.357 -0.071
   - k =   0.445 -0.357 -0.071
   - k =   0.427 -0.357 -0.071
   - k =   0.409 -0.357 -0.071
   - k =   0.391 -0.357 -0.071
   - k =   0.373 -0.357 -0.071
   - k =   0.355 -0.357 -0.071
   - k =   0.336 -0.357 -0.071
   - k =   0.318 -0.357 -0.071
   - k =   0.300 -0.357 -0.071
   - k =   0.282 -0.357 -0.071
   - k =   0.264 -0.357 -0.071
   - k =   0.245 -0.357 -0.071
   - k =   0.227 -0.357 -0.071
   - k =   0.209 -0.357 -0.071
   - k =   0.191 -0.357 -0.071
   - k =   0.173 -0.357 -0.071
   - k =   0.155 -0.357 -0.071
   - k =   0.136 -0.357 -0.071
   - k =   0.118 -0.357 -0.071
   - k =   0.100 -0.357 -0.071
   - k =   0.082 -0.357 -0.071
   - k =   0.064 -0.357 -0.071
   - k =   0.045 -0.357 -0.071
   - k =   0.027 -0.357 -0.071
   - k =   0.009 -0.357 -0.071
   - k =  -0.009 -0.357 -0.071
   - k =  -0.027 -0.357 -0.071
   - k =  -0.045 -0.357 -0.071
   - k =  -0.064 -0.357 -0.071
   - k =  -0.082 -0.357 -0.071
   - k =  -0.100 -0.357 -0.071
   - k =  -0.118 -0.357 -0.071
   - k =  -0.136 -0.357 -0.071
   - k =  -0.155 -0.357 -0.071
   - k =  -0.173 -0.357 -0.071
   - k =  -0.191 -0.357 -0.071
   - k =  -0.209 -0.357 -0.071
   - k =  -0.227 -0.357 -0.071
   - k =  -0.245 -0.357 -0.071
   - k =  -0.264 -0.357 -0.071
   - k =  -0.282 -0.357 -0.071
   - k =  -0.300 -0.357 -0.071
   - k =  -0.318 -0.357 -0.071
   - k =  -0.336 -0.357 -0.071
   - k =  -0.355 -0.357 -0.071
   - k =  -0.373 -0.357 -0.071
   - k =  -0.391 -0.357 -0.071
   - k =  -0.409 -0.357 -0.071
   - k =  -0.427 -0.357 -0.071
   - k =  -0.445 -0.357 -0.071
   - k =  -0.464 -0.357 -0.071
   - k =  -0.482 -0.357 -0.071
   - k =  -0.500 -0.357 -0.071

  |-> Computing Wannier center evolution at k-point number:     12

  Treating all   56 k-points in band plot segment #  13:
   Sampling over :
   - k =   0.500 -0.357  0.071
   - k =   0.482 -0.357  0.071
   - k =   0.464 -0.357  0.071
   - k =   0.445 -0.357  0.071
   - k =   0.427 -0.357  0.071
   - k =   0.409 -0.357  0.071
   - k =   0.391 -0.357  0.071
   - k =   0.373 -0.357  0.071
   - k =   0.355 -0.357  0.071
   - k =   0.336 -0.357  0.071
   - k =   0.318 -0.357  0.071
   - k =   0.300 -0.357  0.071
   - k =   0.282 -0.357  0.071
   - k =   0.264 -0.357  0.071
   - k =   0.245 -0.357  0.071
   - k =   0.227 -0.357  0.071
   - k =   0.209 -0.357  0.071
   - k =   0.191 -0.357  0.071
   - k =   0.173 -0.357  0.071
   - k =   0.155 -0.357  0.071
   - k =   0.136 -0.357  0.071
   - k =   0.118 -0.357  0.071
   - k =   0.100 -0.357  0.071
   - k =   0.082 -0.357  0.071
   - k =   0.064 -0.357  0.071
   - k =   0.045 -0.357  0.071
   - k =   0.027 -0.357  0.071
   - k =   0.009 -0.357  0.071
   - k =  -0.009 -0.357  0.071
   - k =  -0.027 -0.357  0.071
   - k =  -0.045 -0.357  0.071
   - k =  -0.064 -0.357  0.071
   - k =  -0.082 -0.357  0.071
   - k =  -0.100 -0.357  0.071
   - k =  -0.118 -0.357  0.071
   - k =  -0.136 -0.357  0.071
   - k =  -0.155 -0.357  0.071
   - k =  -0.173 -0.357  0.071
   - k =  -0.191 -0.357  0.071
   - k =  -0.209 -0.357  0.071
   - k =  -0.227 -0.357  0.071
   - k =  -0.245 -0.357  0.071
   - k =  -0.264 -0.357  0.071
   - k =  -0.282 -0.357  0.071
   - k =  -0.300 -0.357  0.071
   - k =  -0.318 -0.357  0.071
   - k =  -0.336 -0.357  0.071
   - k =  -0.355 -0.357  0.071
   - k =  -0.373 -0.357  0.071
   - k =  -0.391 -0.357  0.071
   - k =  -0.409 -0.357  0.071
   - k =  -0.427 -0.357  0.071
   - k =  -0.445 -0.357  0.071
   - k =  -0.464 -0.357  0.071
   - k =  -0.482 -0.357  0.071
   - k =  -0.500 -0.357  0.071

  |-> Computing Wannier center evolution at k-point number:     13

  Treating all   56 k-points in band plot segment #  14:
   Sampling over :
   - k =   0.500 -0.357  0.214
   - k =   0.482 -0.357  0.214
   - k =   0.464 -0.357  0.214
   - k =   0.445 -0.357  0.214
   - k =   0.427 -0.357  0.214
   - k =   0.409 -0.357  0.214
   - k =   0.391 -0.357  0.214
   - k =   0.373 -0.357  0.214
   - k =   0.355 -0.357  0.214
   - k =   0.336 -0.357  0.214
   - k =   0.318 -0.357  0.214
   - k =   0.300 -0.357  0.214
   - k =   0.282 -0.357  0.214
   - k =   0.264 -0.357  0.214
   - k =   0.245 -0.357  0.214
   - k =   0.227 -0.357  0.214
   - k =   0.209 -0.357  0.214
   - k =   0.191 -0.357  0.214
   - k =   0.173 -0.357  0.214
   - k =   0.155 -0.357  0.214
   - k =   0.136 -0.357  0.214
   - k =   0.118 -0.357  0.214
   - k =   0.100 -0.357  0.214
   - k =   0.082 -0.357  0.214
   - k =   0.064 -0.357  0.214
   - k =   0.045 -0.357  0.214
   - k =   0.027 -0.357  0.214
   - k =   0.009 -0.357  0.214
   - k =  -0.009 -0.357  0.214
   - k =  -0.027 -0.357  0.214
   - k =  -0.045 -0.357  0.214
   - k =  -0.064 -0.357  0.214
   - k =  -0.082 -0.357  0.214
   - k =  -0.100 -0.357  0.214
   - k =  -0.118 -0.357  0.214
   - k =  -0.136 -0.357  0.214
   - k =  -0.155 -0.357  0.214
   - k =  -0.173 -0.357  0.214
   - k =  -0.191 -0.357  0.214
   - k =  -0.209 -0.357  0.214
   - k =  -0.227 -0.357  0.214
   - k =  -0.245 -0.357  0.214
   - k =  -0.264 -0.357  0.214
   - k =  -0.282 -0.357  0.214
   - k =  -0.300 -0.357  0.214
   - k =  -0.318 -0.357  0.214
   - k =  -0.336 -0.357  0.214
   - k =  -0.355 -0.357  0.214
   - k =  -0.373 -0.357  0.214
   - k =  -0.391 -0.357  0.214
   - k =  -0.409 -0.357  0.214
   - k =  -0.427 -0.357  0.214
   - k =  -0.445 -0.357  0.214
   - k =  -0.464 -0.357  0.214
   - k =  -0.482 -0.357  0.214
   - k =  -0.500 -0.357  0.214

  |-> Computing Wannier center evolution at k-point number:     14

  Treating all   56 k-points in band plot segment #  15:
   Sampling over :
   - k =   0.500 -0.357  0.357
   - k =   0.482 -0.357  0.357
   - k =   0.464 -0.357  0.357
   - k =   0.445 -0.357  0.357
   - k =   0.427 -0.357  0.357
   - k =   0.409 -0.357  0.357
   - k =   0.391 -0.357  0.357
   - k =   0.373 -0.357  0.357
   - k =   0.355 -0.357  0.357
   - k =   0.336 -0.357  0.357
   - k =   0.318 -0.357  0.357
   - k =   0.300 -0.357  0.357
   - k =   0.282 -0.357  0.357
   - k =   0.264 -0.357  0.357
   - k =   0.245 -0.357  0.357
   - k =   0.227 -0.357  0.357
   - k =   0.209 -0.357  0.357
   - k =   0.191 -0.357  0.357
   - k =   0.173 -0.357  0.357
   - k =   0.155 -0.357  0.357
   - k =   0.136 -0.357  0.357
   - k =   0.118 -0.357  0.357
   - k =   0.100 -0.357  0.357
   - k =   0.082 -0.357  0.357
   - k =   0.064 -0.357  0.357
   - k =   0.045 -0.357  0.357
   - k =   0.027 -0.357  0.357
   - k =   0.009 -0.357  0.357
   - k =  -0.009 -0.357  0.357
   - k =  -0.027 -0.357  0.357
   - k =  -0.045 -0.357  0.357
   - k =  -0.064 -0.357  0.357
   - k =  -0.082 -0.357  0.357
   - k =  -0.100 -0.357  0.357
   - k =  -0.118 -0.357  0.357
   - k =  -0.136 -0.357  0.357
   - k =  -0.155 -0.357  0.357
   - k =  -0.173 -0.357  0.357
   - k =  -0.191 -0.357  0.357
   - k =  -0.209 -0.357  0.357
   - k =  -0.227 -0.357  0.357
   - k =  -0.245 -0.357  0.357
   - k =  -0.264 -0.357  0.357
   - k =  -0.282 -0.357  0.357
   - k =  -0.300 -0.357  0.357
   - k =  -0.318 -0.357  0.357
   - k =  -0.336 -0.357  0.357
   - k =  -0.355 -0.357  0.357
   - k =  -0.373 -0.357  0.357
   - k =  -0.391 -0.357  0.357
   - k =  -0.409 -0.357  0.357
   - k =  -0.427 -0.357  0.357
   - k =  -0.445 -0.357  0.357
   - k =  -0.464 -0.357  0.357
   - k =  -0.482 -0.357  0.357
   - k =  -0.500 -0.357  0.357

  |-> Computing Wannier center evolution at k-point number:     15

  Treating all   56 k-points in band plot segment #  16:
   Sampling over :
   - k =   0.500 -0.357  0.500
   - k =   0.482 -0.357  0.500
   - k =   0.464 -0.357  0.500
   - k =   0.445 -0.357  0.500
   - k =   0.427 -0.357  0.500
   - k =   0.409 -0.357  0.500
   - k =   0.391 -0.357  0.500
   - k =   0.373 -0.357  0.500
   - k =   0.355 -0.357  0.500
   - k =   0.336 -0.357  0.500
   - k =   0.318 -0.357  0.500
   - k =   0.300 -0.357  0.500
   - k =   0.282 -0.357  0.500
   - k =   0.264 -0.357  0.500
   - k =   0.245 -0.357  0.500
   - k =   0.227 -0.357  0.500
   - k =   0.209 -0.357  0.500
   - k =   0.191 -0.357  0.500
   - k =   0.173 -0.357  0.500
   - k =   0.155 -0.357  0.500
   - k =   0.136 -0.357  0.500
   - k =   0.118 -0.357  0.500
   - k =   0.100 -0.357  0.500
   - k =   0.082 -0.357  0.500
   - k =   0.064 -0.357  0.500
   - k =   0.045 -0.357  0.500
   - k =   0.027 -0.357  0.500
   - k =   0.009 -0.357  0.500
   - k =  -0.009 -0.357  0.500
   - k =  -0.027 -0.357  0.500
   - k =  -0.045 -0.357  0.500
   - k =  -0.064 -0.357  0.500
   - k =  -0.082 -0.357  0.500
   - k =  -0.100 -0.357  0.500
   - k =  -0.118 -0.357  0.500
   - k =  -0.136 -0.357  0.500
   - k =  -0.155 -0.357  0.500
   - k =  -0.173 -0.357  0.500
   - k =  -0.191 -0.357  0.500
   - k =  -0.209 -0.357  0.500
   - k =  -0.227 -0.357  0.500
   - k =  -0.245 -0.357  0.500
   - k =  -0.264 -0.357  0.500
   - k =  -0.282 -0.357  0.500
   - k =  -0.300 -0.357  0.500
   - k =  -0.318 -0.357  0.500
   - k =  -0.336 -0.357  0.500
   - k =  -0.355 -0.357  0.500
   - k =  -0.373 -0.357  0.500
   - k =  -0.391 -0.357  0.500
   - k =  -0.409 -0.357  0.500
   - k =  -0.427 -0.357  0.500
   - k =  -0.445 -0.357  0.500
   - k =  -0.464 -0.357  0.500
   - k =  -0.482 -0.357  0.500
   - k =  -0.500 -0.357  0.500

  |-> Computing Wannier center evolution at k-point number:     16

  Treating all   56 k-points in band plot segment #  17:
   Sampling over :
   - k =   0.500 -0.214 -0.500
   - k =   0.482 -0.214 -0.500
   - k =   0.464 -0.214 -0.500
   - k =   0.445 -0.214 -0.500
   - k =   0.427 -0.214 -0.500
   - k =   0.409 -0.214 -0.500
   - k =   0.391 -0.214 -0.500
   - k =   0.373 -0.214 -0.500
   - k =   0.355 -0.214 -0.500
   - k =   0.336 -0.214 -0.500
   - k =   0.318 -0.214 -0.500
   - k =   0.300 -0.214 -0.500
   - k =   0.282 -0.214 -0.500
   - k =   0.264 -0.214 -0.500
   - k =   0.245 -0.214 -0.500
   - k =   0.227 -0.214 -0.500
   - k =   0.209 -0.214 -0.500
   - k =   0.191 -0.214 -0.500
   - k =   0.173 -0.214 -0.500
   - k =   0.155 -0.214 -0.500
   - k =   0.136 -0.214 -0.500
   - k =   0.118 -0.214 -0.500
   - k =   0.100 -0.214 -0.500
   - k =   0.082 -0.214 -0.500
   - k =   0.064 -0.214 -0.500
   - k =   0.045 -0.214 -0.500
   - k =   0.027 -0.214 -0.500
   - k =   0.009 -0.214 -0.500
   - k =  -0.009 -0.214 -0.500
   - k =  -0.027 -0.214 -0.500
   - k =  -0.045 -0.214 -0.500
   - k =  -0.064 -0.214 -0.500
   - k =  -0.082 -0.214 -0.500
   - k =  -0.100 -0.214 -0.500
   - k =  -0.118 -0.214 -0.500
   - k =  -0.136 -0.214 -0.500
   - k =  -0.155 -0.214 -0.500
   - k =  -0.173 -0.214 -0.500
   - k =  -0.191 -0.214 -0.500
   - k =  -0.209 -0.214 -0.500
   - k =  -0.227 -0.214 -0.500
   - k =  -0.245 -0.214 -0.500
   - k =  -0.264 -0.214 -0.500
   - k =  -0.282 -0.214 -0.500
   - k =  -0.300 -0.214 -0.500
   - k =  -0.318 -0.214 -0.500
   - k =  -0.336 -0.214 -0.500
   - k =  -0.355 -0.214 -0.500
   - k =  -0.373 -0.214 -0.500
   - k =  -0.391 -0.214 -0.500
   - k =  -0.409 -0.214 -0.500
   - k =  -0.427 -0.214 -0.500
   - k =  -0.445 -0.214 -0.500
   - k =  -0.464 -0.214 -0.500
   - k =  -0.482 -0.214 -0.500
   - k =  -0.500 -0.214 -0.500

  |-> Computing Wannier center evolution at k-point number:     17

  Treating all   56 k-points in band plot segment #  18:
   Sampling over :
   - k =   0.500 -0.214 -0.357
   - k =   0.482 -0.214 -0.357
   - k =   0.464 -0.214 -0.357
   - k =   0.445 -0.214 -0.357
   - k =   0.427 -0.214 -0.357
   - k =   0.409 -0.214 -0.357
   - k =   0.391 -0.214 -0.357
   - k =   0.373 -0.214 -0.357
   - k =   0.355 -0.214 -0.357
   - k =   0.336 -0.214 -0.357
   - k =   0.318 -0.214 -0.357
   - k =   0.300 -0.214 -0.357
   - k =   0.282 -0.214 -0.357
   - k =   0.264 -0.214 -0.357
   - k =   0.245 -0.214 -0.357
   - k =   0.227 -0.214 -0.357
   - k =   0.209 -0.214 -0.357
   - k =   0.191 -0.214 -0.357
   - k =   0.173 -0.214 -0.357
   - k =   0.155 -0.214 -0.357
   - k =   0.136 -0.214 -0.357
   - k =   0.118 -0.214 -0.357
   - k =   0.100 -0.214 -0.357
   - k =   0.082 -0.214 -0.357
   - k =   0.064 -0.214 -0.357
   - k =   0.045 -0.214 -0.357
   - k =   0.027 -0.214 -0.357
   - k =   0.009 -0.214 -0.357
   - k =  -0.009 -0.214 -0.357
   - k =  -0.027 -0.214 -0.357
   - k =  -0.045 -0.214 -0.357
   - k =  -0.064 -0.214 -0.357
   - k =  -0.082 -0.214 -0.357
   - k =  -0.100 -0.214 -0.357
   - k =  -0.118 -0.214 -0.357
   - k =  -0.136 -0.214 -0.357
   - k =  -0.155 -0.214 -0.357
   - k =  -0.173 -0.214 -0.357
   - k =  -0.191 -0.214 -0.357
   - k =  -0.209 -0.214 -0.357
   - k =  -0.227 -0.214 -0.357
   - k =  -0.245 -0.214 -0.357
   - k =  -0.264 -0.214 -0.357
   - k =  -0.282 -0.214 -0.357
   - k =  -0.300 -0.214 -0.357
   - k =  -0.318 -0.214 -0.357
   - k =  -0.336 -0.214 -0.357
   - k =  -0.355 -0.214 -0.357
   - k =  -0.373 -0.214 -0.357
   - k =  -0.391 -0.214 -0.357
   - k =  -0.409 -0.214 -0.357
   - k =  -0.427 -0.214 -0.357
   - k =  -0.445 -0.214 -0.357
   - k =  -0.464 -0.214 -0.357
   - k =  -0.482 -0.214 -0.357
   - k =  -0.500 -0.214 -0.357

  |-> Computing Wannier center evolution at k-point number:     18

  Treating all   56 k-points in band plot segment #  19:
   Sampling over :
   - k =   0.500 -0.214 -0.214
   - k =   0.482 -0.214 -0.214
   - k =   0.464 -0.214 -0.214
   - k =   0.445 -0.214 -0.214
   - k =   0.427 -0.214 -0.214
   - k =   0.409 -0.214 -0.214
   - k =   0.391 -0.214 -0.214
   - k =   0.373 -0.214 -0.214
   - k =   0.355 -0.214 -0.214
   - k =   0.336 -0.214 -0.214
   - k =   0.318 -0.214 -0.214
   - k =   0.300 -0.214 -0.214
   - k =   0.282 -0.214 -0.214
   - k =   0.264 -0.214 -0.214
   - k =   0.245 -0.214 -0.214
   - k =   0.227 -0.214 -0.214
   - k =   0.209 -0.214 -0.214
   - k =   0.191 -0.214 -0.214
   - k =   0.173 -0.214 -0.214
   - k =   0.155 -0.214 -0.214
   - k =   0.136 -0.214 -0.214
   - k =   0.118 -0.214 -0.214
   - k =   0.100 -0.214 -0.214
   - k =   0.082 -0.214 -0.214
   - k =   0.064 -0.214 -0.214
   - k =   0.045 -0.214 -0.214
   - k =   0.027 -0.214 -0.214
   - k =   0.009 -0.214 -0.214
   - k =  -0.009 -0.214 -0.214
   - k =  -0.027 -0.214 -0.214
   - k =  -0.045 -0.214 -0.214
   - k =  -0.064 -0.214 -0.214
   - k =  -0.082 -0.214 -0.214
   - k =  -0.100 -0.214 -0.214
   - k =  -0.118 -0.214 -0.214
   - k =  -0.136 -0.214 -0.214
   - k =  -0.155 -0.214 -0.214
   - k =  -0.173 -0.214 -0.214
   - k =  -0.191 -0.214 -0.214
   - k =  -0.209 -0.214 -0.214
   - k =  -0.227 -0.214 -0.214
   - k =  -0.245 -0.214 -0.214
   - k =  -0.264 -0.214 -0.214
   - k =  -0.282 -0.214 -0.214
   - k =  -0.300 -0.214 -0.214
   - k =  -0.318 -0.214 -0.214
   - k =  -0.336 -0.214 -0.214
   - k =  -0.355 -0.214 -0.214
   - k =  -0.373 -0.214 -0.214
   - k =  -0.391 -0.214 -0.214
   - k =  -0.409 -0.214 -0.214
   - k =  -0.427 -0.214 -0.214
   - k =  -0.445 -0.214 -0.214
   - k =  -0.464 -0.214 -0.214
   - k =  -0.482 -0.214 -0.214
   - k =  -0.500 -0.214 -0.214

  |-> Computing Wannier center evolution at k-point number:     19

  Treating all   56 k-points in band plot segment #  20:
   Sampling over :
   - k =   0.500 -0.214 -0.071
   - k =   0.482 -0.214 -0.071
   - k =   0.464 -0.214 -0.071
   - k =   0.445 -0.214 -0.071
   - k =   0.427 -0.214 -0.071
   - k =   0.409 -0.214 -0.071
   - k =   0.391 -0.214 -0.071
   - k =   0.373 -0.214 -0.071
   - k =   0.355 -0.214 -0.071
   - k =   0.336 -0.214 -0.071
   - k =   0.318 -0.214 -0.071
   - k =   0.300 -0.214 -0.071
   - k =   0.282 -0.214 -0.071
   - k =   0.264 -0.214 -0.071
   - k =   0.245 -0.214 -0.071
   - k =   0.227 -0.214 -0.071
   - k =   0.209 -0.214 -0.071
   - k =   0.191 -0.214 -0.071
   - k =   0.173 -0.214 -0.071
   - k =   0.155 -0.214 -0.071
   - k =   0.136 -0.214 -0.071
   - k =   0.118 -0.214 -0.071
   - k =   0.100 -0.214 -0.071
   - k =   0.082 -0.214 -0.071
   - k =   0.064 -0.214 -0.071
   - k =   0.045 -0.214 -0.071
   - k =   0.027 -0.214 -0.071
   - k =   0.009 -0.214 -0.071
   - k =  -0.009 -0.214 -0.071
   - k =  -0.027 -0.214 -0.071
   - k =  -0.045 -0.214 -0.071
   - k =  -0.064 -0.214 -0.071
   - k =  -0.082 -0.214 -0.071
   - k =  -0.100 -0.214 -0.071
   - k =  -0.118 -0.214 -0.071
   - k =  -0.136 -0.214 -0.071
   - k =  -0.155 -0.214 -0.071
   - k =  -0.173 -0.214 -0.071
   - k =  -0.191 -0.214 -0.071
   - k =  -0.209 -0.214 -0.071
   - k =  -0.227 -0.214 -0.071
   - k =  -0.245 -0.214 -0.071
   - k =  -0.264 -0.214 -0.071
   - k =  -0.282 -0.214 -0.071
   - k =  -0.300 -0.214 -0.071
   - k =  -0.318 -0.214 -0.071
   - k =  -0.336 -0.214 -0.071
   - k =  -0.355 -0.214 -0.071
   - k =  -0.373 -0.214 -0.071
   - k =  -0.391 -0.214 -0.071
   - k =  -0.409 -0.214 -0.071
   - k =  -0.427 -0.214 -0.071
   - k =  -0.445 -0.214 -0.071
   - k =  -0.464 -0.214 -0.071
   - k =  -0.482 -0.214 -0.071
   - k =  -0.500 -0.214 -0.071

  |-> Computing Wannier center evolution at k-point number:     20

  Treating all   56 k-points in band plot segment #  21:
   Sampling over :
   - k =   0.500 -0.214  0.071
   - k =   0.482 -0.214  0.071
   - k =   0.464 -0.214  0.071
   - k =   0.445 -0.214  0.071
   - k =   0.427 -0.214  0.071
   - k =   0.409 -0.214  0.071
   - k =   0.391 -0.214  0.071
   - k =   0.373 -0.214  0.071
   - k =   0.355 -0.214  0.071
   - k =   0.336 -0.214  0.071
   - k =   0.318 -0.214  0.071
   - k =   0.300 -0.214  0.071
   - k =   0.282 -0.214  0.071
   - k =   0.264 -0.214  0.071
   - k =   0.245 -0.214  0.071
   - k =   0.227 -0.214  0.071
   - k =   0.209 -0.214  0.071
   - k =   0.191 -0.214  0.071
   - k =   0.173 -0.214  0.071
   - k =   0.155 -0.214  0.071
   - k =   0.136 -0.214  0.071
   - k =   0.118 -0.214  0.071
   - k =   0.100 -0.214  0.071
   - k =   0.082 -0.214  0.071
   - k =   0.064 -0.214  0.071
   - k =   0.045 -0.214  0.071
   - k =   0.027 -0.214  0.071
   - k =   0.009 -0.214  0.071
   - k =  -0.009 -0.214  0.071
   - k =  -0.027 -0.214  0.071
   - k =  -0.045 -0.214  0.071
   - k =  -0.064 -0.214  0.071
   - k =  -0.082 -0.214  0.071
   - k =  -0.100 -0.214  0.071
   - k =  -0.118 -0.214  0.071
   - k =  -0.136 -0.214  0.071
   - k =  -0.155 -0.214  0.071
   - k =  -0.173 -0.214  0.071
   - k =  -0.191 -0.214  0.071
   - k =  -0.209 -0.214  0.071
   - k =  -0.227 -0.214  0.071
   - k =  -0.245 -0.214  0.071
   - k =  -0.264 -0.214  0.071
   - k =  -0.282 -0.214  0.071
   - k =  -0.300 -0.214  0.071
   - k =  -0.318 -0.214  0.071
   - k =  -0.336 -0.214  0.071
   - k =  -0.355 -0.214  0.071
   - k =  -0.373 -0.214  0.071
   - k =  -0.391 -0.214  0.071
   - k =  -0.409 -0.214  0.071
   - k =  -0.427 -0.214  0.071
   - k =  -0.445 -0.214  0.071
   - k =  -0.464 -0.214  0.071
   - k =  -0.482 -0.214  0.071
   - k =  -0.500 -0.214  0.071

  |-> Computing Wannier center evolution at k-point number:     21

  Treating all   56 k-points in band plot segment #  22:
   Sampling over :
   - k =   0.500 -0.214  0.214
   - k =   0.482 -0.214  0.214
   - k =   0.464 -0.214  0.214
   - k =   0.445 -0.214  0.214
   - k =   0.427 -0.214  0.214
   - k =   0.409 -0.214  0.214
   - k =   0.391 -0.214  0.214
   - k =   0.373 -0.214  0.214
   - k =   0.355 -0.214  0.214
   - k =   0.336 -0.214  0.214
   - k =   0.318 -0.214  0.214
   - k =   0.300 -0.214  0.214
   - k =   0.282 -0.214  0.214
   - k =   0.264 -0.214  0.214
   - k =   0.245 -0.214  0.214
   - k =   0.227 -0.214  0.214
   - k =   0.209 -0.214  0.214
   - k =   0.191 -0.214  0.214
   - k =   0.173 -0.214  0.214
   - k =   0.155 -0.214  0.214
   - k =   0.136 -0.214  0.214
   - k =   0.118 -0.214  0.214
   - k =   0.100 -0.214  0.214
   - k =   0.082 -0.214  0.214
   - k =   0.064 -0.214  0.214
   - k =   0.045 -0.214  0.214
   - k =   0.027 -0.214  0.214
   - k =   0.009 -0.214  0.214
   - k =  -0.009 -0.214  0.214
   - k =  -0.027 -0.214  0.214
   - k =  -0.045 -0.214  0.214
   - k =  -0.064 -0.214  0.214
   - k =  -0.082 -0.214  0.214
   - k =  -0.100 -0.214  0.214
   - k =  -0.118 -0.214  0.214
   - k =  -0.136 -0.214  0.214
   - k =  -0.155 -0.214  0.214
   - k =  -0.173 -0.214  0.214
   - k =  -0.191 -0.214  0.214
   - k =  -0.209 -0.214  0.214
   - k =  -0.227 -0.214  0.214
   - k =  -0.245 -0.214  0.214
   - k =  -0.264 -0.214  0.214
   - k =  -0.282 -0.214  0.214
   - k =  -0.300 -0.214  0.214
   - k =  -0.318 -0.214  0.214
   - k =  -0.336 -0.214  0.214
   - k =  -0.355 -0.214  0.214
   - k =  -0.373 -0.214  0.214
   - k =  -0.391 -0.214  0.214
   - k =  -0.409 -0.214  0.214
   - k =  -0.427 -0.214  0.214
   - k =  -0.445 -0.214  0.214
   - k =  -0.464 -0.214  0.214
   - k =  -0.482 -0.214  0.214
   - k =  -0.500 -0.214  0.214

  |-> Computing Wannier center evolution at k-point number:     22

  Treating all   56 k-points in band plot segment #  23:
   Sampling over :
   - k =   0.500 -0.214  0.357
   - k =   0.482 -0.214  0.357
   - k =   0.464 -0.214  0.357
   - k =   0.445 -0.214  0.357
   - k =   0.427 -0.214  0.357
   - k =   0.409 -0.214  0.357
   - k =   0.391 -0.214  0.357
   - k =   0.373 -0.214  0.357
   - k =   0.355 -0.214  0.357
   - k =   0.336 -0.214  0.357
   - k =   0.318 -0.214  0.357
   - k =   0.300 -0.214  0.357
   - k =   0.282 -0.214  0.357
   - k =   0.264 -0.214  0.357
   - k =   0.245 -0.214  0.357
   - k =   0.227 -0.214  0.357
   - k =   0.209 -0.214  0.357
   - k =   0.191 -0.214  0.357
   - k =   0.173 -0.214  0.357
   - k =   0.155 -0.214  0.357
   - k =   0.136 -0.214  0.357
   - k =   0.118 -0.214  0.357
   - k =   0.100 -0.214  0.357
   - k =   0.082 -0.214  0.357
   - k =   0.064 -0.214  0.357
   - k =   0.045 -0.214  0.357
   - k =   0.027 -0.214  0.357
   - k =   0.009 -0.214  0.357
   - k =  -0.009 -0.214  0.357
   - k =  -0.027 -0.214  0.357
   - k =  -0.045 -0.214  0.357
   - k =  -0.064 -0.214  0.357
   - k =  -0.082 -0.214  0.357
   - k =  -0.100 -0.214  0.357
   - k =  -0.118 -0.214  0.357
   - k =  -0.136 -0.214  0.357
   - k =  -0.155 -0.214  0.357
   - k =  -0.173 -0.214  0.357
   - k =  -0.191 -0.214  0.357
   - k =  -0.209 -0.214  0.357
   - k =  -0.227 -0.214  0.357
   - k =  -0.245 -0.214  0.357
   - k =  -0.264 -0.214  0.357
   - k =  -0.282 -0.214  0.357
   - k =  -0.300 -0.214  0.357
   - k =  -0.318 -0.214  0.357
   - k =  -0.336 -0.214  0.357
   - k =  -0.355 -0.214  0.357
   - k =  -0.373 -0.214  0.357
   - k =  -0.391 -0.214  0.357
   - k =  -0.409 -0.214  0.357
   - k =  -0.427 -0.214  0.357
   - k =  -0.445 -0.214  0.357
   - k =  -0.464 -0.214  0.357
   - k =  -0.482 -0.214  0.357
   - k =  -0.500 -0.214  0.357

  |-> Computing Wannier center evolution at k-point number:     23

  Treating all   56 k-points in band plot segment #  24:
   Sampling over :
   - k =   0.500 -0.214  0.500
   - k =   0.482 -0.214  0.500
   - k =   0.464 -0.214  0.500
   - k =   0.445 -0.214  0.500
   - k =   0.427 -0.214  0.500
   - k =   0.409 -0.214  0.500
   - k =   0.391 -0.214  0.500
   - k =   0.373 -0.214  0.500
   - k =   0.355 -0.214  0.500
   - k =   0.336 -0.214  0.500
   - k =   0.318 -0.214  0.500
   - k =   0.300 -0.214  0.500
   - k =   0.282 -0.214  0.500
   - k =   0.264 -0.214  0.500
   - k =   0.245 -0.214  0.500
   - k =   0.227 -0.214  0.500
   - k =   0.209 -0.214  0.500
   - k =   0.191 -0.214  0.500
   - k =   0.173 -0.214  0.500
   - k =   0.155 -0.214  0.500
   - k =   0.136 -0.214  0.500
   - k =   0.118 -0.214  0.500
   - k =   0.100 -0.214  0.500
   - k =   0.082 -0.214  0.500
   - k =   0.064 -0.214  0.500
   - k =   0.045 -0.214  0.500
   - k =   0.027 -0.214  0.500
   - k =   0.009 -0.214  0.500
   - k =  -0.009 -0.214  0.500
   - k =  -0.027 -0.214  0.500
   - k =  -0.045 -0.214  0.500
   - k =  -0.064 -0.214  0.500
   - k =  -0.082 -0.214  0.500
   - k =  -0.100 -0.214  0.500
   - k =  -0.118 -0.214  0.500
   - k =  -0.136 -0.214  0.500
   - k =  -0.155 -0.214  0.500
   - k =  -0.173 -0.214  0.500
   - k =  -0.191 -0.214  0.500
   - k =  -0.209 -0.214  0.500
   - k =  -0.227 -0.214  0.500
   - k =  -0.245 -0.214  0.500
   - k =  -0.264 -0.214  0.500
   - k =  -0.282 -0.214  0.500
   - k =  -0.300 -0.214  0.500
   - k =  -0.318 -0.214  0.500
   - k =  -0.336 -0.214  0.500
   - k =  -0.355 -0.214  0.500
   - k =  -0.373 -0.214  0.500
   - k =  -0.391 -0.214  0.500
   - k =  -0.409 -0.214  0.500
   - k =  -0.427 -0.214  0.500
   - k =  -0.445 -0.214  0.500
   - k =  -0.464 -0.214  0.500
   - k =  -0.482 -0.214  0.500
   - k =  -0.500 -0.214  0.500

  |-> Computing Wannier center evolution at k-point number:     24

  Treating all   56 k-points in band plot segment #  25:
   Sampling over :
   - k =   0.500 -0.071 -0.500
   - k =   0.482 -0.071 -0.500
   - k =   0.464 -0.071 -0.500
   - k =   0.445 -0.071 -0.500
   - k =   0.427 -0.071 -0.500
   - k =   0.409 -0.071 -0.500
   - k =   0.391 -0.071 -0.500
   - k =   0.373 -0.071 -0.500
   - k =   0.355 -0.071 -0.500
   - k =   0.336 -0.071 -0.500
   - k =   0.318 -0.071 -0.500
   - k =   0.300 -0.071 -0.500
   - k =   0.282 -0.071 -0.500
   - k =   0.264 -0.071 -0.500
   - k =   0.245 -0.071 -0.500
   - k =   0.227 -0.071 -0.500
   - k =   0.209 -0.071 -0.500
   - k =   0.191 -0.071 -0.500
   - k =   0.173 -0.071 -0.500
   - k =   0.155 -0.071 -0.500
   - k =   0.136 -0.071 -0.500
   - k =   0.118 -0.071 -0.500
   - k =   0.100 -0.071 -0.500
   - k =   0.082 -0.071 -0.500
   - k =   0.064 -0.071 -0.500
   - k =   0.045 -0.071 -0.500
   - k =   0.027 -0.071 -0.500
   - k =   0.009 -0.071 -0.500
   - k =  -0.009 -0.071 -0.500
   - k =  -0.027 -0.071 -0.500
   - k =  -0.045 -0.071 -0.500
   - k =  -0.064 -0.071 -0.500
   - k =  -0.082 -0.071 -0.500
   - k =  -0.100 -0.071 -0.500
   - k =  -0.118 -0.071 -0.500
   - k =  -0.136 -0.071 -0.500
   - k =  -0.155 -0.071 -0.500
   - k =  -0.173 -0.071 -0.500
   - k =  -0.191 -0.071 -0.500
   - k =  -0.209 -0.071 -0.500
   - k =  -0.227 -0.071 -0.500
   - k =  -0.245 -0.071 -0.500
   - k =  -0.264 -0.071 -0.500
   - k =  -0.282 -0.071 -0.500
   - k =  -0.300 -0.071 -0.500
   - k =  -0.318 -0.071 -0.500
   - k =  -0.336 -0.071 -0.500
   - k =  -0.355 -0.071 -0.500
   - k =  -0.373 -0.071 -0.500
   - k =  -0.391 -0.071 -0.500
   - k =  -0.409 -0.071 -0.500
   - k =  -0.427 -0.071 -0.500
   - k =  -0.445 -0.071 -0.500
   - k =  -0.464 -0.071 -0.500
   - k =  -0.482 -0.071 -0.500
   - k =  -0.500 -0.071 -0.500

  |-> Computing Wannier center evolution at k-point number:     25

  Treating all   56 k-points in band plot segment #  26:
   Sampling over :
   - k =   0.500 -0.071 -0.357
   - k =   0.482 -0.071 -0.357
   - k =   0.464 -0.071 -0.357
   - k =   0.445 -0.071 -0.357
   - k =   0.427 -0.071 -0.357
   - k =   0.409 -0.071 -0.357
   - k =   0.391 -0.071 -0.357
   - k =   0.373 -0.071 -0.357
   - k =   0.355 -0.071 -0.357
   - k =   0.336 -0.071 -0.357
   - k =   0.318 -0.071 -0.357
   - k =   0.300 -0.071 -0.357
   - k =   0.282 -0.071 -0.357
   - k =   0.264 -0.071 -0.357
   - k =   0.245 -0.071 -0.357
   - k =   0.227 -0.071 -0.357
   - k =   0.209 -0.071 -0.357
   - k =   0.191 -0.071 -0.357
   - k =   0.173 -0.071 -0.357
   - k =   0.155 -0.071 -0.357
   - k =   0.136 -0.071 -0.357
   - k =   0.118 -0.071 -0.357
   - k =   0.100 -0.071 -0.357
   - k =   0.082 -0.071 -0.357
   - k =   0.064 -0.071 -0.357
   - k =   0.045 -0.071 -0.357
   - k =   0.027 -0.071 -0.357
   - k =   0.009 -0.071 -0.357
   - k =  -0.009 -0.071 -0.357
   - k =  -0.027 -0.071 -0.357
   - k =  -0.045 -0.071 -0.357
   - k =  -0.064 -0.071 -0.357
   - k =  -0.082 -0.071 -0.357
   - k =  -0.100 -0.071 -0.357
   - k =  -0.118 -0.071 -0.357
   - k =  -0.136 -0.071 -0.357
   - k =  -0.155 -0.071 -0.357
   - k =  -0.173 -0.071 -0.357
   - k =  -0.191 -0.071 -0.357
   - k =  -0.209 -0.071 -0.357
   - k =  -0.227 -0.071 -0.357
   - k =  -0.245 -0.071 -0.357
   - k =  -0.264 -0.071 -0.357
   - k =  -0.282 -0.071 -0.357
   - k =  -0.300 -0.071 -0.357
   - k =  -0.318 -0.071 -0.357
   - k =  -0.336 -0.071 -0.357
   - k =  -0.355 -0.071 -0.357
   - k =  -0.373 -0.071 -0.357
   - k =  -0.391 -0.071 -0.357
   - k =  -0.409 -0.071 -0.357
   - k =  -0.427 -0.071 -0.357
   - k =  -0.445 -0.071 -0.357
   - k =  -0.464 -0.071 -0.357
   - k =  -0.482 -0.071 -0.357
   - k =  -0.500 -0.071 -0.357

  |-> Computing Wannier center evolution at k-point number:     26

  Treating all   56 k-points in band plot segment #  27:
   Sampling over :
   - k =   0.500 -0.071 -0.214
   - k =   0.482 -0.071 -0.214
   - k =   0.464 -0.071 -0.214
   - k =   0.445 -0.071 -0.214
   - k =   0.427 -0.071 -0.214
   - k =   0.409 -0.071 -0.214
   - k =   0.391 -0.071 -0.214
   - k =   0.373 -0.071 -0.214
   - k =   0.355 -0.071 -0.214
   - k =   0.336 -0.071 -0.214
   - k =   0.318 -0.071 -0.214
   - k =   0.300 -0.071 -0.214
   - k =   0.282 -0.071 -0.214
   - k =   0.264 -0.071 -0.214
   - k =   0.245 -0.071 -0.214
   - k =   0.227 -0.071 -0.214
   - k =   0.209 -0.071 -0.214
   - k =   0.191 -0.071 -0.214
   - k =   0.173 -0.071 -0.214
   - k =   0.155 -0.071 -0.214
   - k =   0.136 -0.071 -0.214
   - k =   0.118 -0.071 -0.214
   - k =   0.100 -0.071 -0.214
   - k =   0.082 -0.071 -0.214
   - k =   0.064 -0.071 -0.214
   - k =   0.045 -0.071 -0.214
   - k =   0.027 -0.071 -0.214
   - k =   0.009 -0.071 -0.214
   - k =  -0.009 -0.071 -0.214
   - k =  -0.027 -0.071 -0.214
   - k =  -0.045 -0.071 -0.214
   - k =  -0.064 -0.071 -0.214
   - k =  -0.082 -0.071 -0.214
   - k =  -0.100 -0.071 -0.214
   - k =  -0.118 -0.071 -0.214
   - k =  -0.136 -0.071 -0.214
   - k =  -0.155 -0.071 -0.214
   - k =  -0.173 -0.071 -0.214
   - k =  -0.191 -0.071 -0.214
   - k =  -0.209 -0.071 -0.214
   - k =  -0.227 -0.071 -0.214
   - k =  -0.245 -0.071 -0.214
   - k =  -0.264 -0.071 -0.214
   - k =  -0.282 -0.071 -0.214
   - k =  -0.300 -0.071 -0.214
   - k =  -0.318 -0.071 -0.214
   - k =  -0.336 -0.071 -0.214
   - k =  -0.355 -0.071 -0.214
   - k =  -0.373 -0.071 -0.214
   - k =  -0.391 -0.071 -0.214
   - k =  -0.409 -0.071 -0.214
   - k =  -0.427 -0.071 -0.214
   - k =  -0.445 -0.071 -0.214
   - k =  -0.464 -0.071 -0.214
   - k =  -0.482 -0.071 -0.214
   - k =  -0.500 -0.071 -0.214

  |-> Computing Wannier center evolution at k-point number:     27

  Treating all   56 k-points in band plot segment #  28:
   Sampling over :
   - k =   0.500 -0.071 -0.071
   - k =   0.482 -0.071 -0.071
   - k =   0.464 -0.071 -0.071
   - k =   0.445 -0.071 -0.071
   - k =   0.427 -0.071 -0.071
   - k =   0.409 -0.071 -0.071
   - k =   0.391 -0.071 -0.071
   - k =   0.373 -0.071 -0.071
   - k =   0.355 -0.071 -0.071
   - k =   0.336 -0.071 -0.071
   - k =   0.318 -0.071 -0.071
   - k =   0.300 -0.071 -0.071
   - k =   0.282 -0.071 -0.071
   - k =   0.264 -0.071 -0.071
   - k =   0.245 -0.071 -0.071
   - k =   0.227 -0.071 -0.071
   - k =   0.209 -0.071 -0.071
   - k =   0.191 -0.071 -0.071
   - k =   0.173 -0.071 -0.071
   - k =   0.155 -0.071 -0.071
   - k =   0.136 -0.071 -0.071
   - k =   0.118 -0.071 -0.071
   - k =   0.100 -0.071 -0.071
   - k =   0.082 -0.071 -0.071
   - k =   0.064 -0.071 -0.071
   - k =   0.045 -0.071 -0.071
   - k =   0.027 -0.071 -0.071
   - k =   0.009 -0.071 -0.071
   - k =  -0.009 -0.071 -0.071
   - k =  -0.027 -0.071 -0.071
   - k =  -0.045 -0.071 -0.071
   - k =  -0.064 -0.071 -0.071
   - k =  -0.082 -0.071 -0.071
   - k =  -0.100 -0.071 -0.071
   - k =  -0.118 -0.071 -0.071
   - k =  -0.136 -0.071 -0.071
   - k =  -0.155 -0.071 -0.071
   - k =  -0.173 -0.071 -0.071
   - k =  -0.191 -0.071 -0.071
   - k =  -0.209 -0.071 -0.071
   - k =  -0.227 -0.071 -0.071
   - k =  -0.245 -0.071 -0.071
   - k =  -0.264 -0.071 -0.071
   - k =  -0.282 -0.071 -0.071
   - k =  -0.300 -0.071 -0.071
   - k =  -0.318 -0.071 -0.071
   - k =  -0.336 -0.071 -0.071
   - k =  -0.355 -0.071 -0.071
   - k =  -0.373 -0.071 -0.071
   - k =  -0.391 -0.071 -0.071
   - k =  -0.409 -0.071 -0.071
   - k =  -0.427 -0.071 -0.071
   - k =  -0.445 -0.071 -0.071
   - k =  -0.464 -0.071 -0.071
   - k =  -0.482 -0.071 -0.071
   - k =  -0.500 -0.071 -0.071

  |-> Computing Wannier center evolution at k-point number:     28

  Treating all   56 k-points in band plot segment #  29:
   Sampling over :
   - k =   0.500 -0.071  0.071
   - k =   0.482 -0.071  0.071
   - k =   0.464 -0.071  0.071
   - k =   0.445 -0.071  0.071
   - k =   0.427 -0.071  0.071
   - k =   0.409 -0.071  0.071
   - k =   0.391 -0.071  0.071
   - k =   0.373 -0.071  0.071
   - k =   0.355 -0.071  0.071
   - k =   0.336 -0.071  0.071
   - k =   0.318 -0.071  0.071
   - k =   0.300 -0.071  0.071
   - k =   0.282 -0.071  0.071
   - k =   0.264 -0.071  0.071
   - k =   0.245 -0.071  0.071
   - k =   0.227 -0.071  0.071
   - k =   0.209 -0.071  0.071
   - k =   0.191 -0.071  0.071
   - k =   0.173 -0.071  0.071
   - k =   0.155 -0.071  0.071
   - k =   0.136 -0.071  0.071
   - k =   0.118 -0.071  0.071
   - k =   0.100 -0.071  0.071
   - k =   0.082 -0.071  0.071
   - k =   0.064 -0.071  0.071
   - k =   0.045 -0.071  0.071
   - k =   0.027 -0.071  0.071
   - k =   0.009 -0.071  0.071
   - k =  -0.009 -0.071  0.071
   - k =  -0.027 -0.071  0.071
   - k =  -0.045 -0.071  0.071
   - k =  -0.064 -0.071  0.071
   - k =  -0.082 -0.071  0.071
   - k =  -0.100 -0.071  0.071
   - k =  -0.118 -0.071  0.071
   - k =  -0.136 -0.071  0.071
   - k =  -0.155 -0.071  0.071
   - k =  -0.173 -0.071  0.071
   - k =  -0.191 -0.071  0.071
   - k =  -0.209 -0.071  0.071
   - k =  -0.227 -0.071  0.071
   - k =  -0.245 -0.071  0.071
   - k =  -0.264 -0.071  0.071
   - k =  -0.282 -0.071  0.071
   - k =  -0.300 -0.071  0.071
   - k =  -0.318 -0.071  0.071
   - k =  -0.336 -0.071  0.071
   - k =  -0.355 -0.071  0.071
   - k =  -0.373 -0.071  0.071
   - k =  -0.391 -0.071  0.071
   - k =  -0.409 -0.071  0.071
   - k =  -0.427 -0.071  0.071
   - k =  -0.445 -0.071  0.071
   - k =  -0.464 -0.071  0.071
   - k =  -0.482 -0.071  0.071
   - k =  -0.500 -0.071  0.071

  |-> Computing Wannier center evolution at k-point number:     29

  Treating all   56 k-points in band plot segment #  30:
   Sampling over :
   - k =   0.500 -0.071  0.214
   - k =   0.482 -0.071  0.214
   - k =   0.464 -0.071  0.214
   - k =   0.445 -0.071  0.214
   - k =   0.427 -0.071  0.214
   - k =   0.409 -0.071  0.214
   - k =   0.391 -0.071  0.214
   - k =   0.373 -0.071  0.214
   - k =   0.355 -0.071  0.214
   - k =   0.336 -0.071  0.214
   - k =   0.318 -0.071  0.214
   - k =   0.300 -0.071  0.214
   - k =   0.282 -0.071  0.214
   - k =   0.264 -0.071  0.214
   - k =   0.245 -0.071  0.214
   - k =   0.227 -0.071  0.214
   - k =   0.209 -0.071  0.214
   - k =   0.191 -0.071  0.214
   - k =   0.173 -0.071  0.214
   - k =   0.155 -0.071  0.214
   - k =   0.136 -0.071  0.214
   - k =   0.118 -0.071  0.214
   - k =   0.100 -0.071  0.214
   - k =   0.082 -0.071  0.214
   - k =   0.064 -0.071  0.214
   - k =   0.045 -0.071  0.214
   - k =   0.027 -0.071  0.214
   - k =   0.009 -0.071  0.214
   - k =  -0.009 -0.071  0.214
   - k =  -0.027 -0.071  0.214
   - k =  -0.045 -0.071  0.214
   - k =  -0.064 -0.071  0.214
   - k =  -0.082 -0.071  0.214
   - k =  -0.100 -0.071  0.214
   - k =  -0.118 -0.071  0.214
   - k =  -0.136 -0.071  0.214
   - k =  -0.155 -0.071  0.214
   - k =  -0.173 -0.071  0.214
   - k =  -0.191 -0.071  0.214
   - k =  -0.209 -0.071  0.214
   - k =  -0.227 -0.071  0.214
   - k =  -0.245 -0.071  0.214
   - k =  -0.264 -0.071  0.214
   - k =  -0.282 -0.071  0.214
   - k =  -0.300 -0.071  0.214
   - k =  -0.318 -0.071  0.214
   - k =  -0.336 -0.071  0.214
   - k =  -0.355 -0.071  0.214
   - k =  -0.373 -0.071  0.214
   - k =  -0.391 -0.071  0.214
   - k =  -0.409 -0.071  0.214
   - k =  -0.427 -0.071  0.214
   - k =  -0.445 -0.071  0.214
   - k =  -0.464 -0.071  0.214
   - k =  -0.482 -0.071  0.214
   - k =  -0.500 -0.071  0.214

  |-> Computing Wannier center evolution at k-point number:     30

  Treating all   56 k-points in band plot segment #  31:
   Sampling over :
   - k =   0.500 -0.071  0.357
   - k =   0.482 -0.071  0.357
   - k =   0.464 -0.071  0.357
   - k =   0.445 -0.071  0.357
   - k =   0.427 -0.071  0.357
   - k =   0.409 -0.071  0.357
   - k =   0.391 -0.071  0.357
   - k =   0.373 -0.071  0.357
   - k =   0.355 -0.071  0.357
   - k =   0.336 -0.071  0.357
   - k =   0.318 -0.071  0.357
   - k =   0.300 -0.071  0.357
   - k =   0.282 -0.071  0.357
   - k =   0.264 -0.071  0.357
   - k =   0.245 -0.071  0.357
   - k =   0.227 -0.071  0.357
   - k =   0.209 -0.071  0.357
   - k =   0.191 -0.071  0.357
   - k =   0.173 -0.071  0.357
   - k =   0.155 -0.071  0.357
   - k =   0.136 -0.071  0.357
   - k =   0.118 -0.071  0.357
   - k =   0.100 -0.071  0.357
   - k =   0.082 -0.071  0.357
   - k =   0.064 -0.071  0.357
   - k =   0.045 -0.071  0.357
   - k =   0.027 -0.071  0.357
   - k =   0.009 -0.071  0.357
   - k =  -0.009 -0.071  0.357
   - k =  -0.027 -0.071  0.357
   - k =  -0.045 -0.071  0.357
   - k =  -0.064 -0.071  0.357
   - k =  -0.082 -0.071  0.357
   - k =  -0.100 -0.071  0.357
   - k =  -0.118 -0.071  0.357
   - k =  -0.136 -0.071  0.357
   - k =  -0.155 -0.071  0.357
   - k =  -0.173 -0.071  0.357
   - k =  -0.191 -0.071  0.357
   - k =  -0.209 -0.071  0.357
   - k =  -0.227 -0.071  0.357
   - k =  -0.245 -0.071  0.357
   - k =  -0.264 -0.071  0.357
   - k =  -0.282 -0.071  0.357
   - k =  -0.300 -0.071  0.357
   - k =  -0.318 -0.071  0.357
   - k =  -0.336 -0.071  0.357
   - k =  -0.355 -0.071  0.357
   - k =  -0.373 -0.071  0.357
   - k =  -0.391 -0.071  0.357
   - k =  -0.409 -0.071  0.357
   - k =  -0.427 -0.071  0.357
   - k =  -0.445 -0.071  0.357
   - k =  -0.464 -0.071  0.357
   - k =  -0.482 -0.071  0.357
   - k =  -0.500 -0.071  0.357

  |-> Computing Wannier center evolution at k-point number:     31

  Treating all   56 k-points in band plot segment #  32:
   Sampling over :
   - k =   0.500 -0.071  0.500
   - k =   0.482 -0.071  0.500
   - k =   0.464 -0.071  0.500
   - k =   0.445 -0.071  0.500
   - k =   0.427 -0.071  0.500
   - k =   0.409 -0.071  0.500
   - k =   0.391 -0.071  0.500
   - k =   0.373 -0.071  0.500
   - k =   0.355 -0.071  0.500
   - k =   0.336 -0.071  0.500
   - k =   0.318 -0.071  0.500
   - k =   0.300 -0.071  0.500
   - k =   0.282 -0.071  0.500
   - k =   0.264 -0.071  0.500
   - k =   0.245 -0.071  0.500
   - k =   0.227 -0.071  0.500
   - k =   0.209 -0.071  0.500
   - k =   0.191 -0.071  0.500
   - k =   0.173 -0.071  0.500
   - k =   0.155 -0.071  0.500
   - k =   0.136 -0.071  0.500
   - k =   0.118 -0.071  0.500
   - k =   0.100 -0.071  0.500
   - k =   0.082 -0.071  0.500
   - k =   0.064 -0.071  0.500
   - k =   0.045 -0.071  0.500
   - k =   0.027 -0.071  0.500
   - k =   0.009 -0.071  0.500
   - k =  -0.009 -0.071  0.500
   - k =  -0.027 -0.071  0.500
   - k =  -0.045 -0.071  0.500
   - k =  -0.064 -0.071  0.500
   - k =  -0.082 -0.071  0.500
   - k =  -0.100 -0.071  0.500
   - k =  -0.118 -0.071  0.500
   - k =  -0.136 -0.071  0.500
   - k =  -0.155 -0.071  0.500
   - k =  -0.173 -0.071  0.500
   - k =  -0.191 -0.071  0.500
   - k =  -0.209 -0.071  0.500
   - k =  -0.227 -0.071  0.500
   - k =  -0.245 -0.071  0.500
   - k =  -0.264 -0.071  0.500
   - k =  -0.282 -0.071  0.500
   - k =  -0.300 -0.071  0.500
   - k =  -0.318 -0.071  0.500
   - k =  -0.336 -0.071  0.500
   - k =  -0.355 -0.071  0.500
   - k =  -0.373 -0.071  0.500
   - k =  -0.391 -0.071  0.500
   - k =  -0.409 -0.071  0.500
   - k =  -0.427 -0.071  0.500
   - k =  -0.445 -0.071  0.500
   - k =  -0.464 -0.071  0.500
   - k =  -0.482 -0.071  0.500
   - k =  -0.500 -0.071  0.500

  |-> Computing Wannier center evolution at k-point number:     32

  Treating all   56 k-points in band plot segment #  33:
   Sampling over :
   - k =   0.500  0.071 -0.500
   - k =   0.482  0.071 -0.500
   - k =   0.464  0.071 -0.500
   - k =   0.445  0.071 -0.500
   - k =   0.427  0.071 -0.500
   - k =   0.409  0.071 -0.500
   - k =   0.391  0.071 -0.500
   - k =   0.373  0.071 -0.500
   - k =   0.355  0.071 -0.500
   - k =   0.336  0.071 -0.500
   - k =   0.318  0.071 -0.500
   - k =   0.300  0.071 -0.500
   - k =   0.282  0.071 -0.500
   - k =   0.264  0.071 -0.500
   - k =   0.245  0.071 -0.500
   - k =   0.227  0.071 -0.500
   - k =   0.209  0.071 -0.500
   - k =   0.191  0.071 -0.500
   - k =   0.173  0.071 -0.500
   - k =   0.155  0.071 -0.500
   - k =   0.136  0.071 -0.500
   - k =   0.118  0.071 -0.500
   - k =   0.100  0.071 -0.500
   - k =   0.082  0.071 -0.500
   - k =   0.064  0.071 -0.500
   - k =   0.045  0.071 -0.500
   - k =   0.027  0.071 -0.500
   - k =   0.009  0.071 -0.500
   - k =  -0.009  0.071 -0.500
   - k =  -0.027  0.071 -0.500
   - k =  -0.045  0.071 -0.500
   - k =  -0.064  0.071 -0.500
   - k =  -0.082  0.071 -0.500
   - k =  -0.100  0.071 -0.500
   - k =  -0.118  0.071 -0.500
   - k =  -0.136  0.071 -0.500
   - k =  -0.155  0.071 -0.500
   - k =  -0.173  0.071 -0.500
   - k =  -0.191  0.071 -0.500
   - k =  -0.209  0.071 -0.500
   - k =  -0.227  0.071 -0.500
   - k =  -0.245  0.071 -0.500
   - k =  -0.264  0.071 -0.500
   - k =  -0.282  0.071 -0.500
   - k =  -0.300  0.071 -0.500
   - k =  -0.318  0.071 -0.500
   - k =  -0.336  0.071 -0.500
   - k =  -0.355  0.071 -0.500
   - k =  -0.373  0.071 -0.500
   - k =  -0.391  0.071 -0.500
   - k =  -0.409  0.071 -0.500
   - k =  -0.427  0.071 -0.500
   - k =  -0.445  0.071 -0.500
   - k =  -0.464  0.071 -0.500
   - k =  -0.482  0.071 -0.500
   - k =  -0.500  0.071 -0.500

  |-> Computing Wannier center evolution at k-point number:     33

  Treating all   56 k-points in band plot segment #  34:
   Sampling over :
   - k =   0.500  0.071 -0.357
   - k =   0.482  0.071 -0.357
   - k =   0.464  0.071 -0.357
   - k =   0.445  0.071 -0.357
   - k =   0.427  0.071 -0.357
   - k =   0.409  0.071 -0.357
   - k =   0.391  0.071 -0.357
   - k =   0.373  0.071 -0.357
   - k =   0.355  0.071 -0.357
   - k =   0.336  0.071 -0.357
   - k =   0.318  0.071 -0.357
   - k =   0.300  0.071 -0.357
   - k =   0.282  0.071 -0.357
   - k =   0.264  0.071 -0.357
   - k =   0.245  0.071 -0.357
   - k =   0.227  0.071 -0.357
   - k =   0.209  0.071 -0.357
   - k =   0.191  0.071 -0.357
   - k =   0.173  0.071 -0.357
   - k =   0.155  0.071 -0.357
   - k =   0.136  0.071 -0.357
   - k =   0.118  0.071 -0.357
   - k =   0.100  0.071 -0.357
   - k =   0.082  0.071 -0.357
   - k =   0.064  0.071 -0.357
   - k =   0.045  0.071 -0.357
   - k =   0.027  0.071 -0.357
   - k =   0.009  0.071 -0.357
   - k =  -0.009  0.071 -0.357
   - k =  -0.027  0.071 -0.357
   - k =  -0.045  0.071 -0.357
   - k =  -0.064  0.071 -0.357
   - k =  -0.082  0.071 -0.357
   - k =  -0.100  0.071 -0.357
   - k =  -0.118  0.071 -0.357
   - k =  -0.136  0.071 -0.357
   - k =  -0.155  0.071 -0.357
   - k =  -0.173  0.071 -0.357
   - k =  -0.191  0.071 -0.357
   - k =  -0.209  0.071 -0.357
   - k =  -0.227  0.071 -0.357
   - k =  -0.245  0.071 -0.357
   - k =  -0.264  0.071 -0.357
   - k =  -0.282  0.071 -0.357
   - k =  -0.300  0.071 -0.357
   - k =  -0.318  0.071 -0.357
   - k =  -0.336  0.071 -0.357
   - k =  -0.355  0.071 -0.357
   - k =  -0.373  0.071 -0.357
   - k =  -0.391  0.071 -0.357
   - k =  -0.409  0.071 -0.357
   - k =  -0.427  0.071 -0.357
   - k =  -0.445  0.071 -0.357
   - k =  -0.464  0.071 -0.357
   - k =  -0.482  0.071 -0.357
   - k =  -0.500  0.071 -0.357

  |-> Computing Wannier center evolution at k-point number:     34

  Treating all   56 k-points in band plot segment #  35:
   Sampling over :
   - k =   0.500  0.071 -0.214
   - k =   0.482  0.071 -0.214
   - k =   0.464  0.071 -0.214
   - k =   0.445  0.071 -0.214
   - k =   0.427  0.071 -0.214
   - k =   0.409  0.071 -0.214
   - k =   0.391  0.071 -0.214
   - k =   0.373  0.071 -0.214
   - k =   0.355  0.071 -0.214
   - k =   0.336  0.071 -0.214
   - k =   0.318  0.071 -0.214
   - k =   0.300  0.071 -0.214
   - k =   0.282  0.071 -0.214
   - k =   0.264  0.071 -0.214
   - k =   0.245  0.071 -0.214
   - k =   0.227  0.071 -0.214
   - k =   0.209  0.071 -0.214
   - k =   0.191  0.071 -0.214
   - k =   0.173  0.071 -0.214
   - k =   0.155  0.071 -0.214
   - k =   0.136  0.071 -0.214
   - k =   0.118  0.071 -0.214
   - k =   0.100  0.071 -0.214
   - k =   0.082  0.071 -0.214
   - k =   0.064  0.071 -0.214
   - k =   0.045  0.071 -0.214
   - k =   0.027  0.071 -0.214
   - k =   0.009  0.071 -0.214
   - k =  -0.009  0.071 -0.214
   - k =  -0.027  0.071 -0.214
   - k =  -0.045  0.071 -0.214
   - k =  -0.064  0.071 -0.214
   - k =  -0.082  0.071 -0.214
   - k =  -0.100  0.071 -0.214
   - k =  -0.118  0.071 -0.214
   - k =  -0.136  0.071 -0.214
   - k =  -0.155  0.071 -0.214
   - k =  -0.173  0.071 -0.214
   - k =  -0.191  0.071 -0.214
   - k =  -0.209  0.071 -0.214
   - k =  -0.227  0.071 -0.214
   - k =  -0.245  0.071 -0.214
   - k =  -0.264  0.071 -0.214
   - k =  -0.282  0.071 -0.214
   - k =  -0.300  0.071 -0.214
   - k =  -0.318  0.071 -0.214
   - k =  -0.336  0.071 -0.214
   - k =  -0.355  0.071 -0.214
   - k =  -0.373  0.071 -0.214
   - k =  -0.391  0.071 -0.214
   - k =  -0.409  0.071 -0.214
   - k =  -0.427  0.071 -0.214
   - k =  -0.445  0.071 -0.214
   - k =  -0.464  0.071 -0.214
   - k =  -0.482  0.071 -0.214
   - k =  -0.500  0.071 -0.214

  |-> Computing Wannier center evolution at k-point number:     35

  Treating all   56 k-points in band plot segment #  36:
   Sampling over :
   - k =   0.500  0.071 -0.071
   - k =   0.482  0.071 -0.071
   - k =   0.464  0.071 -0.071
   - k =   0.445  0.071 -0.071
   - k =   0.427  0.071 -0.071
   - k =   0.409  0.071 -0.071
   - k =   0.391  0.071 -0.071
   - k =   0.373  0.071 -0.071
   - k =   0.355  0.071 -0.071
   - k =   0.336  0.071 -0.071
   - k =   0.318  0.071 -0.071
   - k =   0.300  0.071 -0.071
   - k =   0.282  0.071 -0.071
   - k =   0.264  0.071 -0.071
   - k =   0.245  0.071 -0.071
   - k =   0.227  0.071 -0.071
   - k =   0.209  0.071 -0.071
   - k =   0.191  0.071 -0.071
   - k =   0.173  0.071 -0.071
   - k =   0.155  0.071 -0.071
   - k =   0.136  0.071 -0.071
   - k =   0.118  0.071 -0.071
   - k =   0.100  0.071 -0.071
   - k =   0.082  0.071 -0.071
   - k =   0.064  0.071 -0.071
   - k =   0.045  0.071 -0.071
   - k =   0.027  0.071 -0.071
   - k =   0.009  0.071 -0.071
   - k =  -0.009  0.071 -0.071
   - k =  -0.027  0.071 -0.071
   - k =  -0.045  0.071 -0.071
   - k =  -0.064  0.071 -0.071
   - k =  -0.082  0.071 -0.071
   - k =  -0.100  0.071 -0.071
   - k =  -0.118  0.071 -0.071
   - k =  -0.136  0.071 -0.071
   - k =  -0.155  0.071 -0.071
   - k =  -0.173  0.071 -0.071
   - k =  -0.191  0.071 -0.071
   - k =  -0.209  0.071 -0.071
   - k =  -0.227  0.071 -0.071
   - k =  -0.245  0.071 -0.071
   - k =  -0.264  0.071 -0.071
   - k =  -0.282  0.071 -0.071
   - k =  -0.300  0.071 -0.071
   - k =  -0.318  0.071 -0.071
   - k =  -0.336  0.071 -0.071
   - k =  -0.355  0.071 -0.071
   - k =  -0.373  0.071 -0.071
   - k =  -0.391  0.071 -0.071
   - k =  -0.409  0.071 -0.071
   - k =  -0.427  0.071 -0.071
   - k =  -0.445  0.071 -0.071
   - k =  -0.464  0.071 -0.071
   - k =  -0.482  0.071 -0.071
   - k =  -0.500  0.071 -0.071

  |-> Computing Wannier center evolution at k-point number:     36

  Treating all   56 k-points in band plot segment #  37:
   Sampling over :
   - k =   0.500  0.071  0.071
   - k =   0.482  0.071  0.071
   - k =   0.464  0.071  0.071
   - k =   0.445  0.071  0.071
   - k =   0.427  0.071  0.071
   - k =   0.409  0.071  0.071
   - k =   0.391  0.071  0.071
   - k =   0.373  0.071  0.071
   - k =   0.355  0.071  0.071
   - k =   0.336  0.071  0.071
   - k =   0.318  0.071  0.071
   - k =   0.300  0.071  0.071
   - k =   0.282  0.071  0.071
   - k =   0.264  0.071  0.071
   - k =   0.245  0.071  0.071
   - k =   0.227  0.071  0.071
   - k =   0.209  0.071  0.071
   - k =   0.191  0.071  0.071
   - k =   0.173  0.071  0.071
   - k =   0.155  0.071  0.071
   - k =   0.136  0.071  0.071
   - k =   0.118  0.071  0.071
   - k =   0.100  0.071  0.071
   - k =   0.082  0.071  0.071
   - k =   0.064  0.071  0.071
   - k =   0.045  0.071  0.071
   - k =   0.027  0.071  0.071
   - k =   0.009  0.071  0.071
   - k =  -0.009  0.071  0.071
   - k =  -0.027  0.071  0.071
   - k =  -0.045  0.071  0.071
   - k =  -0.064  0.071  0.071
   - k =  -0.082  0.071  0.071
   - k =  -0.100  0.071  0.071
   - k =  -0.118  0.071  0.071
   - k =  -0.136  0.071  0.071
   - k =  -0.155  0.071  0.071
   - k =  -0.173  0.071  0.071
   - k =  -0.191  0.071  0.071
   - k =  -0.209  0.071  0.071
   - k =  -0.227  0.071  0.071
   - k =  -0.245  0.071  0.071
   - k =  -0.264  0.071  0.071
   - k =  -0.282  0.071  0.071
   - k =  -0.300  0.071  0.071
   - k =  -0.318  0.071  0.071
   - k =  -0.336  0.071  0.071
   - k =  -0.355  0.071  0.071
   - k =  -0.373  0.071  0.071
   - k =  -0.391  0.071  0.071
   - k =  -0.409  0.071  0.071
   - k =  -0.427  0.071  0.071
   - k =  -0.445  0.071  0.071
   - k =  -0.464  0.071  0.071
   - k =  -0.482  0.071  0.071
   - k =  -0.500  0.071  0.071

  |-> Computing Wannier center evolution at k-point number:     37

  Treating all   56 k-points in band plot segment #  38:
   Sampling over :
   - k =   0.500  0.071  0.214
   - k =   0.482  0.071  0.214
   - k =   0.464  0.071  0.214
   - k =   0.445  0.071  0.214
   - k =   0.427  0.071  0.214
   - k =   0.409  0.071  0.214
   - k =   0.391  0.071  0.214
   - k =   0.373  0.071  0.214
   - k =   0.355  0.071  0.214
   - k =   0.336  0.071  0.214
   - k =   0.318  0.071  0.214
   - k =   0.300  0.071  0.214
   - k =   0.282  0.071  0.214
   - k =   0.264  0.071  0.214
   - k =   0.245  0.071  0.214
   - k =   0.227  0.071  0.214
   - k =   0.209  0.071  0.214
   - k =   0.191  0.071  0.214
   - k =   0.173  0.071  0.214
   - k =   0.155  0.071  0.214
   - k =   0.136  0.071  0.214
   - k =   0.118  0.071  0.214
   - k =   0.100  0.071  0.214
   - k =   0.082  0.071  0.214
   - k =   0.064  0.071  0.214
   - k =   0.045  0.071  0.214
   - k =   0.027  0.071  0.214
   - k =   0.009  0.071  0.214
   - k =  -0.009  0.071  0.214
   - k =  -0.027  0.071  0.214
   - k =  -0.045  0.071  0.214
   - k =  -0.064  0.071  0.214
   - k =  -0.082  0.071  0.214
   - k =  -0.100  0.071  0.214
   - k =  -0.118  0.071  0.214
   - k =  -0.136  0.071  0.214
   - k =  -0.155  0.071  0.214
   - k =  -0.173  0.071  0.214
   - k =  -0.191  0.071  0.214
   - k =  -0.209  0.071  0.214
   - k =  -0.227  0.071  0.214
   - k =  -0.245  0.071  0.214
   - k =  -0.264  0.071  0.214
   - k =  -0.282  0.071  0.214
   - k =  -0.300  0.071  0.214
   - k =  -0.318  0.071  0.214
   - k =  -0.336  0.071  0.214
   - k =  -0.355  0.071  0.214
   - k =  -0.373  0.071  0.214
   - k =  -0.391  0.071  0.214
   - k =  -0.409  0.071  0.214
   - k =  -0.427  0.071  0.214
   - k =  -0.445  0.071  0.214
   - k =  -0.464  0.071  0.214
   - k =  -0.482  0.071  0.214
   - k =  -0.500  0.071  0.214

  |-> Computing Wannier center evolution at k-point number:     38

  Treating all   56 k-points in band plot segment #  39:
   Sampling over :
   - k =   0.500  0.071  0.357
   - k =   0.482  0.071  0.357
   - k =   0.464  0.071  0.357
   - k =   0.445  0.071  0.357
   - k =   0.427  0.071  0.357
   - k =   0.409  0.071  0.357
   - k =   0.391  0.071  0.357
   - k =   0.373  0.071  0.357
   - k =   0.355  0.071  0.357
   - k =   0.336  0.071  0.357
   - k =   0.318  0.071  0.357
   - k =   0.300  0.071  0.357
   - k =   0.282  0.071  0.357
   - k =   0.264  0.071  0.357
   - k =   0.245  0.071  0.357
   - k =   0.227  0.071  0.357
   - k =   0.209  0.071  0.357
   - k =   0.191  0.071  0.357
   - k =   0.173  0.071  0.357
   - k =   0.155  0.071  0.357
   - k =   0.136  0.071  0.357
   - k =   0.118  0.071  0.357
   - k =   0.100  0.071  0.357
   - k =   0.082  0.071  0.357
   - k =   0.064  0.071  0.357
   - k =   0.045  0.071  0.357
   - k =   0.027  0.071  0.357
   - k =   0.009  0.071  0.357
   - k =  -0.009  0.071  0.357
   - k =  -0.027  0.071  0.357
   - k =  -0.045  0.071  0.357
   - k =  -0.064  0.071  0.357
   - k =  -0.082  0.071  0.357
   - k =  -0.100  0.071  0.357
   - k =  -0.118  0.071  0.357
   - k =  -0.136  0.071  0.357
   - k =  -0.155  0.071  0.357
   - k =  -0.173  0.071  0.357
   - k =  -0.191  0.071  0.357
   - k =  -0.209  0.071  0.357
   - k =  -0.227  0.071  0.357
   - k =  -0.245  0.071  0.357
   - k =  -0.264  0.071  0.357
   - k =  -0.282  0.071  0.357
   - k =  -0.300  0.071  0.357
   - k =  -0.318  0.071  0.357
   - k =  -0.336  0.071  0.357
   - k =  -0.355  0.071  0.357
   - k =  -0.373  0.071  0.357
   - k =  -0.391  0.071  0.357
   - k =  -0.409  0.071  0.357
   - k =  -0.427  0.071  0.357
   - k =  -0.445  0.071  0.357
   - k =  -0.464  0.071  0.357
   - k =  -0.482  0.071  0.357
   - k =  -0.500  0.071  0.357

  |-> Computing Wannier center evolution at k-point number:     39

  Treating all   56 k-points in band plot segment #  40:
   Sampling over :
   - k =   0.500  0.071  0.500
   - k =   0.482  0.071  0.500
   - k =   0.464  0.071  0.500
   - k =   0.445  0.071  0.500
   - k =   0.427  0.071  0.500
   - k =   0.409  0.071  0.500
   - k =   0.391  0.071  0.500
   - k =   0.373  0.071  0.500
   - k =   0.355  0.071  0.500
   - k =   0.336  0.071  0.500
   - k =   0.318  0.071  0.500
   - k =   0.300  0.071  0.500
   - k =   0.282  0.071  0.500
   - k =   0.264  0.071  0.500
   - k =   0.245  0.071  0.500
   - k =   0.227  0.071  0.500
   - k =   0.209  0.071  0.500
   - k =   0.191  0.071  0.500
   - k =   0.173  0.071  0.500
   - k =   0.155  0.071  0.500
   - k =   0.136  0.071  0.500
   - k =   0.118  0.071  0.500
   - k =   0.100  0.071  0.500
   - k =   0.082  0.071  0.500
   - k =   0.064  0.071  0.500
   - k =   0.045  0.071  0.500
   - k =   0.027  0.071  0.500
   - k =   0.009  0.071  0.500
   - k =  -0.009  0.071  0.500
   - k =  -0.027  0.071  0.500
   - k =  -0.045  0.071  0.500
   - k =  -0.064  0.071  0.500
   - k =  -0.082  0.071  0.500
   - k =  -0.100  0.071  0.500
   - k =  -0.118  0.071  0.500
   - k =  -0.136  0.071  0.500
   - k =  -0.155  0.071  0.500
   - k =  -0.173  0.071  0.500
   - k =  -0.191  0.071  0.500
   - k =  -0.209  0.071  0.500
   - k =  -0.227  0.071  0.500
   - k =  -0.245  0.071  0.500
   - k =  -0.264  0.071  0.500
   - k =  -0.282  0.071  0.500
   - k =  -0.300  0.071  0.500
   - k =  -0.318  0.071  0.500
   - k =  -0.336  0.071  0.500
   - k =  -0.355  0.071  0.500
   - k =  -0.373  0.071  0.500
   - k =  -0.391  0.071  0.500
   - k =  -0.409  0.071  0.500
   - k =  -0.427  0.071  0.500
   - k =  -0.445  0.071  0.500
   - k =  -0.464  0.071  0.500
   - k =  -0.482  0.071  0.500
   - k =  -0.500  0.071  0.500

  |-> Computing Wannier center evolution at k-point number:     40

  Treating all   56 k-points in band plot segment #  41:
   Sampling over :
   - k =   0.500  0.214 -0.500
   - k =   0.482  0.214 -0.500
   - k =   0.464  0.214 -0.500
   - k =   0.445  0.214 -0.500
   - k =   0.427  0.214 -0.500
   - k =   0.409  0.214 -0.500
   - k =   0.391  0.214 -0.500
   - k =   0.373  0.214 -0.500
   - k =   0.355  0.214 -0.500
   - k =   0.336  0.214 -0.500
   - k =   0.318  0.214 -0.500
   - k =   0.300  0.214 -0.500
   - k =   0.282  0.214 -0.500
   - k =   0.264  0.214 -0.500
   - k =   0.245  0.214 -0.500
   - k =   0.227  0.214 -0.500
   - k =   0.209  0.214 -0.500
   - k =   0.191  0.214 -0.500
   - k =   0.173  0.214 -0.500
   - k =   0.155  0.214 -0.500
   - k =   0.136  0.214 -0.500
   - k =   0.118  0.214 -0.500
   - k =   0.100  0.214 -0.500
   - k =   0.082  0.214 -0.500
   - k =   0.064  0.214 -0.500
   - k =   0.045  0.214 -0.500
   - k =   0.027  0.214 -0.500
   - k =   0.009  0.214 -0.500
   - k =  -0.009  0.214 -0.500
   - k =  -0.027  0.214 -0.500
   - k =  -0.045  0.214 -0.500
   - k =  -0.064  0.214 -0.500
   - k =  -0.082  0.214 -0.500
   - k =  -0.100  0.214 -0.500
   - k =  -0.118  0.214 -0.500
   - k =  -0.136  0.214 -0.500
   - k =  -0.155  0.214 -0.500
   - k =  -0.173  0.214 -0.500
   - k =  -0.191  0.214 -0.500
   - k =  -0.209  0.214 -0.500
   - k =  -0.227  0.214 -0.500
   - k =  -0.245  0.214 -0.500
   - k =  -0.264  0.214 -0.500
   - k =  -0.282  0.214 -0.500
   - k =  -0.300  0.214 -0.500
   - k =  -0.318  0.214 -0.500
   - k =  -0.336  0.214 -0.500
   - k =  -0.355  0.214 -0.500
   - k =  -0.373  0.214 -0.500
   - k =  -0.391  0.214 -0.500
   - k =  -0.409  0.214 -0.500
   - k =  -0.427  0.214 -0.500
   - k =  -0.445  0.214 -0.500
   - k =  -0.464  0.214 -0.500
   - k =  -0.482  0.214 -0.500
   - k =  -0.500  0.214 -0.500

  |-> Computing Wannier center evolution at k-point number:     41

  Treating all   56 k-points in band plot segment #  42:
   Sampling over :
   - k =   0.500  0.214 -0.357
   - k =   0.482  0.214 -0.357
   - k =   0.464  0.214 -0.357
   - k =   0.445  0.214 -0.357
   - k =   0.427  0.214 -0.357
   - k =   0.409  0.214 -0.357
   - k =   0.391  0.214 -0.357
   - k =   0.373  0.214 -0.357
   - k =   0.355  0.214 -0.357
   - k =   0.336  0.214 -0.357
   - k =   0.318  0.214 -0.357
   - k =   0.300  0.214 -0.357
   - k =   0.282  0.214 -0.357
   - k =   0.264  0.214 -0.357
   - k =   0.245  0.214 -0.357
   - k =   0.227  0.214 -0.357
   - k =   0.209  0.214 -0.357
   - k =   0.191  0.214 -0.357
   - k =   0.173  0.214 -0.357
   - k =   0.155  0.214 -0.357
   - k =   0.136  0.214 -0.357
   - k =   0.118  0.214 -0.357
   - k =   0.100  0.214 -0.357
   - k =   0.082  0.214 -0.357
   - k =   0.064  0.214 -0.357
   - k =   0.045  0.214 -0.357
   - k =   0.027  0.214 -0.357
   - k =   0.009  0.214 -0.357
   - k =  -0.009  0.214 -0.357
   - k =  -0.027  0.214 -0.357
   - k =  -0.045  0.214 -0.357
   - k =  -0.064  0.214 -0.357
   - k =  -0.082  0.214 -0.357
   - k =  -0.100  0.214 -0.357
   - k =  -0.118  0.214 -0.357
   - k =  -0.136  0.214 -0.357
   - k =  -0.155  0.214 -0.357
   - k =  -0.173  0.214 -0.357
   - k =  -0.191  0.214 -0.357
   - k =  -0.209  0.214 -0.357
   - k =  -0.227  0.214 -0.357
   - k =  -0.245  0.214 -0.357
   - k =  -0.264  0.214 -0.357
   - k =  -0.282  0.214 -0.357
   - k =  -0.300  0.214 -0.357
   - k =  -0.318  0.214 -0.357
   - k =  -0.336  0.214 -0.357
   - k =  -0.355  0.214 -0.357
   - k =  -0.373  0.214 -0.357
   - k =  -0.391  0.214 -0.357
   - k =  -0.409  0.214 -0.357
   - k =  -0.427  0.214 -0.357
   - k =  -0.445  0.214 -0.357
   - k =  -0.464  0.214 -0.357
   - k =  -0.482  0.214 -0.357
   - k =  -0.500  0.214 -0.357

  |-> Computing Wannier center evolution at k-point number:     42

  Treating all   56 k-points in band plot segment #  43:
   Sampling over :
   - k =   0.500  0.214 -0.214
   - k =   0.482  0.214 -0.214
   - k =   0.464  0.214 -0.214
   - k =   0.445  0.214 -0.214
   - k =   0.427  0.214 -0.214
   - k =   0.409  0.214 -0.214
   - k =   0.391  0.214 -0.214
   - k =   0.373  0.214 -0.214
   - k =   0.355  0.214 -0.214
   - k =   0.336  0.214 -0.214
   - k =   0.318  0.214 -0.214
   - k =   0.300  0.214 -0.214
   - k =   0.282  0.214 -0.214
   - k =   0.264  0.214 -0.214
   - k =   0.245  0.214 -0.214
   - k =   0.227  0.214 -0.214
   - k =   0.209  0.214 -0.214
   - k =   0.191  0.214 -0.214
   - k =   0.173  0.214 -0.214
   - k =   0.155  0.214 -0.214
   - k =   0.136  0.214 -0.214
   - k =   0.118  0.214 -0.214
   - k =   0.100  0.214 -0.214
   - k =   0.082  0.214 -0.214
   - k =   0.064  0.214 -0.214
   - k =   0.045  0.214 -0.214
   - k =   0.027  0.214 -0.214
   - k =   0.009  0.214 -0.214
   - k =  -0.009  0.214 -0.214
   - k =  -0.027  0.214 -0.214
   - k =  -0.045  0.214 -0.214
   - k =  -0.064  0.214 -0.214
   - k =  -0.082  0.214 -0.214
   - k =  -0.100  0.214 -0.214
   - k =  -0.118  0.214 -0.214
   - k =  -0.136  0.214 -0.214
   - k =  -0.155  0.214 -0.214
   - k =  -0.173  0.214 -0.214
   - k =  -0.191  0.214 -0.214
   - k =  -0.209  0.214 -0.214
   - k =  -0.227  0.214 -0.214
   - k =  -0.245  0.214 -0.214
   - k =  -0.264  0.214 -0.214
   - k =  -0.282  0.214 -0.214
   - k =  -0.300  0.214 -0.214
   - k =  -0.318  0.214 -0.214
   - k =  -0.336  0.214 -0.214
   - k =  -0.355  0.214 -0.214
   - k =  -0.373  0.214 -0.214
   - k =  -0.391  0.214 -0.214
   - k =  -0.409  0.214 -0.214
   - k =  -0.427  0.214 -0.214
   - k =  -0.445  0.214 -0.214
   - k =  -0.464  0.214 -0.214
   - k =  -0.482  0.214 -0.214
   - k =  -0.500  0.214 -0.214

  |-> Computing Wannier center evolution at k-point number:     43

  Treating all   56 k-points in band plot segment #  44:
   Sampling over :
   - k =   0.500  0.214 -0.071
   - k =   0.482  0.214 -0.071
   - k =   0.464  0.214 -0.071
   - k =   0.445  0.214 -0.071
   - k =   0.427  0.214 -0.071
   - k =   0.409  0.214 -0.071
   - k =   0.391  0.214 -0.071
   - k =   0.373  0.214 -0.071
   - k =   0.355  0.214 -0.071
   - k =   0.336  0.214 -0.071
   - k =   0.318  0.214 -0.071
   - k =   0.300  0.214 -0.071
   - k =   0.282  0.214 -0.071
   - k =   0.264  0.214 -0.071
   - k =   0.245  0.214 -0.071
   - k =   0.227  0.214 -0.071
   - k =   0.209  0.214 -0.071
   - k =   0.191  0.214 -0.071
   - k =   0.173  0.214 -0.071
   - k =   0.155  0.214 -0.071
   - k =   0.136  0.214 -0.071
   - k =   0.118  0.214 -0.071
   - k =   0.100  0.214 -0.071
   - k =   0.082  0.214 -0.071
   - k =   0.064  0.214 -0.071
   - k =   0.045  0.214 -0.071
   - k =   0.027  0.214 -0.071
   - k =   0.009  0.214 -0.071
   - k =  -0.009  0.214 -0.071
   - k =  -0.027  0.214 -0.071
   - k =  -0.045  0.214 -0.071
   - k =  -0.064  0.214 -0.071
   - k =  -0.082  0.214 -0.071
   - k =  -0.100  0.214 -0.071
   - k =  -0.118  0.214 -0.071
   - k =  -0.136  0.214 -0.071
   - k =  -0.155  0.214 -0.071
   - k =  -0.173  0.214 -0.071
   - k =  -0.191  0.214 -0.071
   - k =  -0.209  0.214 -0.071
   - k =  -0.227  0.214 -0.071
   - k =  -0.245  0.214 -0.071
   - k =  -0.264  0.214 -0.071
   - k =  -0.282  0.214 -0.071
   - k =  -0.300  0.214 -0.071
   - k =  -0.318  0.214 -0.071
   - k =  -0.336  0.214 -0.071
   - k =  -0.355  0.214 -0.071
   - k =  -0.373  0.214 -0.071
   - k =  -0.391  0.214 -0.071
   - k =  -0.409  0.214 -0.071
   - k =  -0.427  0.214 -0.071
   - k =  -0.445  0.214 -0.071
   - k =  -0.464  0.214 -0.071
   - k =  -0.482  0.214 -0.071
   - k =  -0.500  0.214 -0.071

  |-> Computing Wannier center evolution at k-point number:     44

  Treating all   56 k-points in band plot segment #  45:
   Sampling over :
   - k =   0.500  0.214  0.071
   - k =   0.482  0.214  0.071
   - k =   0.464  0.214  0.071
   - k =   0.445  0.214  0.071
   - k =   0.427  0.214  0.071
   - k =   0.409  0.214  0.071
   - k =   0.391  0.214  0.071
   - k =   0.373  0.214  0.071
   - k =   0.355  0.214  0.071
   - k =   0.336  0.214  0.071
   - k =   0.318  0.214  0.071
   - k =   0.300  0.214  0.071
   - k =   0.282  0.214  0.071
   - k =   0.264  0.214  0.071
   - k =   0.245  0.214  0.071
   - k =   0.227  0.214  0.071
   - k =   0.209  0.214  0.071
   - k =   0.191  0.214  0.071
   - k =   0.173  0.214  0.071
   - k =   0.155  0.214  0.071
   - k =   0.136  0.214  0.071
   - k =   0.118  0.214  0.071
   - k =   0.100  0.214  0.071
   - k =   0.082  0.214  0.071
   - k =   0.064  0.214  0.071
   - k =   0.045  0.214  0.071
   - k =   0.027  0.214  0.071
   - k =   0.009  0.214  0.071
   - k =  -0.009  0.214  0.071
   - k =  -0.027  0.214  0.071
   - k =  -0.045  0.214  0.071
   - k =  -0.064  0.214  0.071
   - k =  -0.082  0.214  0.071
   - k =  -0.100  0.214  0.071
   - k =  -0.118  0.214  0.071
   - k =  -0.136  0.214  0.071
   - k =  -0.155  0.214  0.071
   - k =  -0.173  0.214  0.071
   - k =  -0.191  0.214  0.071
   - k =  -0.209  0.214  0.071
   - k =  -0.227  0.214  0.071
   - k =  -0.245  0.214  0.071
   - k =  -0.264  0.214  0.071
   - k =  -0.282  0.214  0.071
   - k =  -0.300  0.214  0.071
   - k =  -0.318  0.214  0.071
   - k =  -0.336  0.214  0.071
   - k =  -0.355  0.214  0.071
   - k =  -0.373  0.214  0.071
   - k =  -0.391  0.214  0.071
   - k =  -0.409  0.214  0.071
   - k =  -0.427  0.214  0.071
   - k =  -0.445  0.214  0.071
   - k =  -0.464  0.214  0.071
   - k =  -0.482  0.214  0.071
   - k =  -0.500  0.214  0.071

  |-> Computing Wannier center evolution at k-point number:     45

  Treating all   56 k-points in band plot segment #  46:
   Sampling over :
   - k =   0.500  0.214  0.214
   - k =   0.482  0.214  0.214
   - k =   0.464  0.214  0.214
   - k =   0.445  0.214  0.214
   - k =   0.427  0.214  0.214
   - k =   0.409  0.214  0.214
   - k =   0.391  0.214  0.214
   - k =   0.373  0.214  0.214
   - k =   0.355  0.214  0.214
   - k =   0.336  0.214  0.214
   - k =   0.318  0.214  0.214
   - k =   0.300  0.214  0.214
   - k =   0.282  0.214  0.214
   - k =   0.264  0.214  0.214
   - k =   0.245  0.214  0.214
   - k =   0.227  0.214  0.214
   - k =   0.209  0.214  0.214
   - k =   0.191  0.214  0.214
   - k =   0.173  0.214  0.214
   - k =   0.155  0.214  0.214
   - k =   0.136  0.214  0.214
   - k =   0.118  0.214  0.214
   - k =   0.100  0.214  0.214
   - k =   0.082  0.214  0.214
   - k =   0.064  0.214  0.214
   - k =   0.045  0.214  0.214
   - k =   0.027  0.214  0.214
   - k =   0.009  0.214  0.214
   - k =  -0.009  0.214  0.214
   - k =  -0.027  0.214  0.214
   - k =  -0.045  0.214  0.214
   - k =  -0.064  0.214  0.214
   - k =  -0.082  0.214  0.214
   - k =  -0.100  0.214  0.214
   - k =  -0.118  0.214  0.214
   - k =  -0.136  0.214  0.214
   - k =  -0.155  0.214  0.214
   - k =  -0.173  0.214  0.214
   - k =  -0.191  0.214  0.214
   - k =  -0.209  0.214  0.214
   - k =  -0.227  0.214  0.214
   - k =  -0.245  0.214  0.214
   - k =  -0.264  0.214  0.214
   - k =  -0.282  0.214  0.214
   - k =  -0.300  0.214  0.214
   - k =  -0.318  0.214  0.214
   - k =  -0.336  0.214  0.214
   - k =  -0.355  0.214  0.214
   - k =  -0.373  0.214  0.214
   - k =  -0.391  0.214  0.214
   - k =  -0.409  0.214  0.214
   - k =  -0.427  0.214  0.214
   - k =  -0.445  0.214  0.214
   - k =  -0.464  0.214  0.214
   - k =  -0.482  0.214  0.214
   - k =  -0.500  0.214  0.214

  |-> Computing Wannier center evolution at k-point number:     46

  Treating all   56 k-points in band plot segment #  47:
   Sampling over :
   - k =   0.500  0.214  0.357
   - k =   0.482  0.214  0.357
   - k =   0.464  0.214  0.357
   - k =   0.445  0.214  0.357
   - k =   0.427  0.214  0.357
   - k =   0.409  0.214  0.357
   - k =   0.391  0.214  0.357
   - k =   0.373  0.214  0.357
   - k =   0.355  0.214  0.357
   - k =   0.336  0.214  0.357
   - k =   0.318  0.214  0.357
   - k =   0.300  0.214  0.357
   - k =   0.282  0.214  0.357
   - k =   0.264  0.214  0.357
   - k =   0.245  0.214  0.357
   - k =   0.227  0.214  0.357
   - k =   0.209  0.214  0.357
   - k =   0.191  0.214  0.357
   - k =   0.173  0.214  0.357
   - k =   0.155  0.214  0.357
   - k =   0.136  0.214  0.357
   - k =   0.118  0.214  0.357
   - k =   0.100  0.214  0.357
   - k =   0.082  0.214  0.357
   - k =   0.064  0.214  0.357
   - k =   0.045  0.214  0.357
   - k =   0.027  0.214  0.357
   - k =   0.009  0.214  0.357
   - k =  -0.009  0.214  0.357
   - k =  -0.027  0.214  0.357
   - k =  -0.045  0.214  0.357
   - k =  -0.064  0.214  0.357
   - k =  -0.082  0.214  0.357
   - k =  -0.100  0.214  0.357
   - k =  -0.118  0.214  0.357
   - k =  -0.136  0.214  0.357
   - k =  -0.155  0.214  0.357
   - k =  -0.173  0.214  0.357
   - k =  -0.191  0.214  0.357
   - k =  -0.209  0.214  0.357
   - k =  -0.227  0.214  0.357
   - k =  -0.245  0.214  0.357
   - k =  -0.264  0.214  0.357
   - k =  -0.282  0.214  0.357
   - k =  -0.300  0.214  0.357
   - k =  -0.318  0.214  0.357
   - k =  -0.336  0.214  0.357
   - k =  -0.355  0.214  0.357
   - k =  -0.373  0.214  0.357
   - k =  -0.391  0.214  0.357
   - k =  -0.409  0.214  0.357
   - k =  -0.427  0.214  0.357
   - k =  -0.445  0.214  0.357
   - k =  -0.464  0.214  0.357
   - k =  -0.482  0.214  0.357
   - k =  -0.500  0.214  0.357

  |-> Computing Wannier center evolution at k-point number:     47

  Treating all   56 k-points in band plot segment #  48:
   Sampling over :
   - k =   0.500  0.214  0.500
   - k =   0.482  0.214  0.500
   - k =   0.464  0.214  0.500
   - k =   0.445  0.214  0.500
   - k =   0.427  0.214  0.500
   - k =   0.409  0.214  0.500
   - k =   0.391  0.214  0.500
   - k =   0.373  0.214  0.500
   - k =   0.355  0.214  0.500
   - k =   0.336  0.214  0.500
   - k =   0.318  0.214  0.500
   - k =   0.300  0.214  0.500
   - k =   0.282  0.214  0.500
   - k =   0.264  0.214  0.500
   - k =   0.245  0.214  0.500
   - k =   0.227  0.214  0.500
   - k =   0.209  0.214  0.500
   - k =   0.191  0.214  0.500
   - k =   0.173  0.214  0.500
   - k =   0.155  0.214  0.500
   - k =   0.136  0.214  0.500
   - k =   0.118  0.214  0.500
   - k =   0.100  0.214  0.500
   - k =   0.082  0.214  0.500
   - k =   0.064  0.214  0.500
   - k =   0.045  0.214  0.500
   - k =   0.027  0.214  0.500
   - k =   0.009  0.214  0.500
   - k =  -0.009  0.214  0.500
   - k =  -0.027  0.214  0.500
   - k =  -0.045  0.214  0.500
   - k =  -0.064  0.214  0.500
   - k =  -0.082  0.214  0.500
   - k =  -0.100  0.214  0.500
   - k =  -0.118  0.214  0.500
   - k =  -0.136  0.214  0.500
   - k =  -0.155  0.214  0.500
   - k =  -0.173  0.214  0.500
   - k =  -0.191  0.214  0.500
   - k =  -0.209  0.214  0.500
   - k =  -0.227  0.214  0.500
   - k =  -0.245  0.214  0.500
   - k =  -0.264  0.214  0.500
   - k =  -0.282  0.214  0.500
   - k =  -0.300  0.214  0.500
   - k =  -0.318  0.214  0.500
   - k =  -0.336  0.214  0.500
   - k =  -0.355  0.214  0.500
   - k =  -0.373  0.214  0.500
   - k =  -0.391  0.214  0.500
   - k =  -0.409  0.214  0.500
   - k =  -0.427  0.214  0.500
   - k =  -0.445  0.214  0.500
   - k =  -0.464  0.214  0.500
   - k =  -0.482  0.214  0.500
   - k =  -0.500  0.214  0.500

  |-> Computing Wannier center evolution at k-point number:     48

  Treating all   56 k-points in band plot segment #  49:
   Sampling over :
   - k =   0.500  0.357 -0.500
   - k =   0.482  0.357 -0.500
   - k =   0.464  0.357 -0.500
   - k =   0.445  0.357 -0.500
   - k =   0.427  0.357 -0.500
   - k =   0.409  0.357 -0.500
   - k =   0.391  0.357 -0.500
   - k =   0.373  0.357 -0.500
   - k =   0.355  0.357 -0.500
   - k =   0.336  0.357 -0.500
   - k =   0.318  0.357 -0.500
   - k =   0.300  0.357 -0.500
   - k =   0.282  0.357 -0.500
   - k =   0.264  0.357 -0.500
   - k =   0.245  0.357 -0.500
   - k =   0.227  0.357 -0.500
   - k =   0.209  0.357 -0.500
   - k =   0.191  0.357 -0.500
   - k =   0.173  0.357 -0.500
   - k =   0.155  0.357 -0.500
   - k =   0.136  0.357 -0.500
   - k =   0.118  0.357 -0.500
   - k =   0.100  0.357 -0.500
   - k =   0.082  0.357 -0.500
   - k =   0.064  0.357 -0.500
   - k =   0.045  0.357 -0.500
   - k =   0.027  0.357 -0.500
   - k =   0.009  0.357 -0.500
   - k =  -0.009  0.357 -0.500
   - k =  -0.027  0.357 -0.500
   - k =  -0.045  0.357 -0.500
   - k =  -0.064  0.357 -0.500
   - k =  -0.082  0.357 -0.500
   - k =  -0.100  0.357 -0.500
   - k =  -0.118  0.357 -0.500
   - k =  -0.136  0.357 -0.500
   - k =  -0.155  0.357 -0.500
   - k =  -0.173  0.357 -0.500
   - k =  -0.191  0.357 -0.500
   - k =  -0.209  0.357 -0.500
   - k =  -0.227  0.357 -0.500
   - k =  -0.245  0.357 -0.500
   - k =  -0.264  0.357 -0.500
   - k =  -0.282  0.357 -0.500
   - k =  -0.300  0.357 -0.500
   - k =  -0.318  0.357 -0.500
   - k =  -0.336  0.357 -0.500
   - k =  -0.355  0.357 -0.500
   - k =  -0.373  0.357 -0.500
   - k =  -0.391  0.357 -0.500
   - k =  -0.409  0.357 -0.500
   - k =  -0.427  0.357 -0.500
   - k =  -0.445  0.357 -0.500
   - k =  -0.464  0.357 -0.500
   - k =  -0.482  0.357 -0.500
   - k =  -0.500  0.357 -0.500

  |-> Computing Wannier center evolution at k-point number:     49

  Treating all   56 k-points in band plot segment #  50:
   Sampling over :
   - k =   0.500  0.357 -0.357
   - k =   0.482  0.357 -0.357
   - k =   0.464  0.357 -0.357
   - k =   0.445  0.357 -0.357
   - k =   0.427  0.357 -0.357
   - k =   0.409  0.357 -0.357
   - k =   0.391  0.357 -0.357
   - k =   0.373  0.357 -0.357
   - k =   0.355  0.357 -0.357
   - k =   0.336  0.357 -0.357
   - k =   0.318  0.357 -0.357
   - k =   0.300  0.357 -0.357
   - k =   0.282  0.357 -0.357
   - k =   0.264  0.357 -0.357
   - k =   0.245  0.357 -0.357
   - k =   0.227  0.357 -0.357
   - k =   0.209  0.357 -0.357
   - k =   0.191  0.357 -0.357
   - k =   0.173  0.357 -0.357
   - k =   0.155  0.357 -0.357
   - k =   0.136  0.357 -0.357
   - k =   0.118  0.357 -0.357
   - k =   0.100  0.357 -0.357
   - k =   0.082  0.357 -0.357
   - k =   0.064  0.357 -0.357
   - k =   0.045  0.357 -0.357
   - k =   0.027  0.357 -0.357
   - k =   0.009  0.357 -0.357
   - k =  -0.009  0.357 -0.357
   - k =  -0.027  0.357 -0.357
   - k =  -0.045  0.357 -0.357
   - k =  -0.064  0.357 -0.357
   - k =  -0.082  0.357 -0.357
   - k =  -0.100  0.357 -0.357
   - k =  -0.118  0.357 -0.357
   - k =  -0.136  0.357 -0.357
   - k =  -0.155  0.357 -0.357
   - k =  -0.173  0.357 -0.357
   - k =  -0.191  0.357 -0.357
   - k =  -0.209  0.357 -0.357
   - k =  -0.227  0.357 -0.357
   - k =  -0.245  0.357 -0.357
   - k =  -0.264  0.357 -0.357
   - k =  -0.282  0.357 -0.357
   - k =  -0.300  0.357 -0.357
   - k =  -0.318  0.357 -0.357
   - k =  -0.336  0.357 -0.357
   - k =  -0.355  0.357 -0.357
   - k =  -0.373  0.357 -0.357
   - k =  -0.391  0.357 -0.357
   - k =  -0.409  0.357 -0.357
   - k =  -0.427  0.357 -0.357
   - k =  -0.445  0.357 -0.357
   - k =  -0.464  0.357 -0.357
   - k =  -0.482  0.357 -0.357
   - k =  -0.500  0.357 -0.357

  |-> Computing Wannier center evolution at k-point number:     50

  Treating all   56 k-points in band plot segment #  51:
   Sampling over :
   - k =   0.500  0.357 -0.214
   - k =   0.482  0.357 -0.214
   - k =   0.464  0.357 -0.214
   - k =   0.445  0.357 -0.214
   - k =   0.427  0.357 -0.214
   - k =   0.409  0.357 -0.214
   - k =   0.391  0.357 -0.214
   - k =   0.373  0.357 -0.214
   - k =   0.355  0.357 -0.214
   - k =   0.336  0.357 -0.214
   - k =   0.318  0.357 -0.214
   - k =   0.300  0.357 -0.214
   - k =   0.282  0.357 -0.214
   - k =   0.264  0.357 -0.214
   - k =   0.245  0.357 -0.214
   - k =   0.227  0.357 -0.214
   - k =   0.209  0.357 -0.214
   - k =   0.191  0.357 -0.214
   - k =   0.173  0.357 -0.214
   - k =   0.155  0.357 -0.214
   - k =   0.136  0.357 -0.214
   - k =   0.118  0.357 -0.214
   - k =   0.100  0.357 -0.214
   - k =   0.082  0.357 -0.214
   - k =   0.064  0.357 -0.214
   - k =   0.045  0.357 -0.214
   - k =   0.027  0.357 -0.214
   - k =   0.009  0.357 -0.214
   - k =  -0.009  0.357 -0.214
   - k =  -0.027  0.357 -0.214
   - k =  -0.045  0.357 -0.214
   - k =  -0.064  0.357 -0.214
   - k =  -0.082  0.357 -0.214
   - k =  -0.100  0.357 -0.214
   - k =  -0.118  0.357 -0.214
   - k =  -0.136  0.357 -0.214
   - k =  -0.155  0.357 -0.214
   - k =  -0.173  0.357 -0.214
   - k =  -0.191  0.357 -0.214
   - k =  -0.209  0.357 -0.214
   - k =  -0.227  0.357 -0.214
   - k =  -0.245  0.357 -0.214
   - k =  -0.264  0.357 -0.214
   - k =  -0.282  0.357 -0.214
   - k =  -0.300  0.357 -0.214
   - k =  -0.318  0.357 -0.214
   - k =  -0.336  0.357 -0.214
   - k =  -0.355  0.357 -0.214
   - k =  -0.373  0.357 -0.214
   - k =  -0.391  0.357 -0.214
   - k =  -0.409  0.357 -0.214
   - k =  -0.427  0.357 -0.214
   - k =  -0.445  0.357 -0.214
   - k =  -0.464  0.357 -0.214
   - k =  -0.482  0.357 -0.214
   - k =  -0.500  0.357 -0.214

  |-> Computing Wannier center evolution at k-point number:     51

  Treating all   56 k-points in band plot segment #  52:
   Sampling over :
   - k =   0.500  0.357 -0.071
   - k =   0.482  0.357 -0.071
   - k =   0.464  0.357 -0.071
   - k =   0.445  0.357 -0.071
   - k =   0.427  0.357 -0.071
   - k =   0.409  0.357 -0.071
   - k =   0.391  0.357 -0.071
   - k =   0.373  0.357 -0.071
   - k =   0.355  0.357 -0.071
   - k =   0.336  0.357 -0.071
   - k =   0.318  0.357 -0.071
   - k =   0.300  0.357 -0.071
   - k =   0.282  0.357 -0.071
   - k =   0.264  0.357 -0.071
   - k =   0.245  0.357 -0.071
   - k =   0.227  0.357 -0.071
   - k =   0.209  0.357 -0.071
   - k =   0.191  0.357 -0.071
   - k =   0.173  0.357 -0.071
   - k =   0.155  0.357 -0.071
   - k =   0.136  0.357 -0.071
   - k =   0.118  0.357 -0.071
   - k =   0.100  0.357 -0.071
   - k =   0.082  0.357 -0.071
   - k =   0.064  0.357 -0.071
   - k =   0.045  0.357 -0.071
   - k =   0.027  0.357 -0.071
   - k =   0.009  0.357 -0.071
   - k =  -0.009  0.357 -0.071
   - k =  -0.027  0.357 -0.071
   - k =  -0.045  0.357 -0.071
   - k =  -0.064  0.357 -0.071
   - k =  -0.082  0.357 -0.071
   - k =  -0.100  0.357 -0.071
   - k =  -0.118  0.357 -0.071
   - k =  -0.136  0.357 -0.071
   - k =  -0.155  0.357 -0.071
   - k =  -0.173  0.357 -0.071
   - k =  -0.191  0.357 -0.071
   - k =  -0.209  0.357 -0.071
   - k =  -0.227  0.357 -0.071
   - k =  -0.245  0.357 -0.071
   - k =  -0.264  0.357 -0.071
   - k =  -0.282  0.357 -0.071
   - k =  -0.300  0.357 -0.071
   - k =  -0.318  0.357 -0.071
   - k =  -0.336  0.357 -0.071
   - k =  -0.355  0.357 -0.071
   - k =  -0.373  0.357 -0.071
   - k =  -0.391  0.357 -0.071
   - k =  -0.409  0.357 -0.071
   - k =  -0.427  0.357 -0.071
   - k =  -0.445  0.357 -0.071
   - k =  -0.464  0.357 -0.071
   - k =  -0.482  0.357 -0.071
   - k =  -0.500  0.357 -0.071

  |-> Computing Wannier center evolution at k-point number:     52

  Treating all   56 k-points in band plot segment #  53:
   Sampling over :
   - k =   0.500  0.357  0.071
   - k =   0.482  0.357  0.071
   - k =   0.464  0.357  0.071
   - k =   0.445  0.357  0.071
   - k =   0.427  0.357  0.071
   - k =   0.409  0.357  0.071
   - k =   0.391  0.357  0.071
   - k =   0.373  0.357  0.071
   - k =   0.355  0.357  0.071
   - k =   0.336  0.357  0.071
   - k =   0.318  0.357  0.071
   - k =   0.300  0.357  0.071
   - k =   0.282  0.357  0.071
   - k =   0.264  0.357  0.071
   - k =   0.245  0.357  0.071
   - k =   0.227  0.357  0.071
   - k =   0.209  0.357  0.071
   - k =   0.191  0.357  0.071
   - k =   0.173  0.357  0.071
   - k =   0.155  0.357  0.071
   - k =   0.136  0.357  0.071
   - k =   0.118  0.357  0.071
   - k =   0.100  0.357  0.071
   - k =   0.082  0.357  0.071
   - k =   0.064  0.357  0.071
   - k =   0.045  0.357  0.071
   - k =   0.027  0.357  0.071
   - k =   0.009  0.357  0.071
   - k =  -0.009  0.357  0.071
   - k =  -0.027  0.357  0.071
   - k =  -0.045  0.357  0.071
   - k =  -0.064  0.357  0.071
   - k =  -0.082  0.357  0.071
   - k =  -0.100  0.357  0.071
   - k =  -0.118  0.357  0.071
   - k =  -0.136  0.357  0.071
   - k =  -0.155  0.357  0.071
   - k =  -0.173  0.357  0.071
   - k =  -0.191  0.357  0.071
   - k =  -0.209  0.357  0.071
   - k =  -0.227  0.357  0.071
   - k =  -0.245  0.357  0.071
   - k =  -0.264  0.357  0.071
   - k =  -0.282  0.357  0.071
   - k =  -0.300  0.357  0.071
   - k =  -0.318  0.357  0.071
   - k =  -0.336  0.357  0.071
   - k =  -0.355  0.357  0.071
   - k =  -0.373  0.357  0.071
   - k =  -0.391  0.357  0.071
   - k =  -0.409  0.357  0.071
   - k =  -0.427  0.357  0.071
   - k =  -0.445  0.357  0.071
   - k =  -0.464  0.357  0.071
   - k =  -0.482  0.357  0.071
   - k =  -0.500  0.357  0.071

  |-> Computing Wannier center evolution at k-point number:     53

  Treating all   56 k-points in band plot segment #  54:
   Sampling over :
   - k =   0.500  0.357  0.214
   - k =   0.482  0.357  0.214
   - k =   0.464  0.357  0.214
   - k =   0.445  0.357  0.214
   - k =   0.427  0.357  0.214
   - k =   0.409  0.357  0.214
   - k =   0.391  0.357  0.214
   - k =   0.373  0.357  0.214
   - k =   0.355  0.357  0.214
   - k =   0.336  0.357  0.214
   - k =   0.318  0.357  0.214
   - k =   0.300  0.357  0.214
   - k =   0.282  0.357  0.214
   - k =   0.264  0.357  0.214
   - k =   0.245  0.357  0.214
   - k =   0.227  0.357  0.214
   - k =   0.209  0.357  0.214
   - k =   0.191  0.357  0.214
   - k =   0.173  0.357  0.214
   - k =   0.155  0.357  0.214
   - k =   0.136  0.357  0.214
   - k =   0.118  0.357  0.214
   - k =   0.100  0.357  0.214
   - k =   0.082  0.357  0.214
   - k =   0.064  0.357  0.214
   - k =   0.045  0.357  0.214
   - k =   0.027  0.357  0.214
   - k =   0.009  0.357  0.214
   - k =  -0.009  0.357  0.214
   - k =  -0.027  0.357  0.214
   - k =  -0.045  0.357  0.214
   - k =  -0.064  0.357  0.214
   - k =  -0.082  0.357  0.214
   - k =  -0.100  0.357  0.214
   - k =  -0.118  0.357  0.214
   - k =  -0.136  0.357  0.214
   - k =  -0.155  0.357  0.214
   - k =  -0.173  0.357  0.214
   - k =  -0.191  0.357  0.214
   - k =  -0.209  0.357  0.214
   - k =  -0.227  0.357  0.214
   - k =  -0.245  0.357  0.214
   - k =  -0.264  0.357  0.214
   - k =  -0.282  0.357  0.214
   - k =  -0.300  0.357  0.214
   - k =  -0.318  0.357  0.214
   - k =  -0.336  0.357  0.214
   - k =  -0.355  0.357  0.214
   - k =  -0.373  0.357  0.214
   - k =  -0.391  0.357  0.214
   - k =  -0.409  0.357  0.214
   - k =  -0.427  0.357  0.214
   - k =  -0.445  0.357  0.214
   - k =  -0.464  0.357  0.214
   - k =  -0.482  0.357  0.214
   - k =  -0.500  0.357  0.214

  |-> Computing Wannier center evolution at k-point number:     54

  Treating all   56 k-points in band plot segment #  55:
   Sampling over :
   - k =   0.500  0.357  0.357
   - k =   0.482  0.357  0.357
   - k =   0.464  0.357  0.357
   - k =   0.445  0.357  0.357
   - k =   0.427  0.357  0.357
   - k =   0.409  0.357  0.357
   - k =   0.391  0.357  0.357
   - k =   0.373  0.357  0.357
   - k =   0.355  0.357  0.357
   - k =   0.336  0.357  0.357
   - k =   0.318  0.357  0.357
   - k =   0.300  0.357  0.357
   - k =   0.282  0.357  0.357
   - k =   0.264  0.357  0.357
   - k =   0.245  0.357  0.357
   - k =   0.227  0.357  0.357
   - k =   0.209  0.357  0.357
   - k =   0.191  0.357  0.357
   - k =   0.173  0.357  0.357
   - k =   0.155  0.357  0.357
   - k =   0.136  0.357  0.357
   - k =   0.118  0.357  0.357
   - k =   0.100  0.357  0.357
   - k =   0.082  0.357  0.357
   - k =   0.064  0.357  0.357
   - k =   0.045  0.357  0.357
   - k =   0.027  0.357  0.357
   - k =   0.009  0.357  0.357
   - k =  -0.009  0.357  0.357
   - k =  -0.027  0.357  0.357
   - k =  -0.045  0.357  0.357
   - k =  -0.064  0.357  0.357
   - k =  -0.082  0.357  0.357
   - k =  -0.100  0.357  0.357
   - k =  -0.118  0.357  0.357
   - k =  -0.136  0.357  0.357
   - k =  -0.155  0.357  0.357
   - k =  -0.173  0.357  0.357
   - k =  -0.191  0.357  0.357
   - k =  -0.209  0.357  0.357
   - k =  -0.227  0.357  0.357
   - k =  -0.245  0.357  0.357
   - k =  -0.264  0.357  0.357
   - k =  -0.282  0.357  0.357
   - k =  -0.300  0.357  0.357
   - k =  -0.318  0.357  0.357
   - k =  -0.336  0.357  0.357
   - k =  -0.355  0.357  0.357
   - k =  -0.373  0.357  0.357
   - k =  -0.391  0.357  0.357
   - k =  -0.409  0.357  0.357
   - k =  -0.427  0.357  0.357
   - k =  -0.445  0.357  0.357
   - k =  -0.464  0.357  0.357
   - k =  -0.482  0.357  0.357
   - k =  -0.500  0.357  0.357

  |-> Computing Wannier center evolution at k-point number:     55

  Treating all   56 k-points in band plot segment #  56:
   Sampling over :
   - k =   0.500  0.357  0.500
   - k =   0.482  0.357  0.500
   - k =   0.464  0.357  0.500
   - k =   0.445  0.357  0.500
   - k =   0.427  0.357  0.500
   - k =   0.409  0.357  0.500
   - k =   0.391  0.357  0.500
   - k =   0.373  0.357  0.500
   - k =   0.355  0.357  0.500
   - k =   0.336  0.357  0.500
   - k =   0.318  0.357  0.500
   - k =   0.300  0.357  0.500
   - k =   0.282  0.357  0.500
   - k =   0.264  0.357  0.500
   - k =   0.245  0.357  0.500
   - k =   0.227  0.357  0.500
   - k =   0.209  0.357  0.500
   - k =   0.191  0.357  0.500
   - k =   0.173  0.357  0.500
   - k =   0.155  0.357  0.500
   - k =   0.136  0.357  0.500
   - k =   0.118  0.357  0.500
   - k =   0.100  0.357  0.500
   - k =   0.082  0.357  0.500
   - k =   0.064  0.357  0.500
   - k =   0.045  0.357  0.500
   - k =   0.027  0.357  0.500
   - k =   0.009  0.357  0.500
   - k =  -0.009  0.357  0.500
   - k =  -0.027  0.357  0.500
   - k =  -0.045  0.357  0.500
   - k =  -0.064  0.357  0.500
   - k =  -0.082  0.357  0.500
   - k =  -0.100  0.357  0.500
   - k =  -0.118  0.357  0.500
   - k =  -0.136  0.357  0.500
   - k =  -0.155  0.357  0.500
   - k =  -0.173  0.357  0.500
   - k =  -0.191  0.357  0.500
   - k =  -0.209  0.357  0.500
   - k =  -0.227  0.357  0.500
   - k =  -0.245  0.357  0.500
   - k =  -0.264  0.357  0.500
   - k =  -0.282  0.357  0.500
   - k =  -0.300  0.357  0.500
   - k =  -0.318  0.357  0.500
   - k =  -0.336  0.357  0.500
   - k =  -0.355  0.357  0.500
   - k =  -0.373  0.357  0.500
   - k =  -0.391  0.357  0.500
   - k =  -0.409  0.357  0.500
   - k =  -0.427  0.357  0.500
   - k =  -0.445  0.357  0.500
   - k =  -0.464  0.357  0.500
   - k =  -0.482  0.357  0.500
   - k =  -0.500  0.357  0.500

  |-> Computing Wannier center evolution at k-point number:     56

  Treating all   56 k-points in band plot segment #  57:
   Sampling over :
   - k =   0.500  0.500 -0.500
   - k =   0.482  0.500 -0.500
   - k =   0.464  0.500 -0.500
   - k =   0.445  0.500 -0.500
   - k =   0.427  0.500 -0.500
   - k =   0.409  0.500 -0.500
   - k =   0.391  0.500 -0.500
   - k =   0.373  0.500 -0.500
   - k =   0.355  0.500 -0.500
   - k =   0.336  0.500 -0.500
   - k =   0.318  0.500 -0.500
   - k =   0.300  0.500 -0.500
   - k =   0.282  0.500 -0.500
   - k =   0.264  0.500 -0.500
   - k =   0.245  0.500 -0.500
   - k =   0.227  0.500 -0.500
   - k =   0.209  0.500 -0.500
   - k =   0.191  0.500 -0.500
   - k =   0.173  0.500 -0.500
   - k =   0.155  0.500 -0.500
   - k =   0.136  0.500 -0.500
   - k =   0.118  0.500 -0.500
   - k =   0.100  0.500 -0.500
   - k =   0.082  0.500 -0.500
   - k =   0.064  0.500 -0.500
   - k =   0.045  0.500 -0.500
   - k =   0.027  0.500 -0.500
   - k =   0.009  0.500 -0.500
   - k =  -0.009  0.500 -0.500
   - k =  -0.027  0.500 -0.500
   - k =  -0.045  0.500 -0.500
   - k =  -0.064  0.500 -0.500
   - k =  -0.082  0.500 -0.500
   - k =  -0.100  0.500 -0.500
   - k =  -0.118  0.500 -0.500
   - k =  -0.136  0.500 -0.500
   - k =  -0.155  0.500 -0.500
   - k =  -0.173  0.500 -0.500
   - k =  -0.191  0.500 -0.500
   - k =  -0.209  0.500 -0.500
   - k =  -0.227  0.500 -0.500
   - k =  -0.245  0.500 -0.500
   - k =  -0.264  0.500 -0.500
   - k =  -0.282  0.500 -0.500
   - k =  -0.300  0.500 -0.500
   - k =  -0.318  0.500 -0.500
   - k =  -0.336  0.500 -0.500
   - k =  -0.355  0.500 -0.500
   - k =  -0.373  0.500 -0.500
   - k =  -0.391  0.500 -0.500
   - k =  -0.409  0.500 -0.500
   - k =  -0.427  0.500 -0.500
   - k =  -0.445  0.500 -0.500
   - k =  -0.464  0.500 -0.500
   - k =  -0.482  0.500 -0.500
   - k =  -0.500  0.500 -0.500

  |-> Computing Wannier center evolution at k-point number:     57

  Treating all   56 k-points in band plot segment #  58:
   Sampling over :
   - k =   0.500  0.500 -0.357
   - k =   0.482  0.500 -0.357
   - k =   0.464  0.500 -0.357
   - k =   0.445  0.500 -0.357
   - k =   0.427  0.500 -0.357
   - k =   0.409  0.500 -0.357
   - k =   0.391  0.500 -0.357
   - k =   0.373  0.500 -0.357
   - k =   0.355  0.500 -0.357
   - k =   0.336  0.500 -0.357
   - k =   0.318  0.500 -0.357
   - k =   0.300  0.500 -0.357
   - k =   0.282  0.500 -0.357
   - k =   0.264  0.500 -0.357
   - k =   0.245  0.500 -0.357
   - k =   0.227  0.500 -0.357
   - k =   0.209  0.500 -0.357
   - k =   0.191  0.500 -0.357
   - k =   0.173  0.500 -0.357
   - k =   0.155  0.500 -0.357
   - k =   0.136  0.500 -0.357
   - k =   0.118  0.500 -0.357
   - k =   0.100  0.500 -0.357
   - k =   0.082  0.500 -0.357
   - k =   0.064  0.500 -0.357
   - k =   0.045  0.500 -0.357
   - k =   0.027  0.500 -0.357
   - k =   0.009  0.500 -0.357
   - k =  -0.009  0.500 -0.357
   - k =  -0.027  0.500 -0.357
   - k =  -0.045  0.500 -0.357
   - k =  -0.064  0.500 -0.357
   - k =  -0.082  0.500 -0.357
   - k =  -0.100  0.500 -0.357
   - k =  -0.118  0.500 -0.357
   - k =  -0.136  0.500 -0.357
   - k =  -0.155  0.500 -0.357
   - k =  -0.173  0.500 -0.357
   - k =  -0.191  0.500 -0.357
   - k =  -0.209  0.500 -0.357
   - k =  -0.227  0.500 -0.357
   - k =  -0.245  0.500 -0.357
   - k =  -0.264  0.500 -0.357
   - k =  -0.282  0.500 -0.357
   - k =  -0.300  0.500 -0.357
   - k =  -0.318  0.500 -0.357
   - k =  -0.336  0.500 -0.357
   - k =  -0.355  0.500 -0.357
   - k =  -0.373  0.500 -0.357
   - k =  -0.391  0.500 -0.357
   - k =  -0.409  0.500 -0.357
   - k =  -0.427  0.500 -0.357
   - k =  -0.445  0.500 -0.357
   - k =  -0.464  0.500 -0.357
   - k =  -0.482  0.500 -0.357
   - k =  -0.500  0.500 -0.357

  |-> Computing Wannier center evolution at k-point number:     58

  Treating all   56 k-points in band plot segment #  59:
   Sampling over :
   - k =   0.500  0.500 -0.214
   - k =   0.482  0.500 -0.214
   - k =   0.464  0.500 -0.214
   - k =   0.445  0.500 -0.214
   - k =   0.427  0.500 -0.214
   - k =   0.409  0.500 -0.214
   - k =   0.391  0.500 -0.214
   - k =   0.373  0.500 -0.214
   - k =   0.355  0.500 -0.214
   - k =   0.336  0.500 -0.214
   - k =   0.318  0.500 -0.214
   - k =   0.300  0.500 -0.214
   - k =   0.282  0.500 -0.214
   - k =   0.264  0.500 -0.214
   - k =   0.245  0.500 -0.214
   - k =   0.227  0.500 -0.214
   - k =   0.209  0.500 -0.214
   - k =   0.191  0.500 -0.214
   - k =   0.173  0.500 -0.214
   - k =   0.155  0.500 -0.214
   - k =   0.136  0.500 -0.214
   - k =   0.118  0.500 -0.214
   - k =   0.100  0.500 -0.214
   - k =   0.082  0.500 -0.214
   - k =   0.064  0.500 -0.214
   - k =   0.045  0.500 -0.214
   - k =   0.027  0.500 -0.214
   - k =   0.009  0.500 -0.214
   - k =  -0.009  0.500 -0.214
   - k =  -0.027  0.500 -0.214
   - k =  -0.045  0.500 -0.214
   - k =  -0.064  0.500 -0.214
   - k =  -0.082  0.500 -0.214
   - k =  -0.100  0.500 -0.214
   - k =  -0.118  0.500 -0.214
   - k =  -0.136  0.500 -0.214
   - k =  -0.155  0.500 -0.214
   - k =  -0.173  0.500 -0.214
   - k =  -0.191  0.500 -0.214
   - k =  -0.209  0.500 -0.214
   - k =  -0.227  0.500 -0.214
   - k =  -0.245  0.500 -0.214
   - k =  -0.264  0.500 -0.214
   - k =  -0.282  0.500 -0.214
   - k =  -0.300  0.500 -0.214
   - k =  -0.318  0.500 -0.214
   - k =  -0.336  0.500 -0.214
   - k =  -0.355  0.500 -0.214
   - k =  -0.373  0.500 -0.214
   - k =  -0.391  0.500 -0.214
   - k =  -0.409  0.500 -0.214
   - k =  -0.427  0.500 -0.214
   - k =  -0.445  0.500 -0.214
   - k =  -0.464  0.500 -0.214
   - k =  -0.482  0.500 -0.214
   - k =  -0.500  0.500 -0.214

  |-> Computing Wannier center evolution at k-point number:     59

  Treating all   56 k-points in band plot segment #  60:
   Sampling over :
   - k =   0.500  0.500 -0.071
   - k =   0.482  0.500 -0.071
   - k =   0.464  0.500 -0.071
   - k =   0.445  0.500 -0.071
   - k =   0.427  0.500 -0.071
   - k =   0.409  0.500 -0.071
   - k =   0.391  0.500 -0.071
   - k =   0.373  0.500 -0.071
   - k =   0.355  0.500 -0.071
   - k =   0.336  0.500 -0.071
   - k =   0.318  0.500 -0.071
   - k =   0.300  0.500 -0.071
   - k =   0.282  0.500 -0.071
   - k =   0.264  0.500 -0.071
   - k =   0.245  0.500 -0.071
   - k =   0.227  0.500 -0.071
   - k =   0.209  0.500 -0.071
   - k =   0.191  0.500 -0.071
   - k =   0.173  0.500 -0.071
   - k =   0.155  0.500 -0.071
   - k =   0.136  0.500 -0.071
   - k =   0.118  0.500 -0.071
   - k =   0.100  0.500 -0.071
   - k =   0.082  0.500 -0.071
   - k =   0.064  0.500 -0.071
   - k =   0.045  0.500 -0.071
   - k =   0.027  0.500 -0.071
   - k =   0.009  0.500 -0.071
   - k =  -0.009  0.500 -0.071
   - k =  -0.027  0.500 -0.071
   - k =  -0.045  0.500 -0.071
   - k =  -0.064  0.500 -0.071
   - k =  -0.082  0.500 -0.071
   - k =  -0.100  0.500 -0.071
   - k =  -0.118  0.500 -0.071
   - k =  -0.136  0.500 -0.071
   - k =  -0.155  0.500 -0.071
   - k =  -0.173  0.500 -0.071
   - k =  -0.191  0.500 -0.071
   - k =  -0.209  0.500 -0.071
   - k =  -0.227  0.500 -0.071
   - k =  -0.245  0.500 -0.071
   - k =  -0.264  0.500 -0.071
   - k =  -0.282  0.500 -0.071
   - k =  -0.300  0.500 -0.071
   - k =  -0.318  0.500 -0.071
   - k =  -0.336  0.500 -0.071
   - k =  -0.355  0.500 -0.071
   - k =  -0.373  0.500 -0.071
   - k =  -0.391  0.500 -0.071
   - k =  -0.409  0.500 -0.071
   - k =  -0.427  0.500 -0.071
   - k =  -0.445  0.500 -0.071
   - k =  -0.464  0.500 -0.071
   - k =  -0.482  0.500 -0.071
   - k =  -0.500  0.500 -0.071

  |-> Computing Wannier center evolution at k-point number:     60

  Treating all   56 k-points in band plot segment #  61:
   Sampling over :
   - k =   0.500  0.500  0.071
   - k =   0.482  0.500  0.071
   - k =   0.464  0.500  0.071
   - k =   0.445  0.500  0.071
   - k =   0.427  0.500  0.071
   - k =   0.409  0.500  0.071
   - k =   0.391  0.500  0.071
   - k =   0.373  0.500  0.071
   - k =   0.355  0.500  0.071
   - k =   0.336  0.500  0.071
   - k =   0.318  0.500  0.071
   - k =   0.300  0.500  0.071
   - k =   0.282  0.500  0.071
   - k =   0.264  0.500  0.071
   - k =   0.245  0.500  0.071
   - k =   0.227  0.500  0.071
   - k =   0.209  0.500  0.071
   - k =   0.191  0.500  0.071
   - k =   0.173  0.500  0.071
   - k =   0.155  0.500  0.071
   - k =   0.136  0.500  0.071
   - k =   0.118  0.500  0.071
   - k =   0.100  0.500  0.071
   - k =   0.082  0.500  0.071
   - k =   0.064  0.500  0.071
   - k =   0.045  0.500  0.071
   - k =   0.027  0.500  0.071
   - k =   0.009  0.500  0.071
   - k =  -0.009  0.500  0.071
   - k =  -0.027  0.500  0.071
   - k =  -0.045  0.500  0.071
   - k =  -0.064  0.500  0.071
   - k =  -0.082  0.500  0.071
   - k =  -0.100  0.500  0.071
   - k =  -0.118  0.500  0.071
   - k =  -0.136  0.500  0.071
   - k =  -0.155  0.500  0.071
   - k =  -0.173  0.500  0.071
   - k =  -0.191  0.500  0.071
   - k =  -0.209  0.500  0.071
   - k =  -0.227  0.500  0.071
   - k =  -0.245  0.500  0.071
   - k =  -0.264  0.500  0.071
   - k =  -0.282  0.500  0.071
   - k =  -0.300  0.500  0.071
   - k =  -0.318  0.500  0.071
   - k =  -0.336  0.500  0.071
   - k =  -0.355  0.500  0.071
   - k =  -0.373  0.500  0.071
   - k =  -0.391  0.500  0.071
   - k =  -0.409  0.500  0.071
   - k =  -0.427  0.500  0.071
   - k =  -0.445  0.500  0.071
   - k =  -0.464  0.500  0.071
   - k =  -0.482  0.500  0.071
   - k =  -0.500  0.500  0.071

  |-> Computing Wannier center evolution at k-point number:     61

  Treating all   56 k-points in band plot segment #  62:
   Sampling over :
   - k =   0.500  0.500  0.214
   - k =   0.482  0.500  0.214
   - k =   0.464  0.500  0.214
   - k =   0.445  0.500  0.214
   - k =   0.427  0.500  0.214
   - k =   0.409  0.500  0.214
   - k =   0.391  0.500  0.214
   - k =   0.373  0.500  0.214
   - k =   0.355  0.500  0.214
   - k =   0.336  0.500  0.214
   - k =   0.318  0.500  0.214
   - k =   0.300  0.500  0.214
   - k =   0.282  0.500  0.214
   - k =   0.264  0.500  0.214
   - k =   0.245  0.500  0.214
   - k =   0.227  0.500  0.214
   - k =   0.209  0.500  0.214
   - k =   0.191  0.500  0.214
   - k =   0.173  0.500  0.214
   - k =   0.155  0.500  0.214
   - k =   0.136  0.500  0.214
   - k =   0.118  0.500  0.214
   - k =   0.100  0.500  0.214
   - k =   0.082  0.500  0.214
   - k =   0.064  0.500  0.214
   - k =   0.045  0.500  0.214
   - k =   0.027  0.500  0.214
   - k =   0.009  0.500  0.214
   - k =  -0.009  0.500  0.214
   - k =  -0.027  0.500  0.214
   - k =  -0.045  0.500  0.214
   - k =  -0.064  0.500  0.214
   - k =  -0.082  0.500  0.214
   - k =  -0.100  0.500  0.214
   - k =  -0.118  0.500  0.214
   - k =  -0.136  0.500  0.214
   - k =  -0.155  0.500  0.214
   - k =  -0.173  0.500  0.214
   - k =  -0.191  0.500  0.214
   - k =  -0.209  0.500  0.214
   - k =  -0.227  0.500  0.214
   - k =  -0.245  0.500  0.214
   - k =  -0.264  0.500  0.214
   - k =  -0.282  0.500  0.214
   - k =  -0.300  0.500  0.214
   - k =  -0.318  0.500  0.214
   - k =  -0.336  0.500  0.214
   - k =  -0.355  0.500  0.214
   - k =  -0.373  0.500  0.214
   - k =  -0.391  0.500  0.214
   - k =  -0.409  0.500  0.214
   - k =  -0.427  0.500  0.214
   - k =  -0.445  0.500  0.214
   - k =  -0.464  0.500  0.214
   - k =  -0.482  0.500  0.214
   - k =  -0.500  0.500  0.214

  |-> Computing Wannier center evolution at k-point number:     62

  Treating all   56 k-points in band plot segment #  63:
   Sampling over :
   - k =   0.500  0.500  0.357
   - k =   0.482  0.500  0.357
   - k =   0.464  0.500  0.357
   - k =   0.445  0.500  0.357
   - k =   0.427  0.500  0.357
   - k =   0.409  0.500  0.357
   - k =   0.391  0.500  0.357
   - k =   0.373  0.500  0.357
   - k =   0.355  0.500  0.357
   - k =   0.336  0.500  0.357
   - k =   0.318  0.500  0.357
   - k =   0.300  0.500  0.357
   - k =   0.282  0.500  0.357
   - k =   0.264  0.500  0.357
   - k =   0.245  0.500  0.357
   - k =   0.227  0.500  0.357
   - k =   0.209  0.500  0.357
   - k =   0.191  0.500  0.357
   - k =   0.173  0.500  0.357
   - k =   0.155  0.500  0.357
   - k =   0.136  0.500  0.357
   - k =   0.118  0.500  0.357
   - k =   0.100  0.500  0.357
   - k =   0.082  0.500  0.357
   - k =   0.064  0.500  0.357
   - k =   0.045  0.500  0.357
   - k =   0.027  0.500  0.357
   - k =   0.009  0.500  0.357
   - k =  -0.009  0.500  0.357
   - k =  -0.027  0.500  0.357
   - k =  -0.045  0.500  0.357
   - k =  -0.064  0.500  0.357
   - k =  -0.082  0.500  0.357
   - k =  -0.100  0.500  0.357
   - k =  -0.118  0.500  0.357
   - k =  -0.136  0.500  0.357
   - k =  -0.155  0.500  0.357
   - k =  -0.173  0.500  0.357
   - k =  -0.191  0.500  0.357
   - k =  -0.209  0.500  0.357
   - k =  -0.227  0.500  0.357
   - k =  -0.245  0.500  0.357
   - k =  -0.264  0.500  0.357
   - k =  -0.282  0.500  0.357
   - k =  -0.300  0.500  0.357
   - k =  -0.318  0.500  0.357
   - k =  -0.336  0.500  0.357
   - k =  -0.355  0.500  0.357
   - k =  -0.373  0.500  0.357
   - k =  -0.391  0.500  0.357
   - k =  -0.409  0.500  0.357
   - k =  -0.427  0.500  0.357
   - k =  -0.445  0.500  0.357
   - k =  -0.464  0.500  0.357
   - k =  -0.482  0.500  0.357
   - k =  -0.500  0.500  0.357

  |-> Computing Wannier center evolution at k-point number:     63

  Treating all   56 k-points in band plot segment #  64:
   Sampling over :
   - k =   0.500  0.500  0.500
   - k =   0.482  0.500  0.500
   - k =   0.464  0.500  0.500
   - k =   0.445  0.500  0.500
   - k =   0.427  0.500  0.500
   - k =   0.409  0.500  0.500
   - k =   0.391  0.500  0.500
   - k =   0.373  0.500  0.500
   - k =   0.355  0.500  0.500
   - k =   0.336  0.500  0.500
   - k =   0.318  0.500  0.500
   - k =   0.300  0.500  0.500
   - k =   0.282  0.500  0.500
   - k =   0.264  0.500  0.500
   - k =   0.245  0.500  0.500
   - k =   0.227  0.500  0.500
   - k =   0.209  0.500  0.500
   - k =   0.191  0.500  0.500
   - k =   0.173  0.500  0.500
   - k =   0.155  0.500  0.500
   - k =   0.136  0.500  0.500
   - k =   0.118  0.500  0.500
   - k =   0.100  0.500  0.500
   - k =   0.082  0.500  0.500
   - k =   0.064  0.500  0.500
   - k =   0.045  0.500  0.500
   - k =   0.027  0.500  0.500
   - k =   0.009  0.500  0.500
   - k =  -0.009  0.500  0.500
   - k =  -0.027  0.500  0.500
   - k =  -0.045  0.500  0.500
   - k =  -0.064  0.500  0.500
   - k =  -0.082  0.500  0.500
   - k =  -0.100  0.500  0.500
   - k =  -0.118  0.500  0.500
   - k =  -0.136  0.500  0.500
   - k =  -0.155  0.500  0.500
   - k =  -0.173  0.500  0.500
   - k =  -0.191  0.500  0.500
   - k =  -0.209  0.500  0.500
   - k =  -0.227  0.500  0.500
   - k =  -0.245  0.500  0.500
   - k =  -0.264  0.500  0.500
   - k =  -0.282  0.500  0.500
   - k =  -0.300  0.500  0.500
   - k =  -0.318  0.500  0.500
   - k =  -0.336  0.500  0.500
   - k =  -0.355  0.500  0.500
   - k =  -0.373  0.500  0.500
   - k =  -0.391  0.500  0.500
   - k =  -0.409  0.500  0.500
   - k =  -0.427  0.500  0.500
   - k =  -0.445  0.500  0.500
   - k =  -0.464  0.500  0.500
   - k =  -0.482  0.500  0.500
   - k =  -0.500  0.500  0.500

  |-> Computing Wannier center evolution at k-point number:     64
  *-> Finished with polarization directive nr.   1
  | Evaluation of the polarization for directive nr.     1
   - Ionic      polarization along rec. latt. vec.    1 is:      -63.119795E-03 C/m^2
   - Berry term: Preliminary Electronic polarization along rec. latt. vec.    1 is:     -709.833008E-03 C/m^2 before branch-mapping
   --> Detailed listing before/after branch mapping in terms of the polarization quantum P0=       -1.007537E+00 C/m^2
     | k-string    1 :       754.231510E-03 /      -245.768490E-03 P0
     | k-string    2 :       747.887966E-03 /      -252.112034E-03 P0
     | k-string    3 :       728.840536E-03 /      -271.159464E-03 P0
     | k-string    4 :       696.766321E-03 /      -303.233679E-03 P0
     | k-string    5 :       696.704924E-03 /      -303.295076E-03 P0
     | k-string    6 :       728.726939E-03 /      -271.273061E-03 P0
     | k-string    7 :       747.812764E-03 /      -252.187236E-03 P0
     | k-string    8 :       754.231510E-03 /      -245.768490E-03 P0
     | k-string    9 :       747.887937E-03 /      -252.112063E-03 P0
     | k-string   10 :       740.544579E-03 /      -259.455421E-03 P0
     | k-string   11 :       719.731105E-03 /      -280.268895E-03 P0
     | k-string   12 :       687.329087E-03 /      -312.670913E-03 P0
     | k-string   13 :       686.961561E-03 /      -313.038439E-03 P0
     | k-string   14 :       719.683914E-03 /      -280.316086E-03 P0
     | k-string   15 :       740.609183E-03 /      -259.390817E-03 P0
     | k-string   16 :       747.887937E-03 /      -252.112063E-03 P0
     | k-string   17 :       728.840227E-03 /      -271.159773E-03 P0
     | k-string   18 :       719.730664E-03 /      -280.269336E-03 P0
     | k-string   19 :       693.350086E-03 /      -306.649914E-03 P0
     | k-string   20 :       656.574931E-03 /      -343.425069E-03 P0
     | k-string   21 :       655.935054E-03 /      -344.064946E-03 P0
     | k-string   22 :       693.383434E-03 /      -306.616566E-03 P0
     | k-string   23 :       719.825902E-03 /      -280.174098E-03 P0
     | k-string   24 :       728.840227E-03 /      -271.159773E-03 P0
     | k-string   25 :       696.765426E-03 /      -303.234574E-03 P0
     | k-string   26 :       687.328231E-03 /      -312.671769E-03 P0
     | k-string   27 :       656.574536E-03 /      -343.425464E-03 P0
     | k-string   28 :       611.181158E-03 /      -388.818842E-03 P0
     | k-string   29 :       610.350068E-03 /      -389.649932E-03 P0
     | k-string   30 :       656.080523E-03 /      -343.919477E-03 P0
     | k-string   31 :       687.130417E-03 /      -312.869583E-03 P0
     | k-string   32 :       696.765426E-03 /      -303.234574E-03 P0
     | k-string   33 :       696.704043E-03 /      -303.295957E-03 P0
     | k-string   34 :       686.960953E-03 /      -313.039047E-03 P0
     | k-string   35 :       655.934785E-03 /      -344.065215E-03 P0
     | k-string   36 :       610.350091E-03 /      -389.649909E-03 P0
     | k-string   37 :       611.298263E-03 /      -388.701737E-03 P0
     | k-string   38 :       656.765687E-03 /      -343.234313E-03 P0
     | k-string   39 :       687.426501E-03 /      -312.573499E-03 P0
     | k-string   40 :       696.704043E-03 /      -303.295957E-03 P0
     | k-string   41 :       728.726643E-03 /      -271.273357E-03 P0
     | k-string   42 :       719.683876E-03 /      -280.316124E-03 P0
     | k-string   43 :       693.383485E-03 /      -306.616515E-03 P0
     | k-string   44 :       656.080846E-03 /      -343.919154E-03 P0
     | k-string   45 :       656.766077E-03 /      -343.233923E-03 P0
     | k-string   46 :       693.534984E-03 /      -306.465016E-03 P0
     | k-string   47 :       719.781943E-03 /      -280.218057E-03 P0
     | k-string   48 :       728.726643E-03 /      -271.273357E-03 P0
     | k-string   49 :       747.812737E-03 /      -252.187263E-03 P0
     | k-string   50 :       740.609207E-03 /      -259.390793E-03 P0
     | k-string   51 :       719.825999E-03 /      -280.174001E-03 P0
     | k-string   52 :       687.131027E-03 /      -312.868973E-03 P0
     | k-string   53 :       687.427309E-03 /      -312.572691E-03 P0
     | k-string   54 :       719.782363E-03 /      -280.217637E-03 P0
     | k-string   55 :       740.527975E-03 /      -259.472025E-03 P0
     | k-string   56 :       747.812737E-03 /      -252.187263E-03 P0
     | k-string   57 :       754.231510E-03 /      -245.768490E-03 P0
     | k-string   58 :       747.887966E-03 /      -252.112034E-03 P0
     | k-string   59 :       728.840536E-03 /      -271.159464E-03 P0
     | k-string   60 :       696.766321E-03 /      -303.233679E-03 P0
     | k-string   61 :       696.704924E-03 /      -303.295076E-03 P0
     | k-string   62 :       728.726939E-03 /      -271.273061E-03 P0
     | k-string   63 :       747.812764E-03 /      -252.187236E-03 P0
     | k-string   64 :       754.231510E-03 /      -245.768490E-03 P0
   - Berry term: Electronic polarization along rec. latt. vec.    1 is:      305.689240E-03 C/m^2 after branch-mapping

   - Dipole term: Preliminary Electronic polarization along rec. latt. vec.    1 is:      -17.651147E-03 C/m^2 before branch-mapping
   --> Detailed listing before/after branch mapping in terms of the polarization quantum P0=       -1.007537E+00 C/m^2
     | k-string    1 :        18.994593E-03 /        18.994593E-03 P0
     | k-string    2 :        20.195880E-03 /        20.195880E-03 P0
     | k-string    3 :        20.023846E-03 /        20.023846E-03 P0
     | k-string    4 :        15.585804E-03 /        15.585804E-03 P0
     | k-string    5 :        15.585804E-03 /        15.585804E-03 P0
     | k-string    6 :        20.023846E-03 /        20.023846E-03 P0
     | k-string    7 :        20.195880E-03 /        20.195880E-03 P0
     | k-string    8 :        18.994593E-03 /        18.994593E-03 P0
     | k-string    9 :        20.195906E-03 /        20.195906E-03 P0
     | k-string   10 :        20.755657E-03 /        20.755657E-03 P0
     | k-string   11 :        19.919660E-03 /        19.919660E-03 P0
     | k-string   12 :        14.957501E-03 /        14.957501E-03 P0
     | k-string   13 :        14.914754E-03 /        14.914754E-03 P0
     | k-string   14 :        20.044121E-03 /        20.044121E-03 P0
     | k-string   15 :        20.874989E-03 /        20.874989E-03 P0
     | k-string   16 :        20.195906E-03 /        20.195906E-03 P0
     | k-string   17 :        20.024148E-03 /        20.024148E-03 P0
     | k-string   18 :        19.920094E-03 /        19.920094E-03 P0
     | k-string   19 :        18.686636E-03 /        18.686636E-03 P0
     | k-string   20 :        14.064860E-03 /        14.064860E-03 P0
     | k-string   21 :        13.976110E-03 /        13.976110E-03 P0
     | k-string   22 :        18.825211E-03 /        18.825211E-03 P0
     | k-string   23 :        20.044187E-03 /        20.044187E-03 P0
     | k-string   24 :        20.024148E-03 /        20.024148E-03 P0
     | k-string   25 :        15.586710E-03 /        15.586710E-03 P0
     | k-string   26 :        14.958354E-03 /        14.958354E-03 P0
     | k-string   27 :        14.065270E-03 /        14.065270E-03 P0
     | k-string   28 :        12.314687E-03 /        12.314687E-03 P0
     | k-string   29 :        12.183479E-03 /        12.183479E-03 P0
     | k-string   30 :        13.976422E-03 /        13.976422E-03 P0
     | k-string   31 :        14.915381E-03 /        14.915381E-03 P0
     | k-string   32 :        15.586710E-03 /        15.586710E-03 P0
     | k-string   33 :        15.586710E-03 /        15.586710E-03 P0
     | k-string   34 :        14.915381E-03 /        14.915381E-03 P0
     | k-string   35 :        13.976422E-03 /        13.976422E-03 P0
     | k-string   36 :        12.183479E-03 /        12.183479E-03 P0
     | k-string   37 :        12.314687E-03 /        12.314687E-03 P0
     | k-string   38 :        14.065270E-03 /        14.065270E-03 P0
     | k-string   39 :        14.958354E-03 /        14.958354E-03 P0
     | k-string   40 :        15.586710E-03 /        15.586710E-03 P0
     | k-string   41 :        20.024148E-03 /        20.024148E-03 P0
     | k-string   42 :        20.044187E-03 /        20.044187E-03 P0
     | k-string   43 :        18.825211E-03 /        18.825211E-03 P0
     | k-string   44 :        13.976110E-03 /        13.976110E-03 P0
     | k-string   45 :        14.064860E-03 /        14.064860E-03 P0
     | k-string   46 :        18.686636E-03 /        18.686636E-03 P0
     | k-string   47 :        19.920094E-03 /        19.920094E-03 P0
     | k-string   48 :        20.024148E-03 /        20.024148E-03 P0
     | k-string   49 :        20.195906E-03 /        20.195906E-03 P0
     | k-string   50 :        20.874989E-03 /        20.874989E-03 P0
     | k-string   51 :        20.044121E-03 /        20.044121E-03 P0
     | k-string   52 :        14.914754E-03 /        14.914754E-03 P0
     | k-string   53 :        14.957501E-03 /        14.957501E-03 P0
     | k-string   54 :        19.919660E-03 /        19.919660E-03 P0
     | k-string   55 :        20.755657E-03 /        20.755657E-03 P0
     | k-string   56 :        20.195906E-03 /        20.195906E-03 P0
     | k-string   57 :        18.994593E-03 /        18.994593E-03 P0
     | k-string   58 :        20.195880E-03 /        20.195880E-03 P0
     | k-string   59 :        20.023846E-03 /        20.023846E-03 P0
     | k-string   60 :        15.585804E-03 /        15.585804E-03 P0
     | k-string   61 :        15.585804E-03 /        15.585804E-03 P0
     | k-string   62 :        20.023846E-03 /        20.023846E-03 P0
     | k-string   63 :        20.195880E-03 /        20.195880E-03 P0
     | k-string   64 :        18.994593E-03 /        18.994593E-03 P0
   - Dipole term: Electronic polarization along rec. latt. vec.    1 is:      -17.292918E-03 C/m^2 after branch-mapping



  Wannier center evolution                                :  max(cpu_time) wall_clock(cpu1)
  | Total Time                                            :         19.435           19.435
------------------------------------------------------------
   |-> Using LAPACK for polarization directive   2 of   3 directives

  -------------------------------------------------------------------
  Computing Wannier centers of charge         (LAPACK version):
  -------------------------------------------------------------------


  Integrating Hamiltonian matrix: batch-based integration.
  Time summed over all CPUs for integration: real work       80.436 s, elapsed       86.228 s

  Number of k-points for which the Wannier centers of charge are calculated for:    64
  Number of k-points used at each of this k-points to obtain the Wannier center of charge:    56
  Wannier center evolution is sampled along the reciprocal lattice vector  2 in    64 steps.
  - The Wannier center evoulution is computed along the following     64 strings in k_space:
    Band     1 from k_start = -0.500  0.500 -0.500 to k_end = -0.500 -0.500 -0.500
    Band     2 from k_start = -0.500  0.500 -0.357 to k_end = -0.500 -0.500 -0.357
    Band     3 from k_start = -0.500  0.500 -0.214 to k_end = -0.500 -0.500 -0.214
    Band     4 from k_start = -0.500  0.500 -0.071 to k_end = -0.500 -0.500 -0.071
    Band     5 from k_start = -0.500  0.500  0.071 to k_end = -0.500 -0.500  0.071
    Band     6 from k_start = -0.500  0.500  0.214 to k_end = -0.500 -0.500  0.214
    Band     7 from k_start = -0.500  0.500  0.357 to k_end = -0.500 -0.500  0.357
    Band     8 from k_start = -0.500  0.500  0.500 to k_end = -0.500 -0.500  0.500
    Band     9 from k_start = -0.357  0.500 -0.500 to k_end = -0.357 -0.500 -0.500
    Band    10 from k_start = -0.357  0.500 -0.357 to k_end = -0.357 -0.500 -0.357
    Band    11 from k_start = -0.357  0.500 -0.214 to k_end = -0.357 -0.500 -0.214
    Band    12 from k_start = -0.357  0.500 -0.071 to k_end = -0.357 -0.500 -0.071
    Band    13 from k_start = -0.357  0.500  0.071 to k_end = -0.357 -0.500  0.071
    Band    14 from k_start = -0.357  0.500  0.214 to k_end = -0.357 -0.500  0.214
    Band    15 from k_start = -0.357  0.500  0.357 to k_end = -0.357 -0.500  0.357
    Band    16 from k_start = -0.357  0.500  0.500 to k_end = -0.357 -0.500  0.500
    Band    17 from k_start = -0.214  0.500 -0.500 to k_end = -0.214 -0.500 -0.500
    Band    18 from k_start = -0.214  0.500 -0.357 to k_end = -0.214 -0.500 -0.357
    Band    19 from k_start = -0.214  0.500 -0.214 to k_end = -0.214 -0.500 -0.214
    Band    20 from k_start = -0.214  0.500 -0.071 to k_end = -0.214 -0.500 -0.071
    Band    21 from k_start = -0.214  0.500  0.071 to k_end = -0.214 -0.500  0.071
    Band    22 from k_start = -0.214  0.500  0.214 to k_end = -0.214 -0.500  0.214
    Band    23 from k_start = -0.214  0.500  0.357 to k_end = -0.214 -0.500  0.357
    Band    24 from k_start = -0.214  0.500  0.500 to k_end = -0.214 -0.500  0.500
    Band    25 from k_start = -0.071  0.500 -0.500 to k_end = -0.071 -0.500 -0.500
    Band    26 from k_start = -0.071  0.500 -0.357 to k_end = -0.071 -0.500 -0.357
    Band    27 from k_start = -0.071  0.500 -0.214 to k_end = -0.071 -0.500 -0.214
    Band    28 from k_start = -0.071  0.500 -0.071 to k_end = -0.071 -0.500 -0.071
    Band    29 from k_start = -0.071  0.500  0.071 to k_end = -0.071 -0.500  0.071
    Band    30 from k_start = -0.071  0.500  0.214 to k_end = -0.071 -0.500  0.214
    Band    31 from k_start = -0.071  0.500  0.357 to k_end = -0.071 -0.500  0.357
    Band    32 from k_start = -0.071  0.500  0.500 to k_end = -0.071 -0.500  0.500
    Band    33 from k_start =  0.071  0.500 -0.500 to k_end =  0.071 -0.500 -0.500
    Band    34 from k_start =  0.071  0.500 -0.357 to k_end =  0.071 -0.500 -0.357
    Band    35 from k_start =  0.071  0.500 -0.214 to k_end =  0.071 -0.500 -0.214
    Band    36 from k_start =  0.071  0.500 -0.071 to k_end =  0.071 -0.500 -0.071
    Band    37 from k_start =  0.071  0.500  0.071 to k_end =  0.071 -0.500  0.071
    Band    38 from k_start =  0.071  0.500  0.214 to k_end =  0.071 -0.500  0.214
    Band    39 from k_start =  0.071  0.500  0.357 to k_end =  0.071 -0.500  0.357
    Band    40 from k_start =  0.071  0.500  0.500 to k_end =  0.071 -0.500  0.500
    Band    41 from k_start =  0.214  0.500 -0.500 to k_end =  0.214 -0.500 -0.500
    Band    42 from k_start =  0.214  0.500 -0.357 to k_end =  0.214 -0.500 -0.357
    Band    43 from k_start =  0.214  0.500 -0.214 to k_end =  0.214 -0.500 -0.214
    Band    44 from k_start =  0.214  0.500 -0.071 to k_end =  0.214 -0.500 -0.071
    Band    45 from k_start =  0.214  0.500  0.071 to k_end =  0.214 -0.500  0.071
    Band    46 from k_start =  0.214  0.500  0.214 to k_end =  0.214 -0.500  0.214
    Band    47 from k_start =  0.214  0.500  0.357 to k_end =  0.214 -0.500  0.357
    Band    48 from k_start =  0.214  0.500  0.500 to k_end =  0.214 -0.500  0.500
    Band    49 from k_start =  0.357  0.500 -0.500 to k_end =  0.357 -0.500 -0.500
    Band    50 from k_start =  0.357  0.500 -0.357 to k_end =  0.357 -0.500 -0.357
    Band    51 from k_start =  0.357  0.500 -0.214 to k_end =  0.357 -0.500 -0.214
    Band    52 from k_start =  0.357  0.500 -0.071 to k_end =  0.357 -0.500 -0.071
    Band    53 from k_start =  0.357  0.500  0.071 to k_end =  0.357 -0.500  0.071
    Band    54 from k_start =  0.357  0.500  0.214 to k_end =  0.357 -0.500  0.214
    Band    55 from k_start =  0.357  0.500  0.357 to k_end =  0.357 -0.500  0.357
    Band    56 from k_start =  0.357  0.500  0.500 to k_end =  0.357 -0.500  0.500
    Band    57 from k_start =  0.500  0.500 -0.500 to k_end =  0.500 -0.500 -0.500
    Band    58 from k_start =  0.500  0.500 -0.357 to k_end =  0.500 -0.500 -0.357
    Band    59 from k_start =  0.500  0.500 -0.214 to k_end =  0.500 -0.500 -0.214
    Band    60 from k_start =  0.500  0.500 -0.071 to k_end =  0.500 -0.500 -0.071
    Band    61 from k_start =  0.500  0.500  0.071 to k_end =  0.500 -0.500  0.071
    Band    62 from k_start =  0.500  0.500  0.214 to k_end =  0.500 -0.500  0.214
    Band    63 from k_start =  0.500  0.500  0.357 to k_end =  0.500 -0.500  0.357
    Band    64 from k_start =  0.500  0.500  0.500 to k_end =  0.500 -0.500  0.500


  Treating all   56 k-points in band plot segment #   1:
   Sampling over :
   - k =  -0.500  0.500 -0.500
   - k =  -0.500  0.482 -0.500
   - k =  -0.500  0.464 -0.500
   - k =  -0.500  0.445 -0.500
   - k =  -0.500  0.427 -0.500
   - k =  -0.500  0.409 -0.500
   - k =  -0.500  0.391 -0.500
   - k =  -0.500  0.373 -0.500
   - k =  -0.500  0.355 -0.500
   - k =  -0.500  0.336 -0.500
   - k =  -0.500  0.318 -0.500
   - k =  -0.500  0.300 -0.500
   - k =  -0.500  0.282 -0.500
   - k =  -0.500  0.264 -0.500
   - k =  -0.500  0.245 -0.500
   - k =  -0.500  0.227 -0.500
   - k =  -0.500  0.209 -0.500
   - k =  -0.500  0.191 -0.500
   - k =  -0.500  0.173 -0.500
   - k =  -0.500  0.155 -0.500
   - k =  -0.500  0.136 -0.500
   - k =  -0.500  0.118 -0.500
   - k =  -0.500  0.100 -0.500
   - k =  -0.500  0.082 -0.500
   - k =  -0.500  0.064 -0.500
   - k =  -0.500  0.045 -0.500
   - k =  -0.500  0.027 -0.500
   - k =  -0.500  0.009 -0.500
   - k =  -0.500 -0.009 -0.500
   - k =  -0.500 -0.027 -0.500
   - k =  -0.500 -0.045 -0.500
   - k =  -0.500 -0.064 -0.500
   - k =  -0.500 -0.082 -0.500
   - k =  -0.500 -0.100 -0.500
   - k =  -0.500 -0.118 -0.500
   - k =  -0.500 -0.136 -0.500
   - k =  -0.500 -0.155 -0.500
   - k =  -0.500 -0.173 -0.500
   - k =  -0.500 -0.191 -0.500
   - k =  -0.500 -0.209 -0.500
   - k =  -0.500 -0.227 -0.500
   - k =  -0.500 -0.245 -0.500
   - k =  -0.500 -0.264 -0.500
   - k =  -0.500 -0.282 -0.500
   - k =  -0.500 -0.300 -0.500
   - k =  -0.500 -0.318 -0.500
   - k =  -0.500 -0.336 -0.500
   - k =  -0.500 -0.355 -0.500
   - k =  -0.500 -0.373 -0.500
   - k =  -0.500 -0.391 -0.500
   - k =  -0.500 -0.409 -0.500
   - k =  -0.500 -0.427 -0.500
   - k =  -0.500 -0.445 -0.500
   - k =  -0.500 -0.464 -0.500
   - k =  -0.500 -0.482 -0.500
   - k =  -0.500 -0.500 -0.500

  |-> Computing Wannier center evolution at k-point number:      1
 Calculating dipole matrix along reciprocal lattice vector 2:    -0.001     0.834    -0.002
  Integrating momentum matrix.
  Time summed over all CPUs for integration: real work      135.366 s, elapsed      143.560 s

  Treating all   56 k-points in band plot segment #   2:
   Sampling over :
   - k =  -0.500  0.500 -0.357
   - k =  -0.500  0.482 -0.357
   - k =  -0.500  0.464 -0.357
   - k =  -0.500  0.445 -0.357
   - k =  -0.500  0.427 -0.357
   - k =  -0.500  0.409 -0.357
   - k =  -0.500  0.391 -0.357
   - k =  -0.500  0.373 -0.357
   - k =  -0.500  0.355 -0.357
   - k =  -0.500  0.336 -0.357
   - k =  -0.500  0.318 -0.357
   - k =  -0.500  0.300 -0.357
   - k =  -0.500  0.282 -0.357
   - k =  -0.500  0.264 -0.357
   - k =  -0.500  0.245 -0.357
   - k =  -0.500  0.227 -0.357
   - k =  -0.500  0.209 -0.357
   - k =  -0.500  0.191 -0.357
   - k =  -0.500  0.173 -0.357
   - k =  -0.500  0.155 -0.357
   - k =  -0.500  0.136 -0.357
   - k =  -0.500  0.118 -0.357
   - k =  -0.500  0.100 -0.357
   - k =  -0.500  0.082 -0.357
   - k =  -0.500  0.064 -0.357
   - k =  -0.500  0.045 -0.357
   - k =  -0.500  0.027 -0.357
   - k =  -0.500  0.009 -0.357
   - k =  -0.500 -0.009 -0.357
   - k =  -0.500 -0.027 -0.357
   - k =  -0.500 -0.045 -0.357
   - k =  -0.500 -0.064 -0.357
   - k =  -0.500 -0.082 -0.357
   - k =  -0.500 -0.100 -0.357
   - k =  -0.500 -0.118 -0.357
   - k =  -0.500 -0.136 -0.357
   - k =  -0.500 -0.155 -0.357
   - k =  -0.500 -0.173 -0.357
   - k =  -0.500 -0.191 -0.357
   - k =  -0.500 -0.209 -0.357
   - k =  -0.500 -0.227 -0.357
   - k =  -0.500 -0.245 -0.357
   - k =  -0.500 -0.264 -0.357
   - k =  -0.500 -0.282 -0.357
   - k =  -0.500 -0.300 -0.357
   - k =  -0.500 -0.318 -0.357
   - k =  -0.500 -0.336 -0.357
   - k =  -0.500 -0.355 -0.357
   - k =  -0.500 -0.373 -0.357
   - k =  -0.500 -0.391 -0.357
   - k =  -0.500 -0.409 -0.357
   - k =  -0.500 -0.427 -0.357
   - k =  -0.500 -0.445 -0.357
   - k =  -0.500 -0.464 -0.357
   - k =  -0.500 -0.482 -0.357
   - k =  -0.500 -0.500 -0.357

  |-> Computing Wannier center evolution at k-point number:      2

  Treating all   56 k-points in band plot segment #   3:
   Sampling over :
   - k =  -0.500  0.500 -0.214
   - k =  -0.500  0.482 -0.214
   - k =  -0.500  0.464 -0.214
   - k =  -0.500  0.445 -0.214
   - k =  -0.500  0.427 -0.214
   - k =  -0.500  0.409 -0.214
   - k =  -0.500  0.391 -0.214
   - k =  -0.500  0.373 -0.214
   - k =  -0.500  0.355 -0.214
   - k =  -0.500  0.336 -0.214
   - k =  -0.500  0.318 -0.214
   - k =  -0.500  0.300 -0.214
   - k =  -0.500  0.282 -0.214
   - k =  -0.500  0.264 -0.214
   - k =  -0.500  0.245 -0.214
   - k =  -0.500  0.227 -0.214
   - k =  -0.500  0.209 -0.214
   - k =  -0.500  0.191 -0.214
   - k =  -0.500  0.173 -0.214
   - k =  -0.500  0.155 -0.214
   - k =  -0.500  0.136 -0.214
   - k =  -0.500  0.118 -0.214
   - k =  -0.500  0.100 -0.214
   - k =  -0.500  0.082 -0.214
   - k =  -0.500  0.064 -0.214
   - k =  -0.500  0.045 -0.214
   - k =  -0.500  0.027 -0.214
   - k =  -0.500  0.009 -0.214
   - k =  -0.500 -0.009 -0.214
   - k =  -0.500 -0.027 -0.214
   - k =  -0.500 -0.045 -0.214
   - k =  -0.500 -0.064 -0.214
   - k =  -0.500 -0.082 -0.214
   - k =  -0.500 -0.100 -0.214
   - k =  -0.500 -0.118 -0.214
   - k =  -0.500 -0.136 -0.214
   - k =  -0.500 -0.155 -0.214
   - k =  -0.500 -0.173 -0.214
   - k =  -0.500 -0.191 -0.214
   - k =  -0.500 -0.209 -0.214
   - k =  -0.500 -0.227 -0.214
   - k =  -0.500 -0.245 -0.214
   - k =  -0.500 -0.264 -0.214
   - k =  -0.500 -0.282 -0.214
   - k =  -0.500 -0.300 -0.214
   - k =  -0.500 -0.318 -0.214
   - k =  -0.500 -0.336 -0.214
   - k =  -0.500 -0.355 -0.214
   - k =  -0.500 -0.373 -0.214
   - k =  -0.500 -0.391 -0.214
   - k =  -0.500 -0.409 -0.214
   - k =  -0.500 -0.427 -0.214
   - k =  -0.500 -0.445 -0.214
   - k =  -0.500 -0.464 -0.214
   - k =  -0.500 -0.482 -0.214
   - k =  -0.500 -0.500 -0.214

  |-> Computing Wannier center evolution at k-point number:      3

  Treating all   56 k-points in band plot segment #   4:
   Sampling over :
   - k =  -0.500  0.500 -0.071
   - k =  -0.500  0.482 -0.071
   - k =  -0.500  0.464 -0.071
   - k =  -0.500  0.445 -0.071
   - k =  -0.500  0.427 -0.071
   - k =  -0.500  0.409 -0.071
   - k =  -0.500  0.391 -0.071
   - k =  -0.500  0.373 -0.071
   - k =  -0.500  0.355 -0.071
   - k =  -0.500  0.336 -0.071
   - k =  -0.500  0.318 -0.071
   - k =  -0.500  0.300 -0.071
   - k =  -0.500  0.282 -0.071
   - k =  -0.500  0.264 -0.071
   - k =  -0.500  0.245 -0.071
   - k =  -0.500  0.227 -0.071
   - k =  -0.500  0.209 -0.071
   - k =  -0.500  0.191 -0.071
   - k =  -0.500  0.173 -0.071
   - k =  -0.500  0.155 -0.071
   - k =  -0.500  0.136 -0.071
   - k =  -0.500  0.118 -0.071
   - k =  -0.500  0.100 -0.071
   - k =  -0.500  0.082 -0.071
   - k =  -0.500  0.064 -0.071
   - k =  -0.500  0.045 -0.071
   - k =  -0.500  0.027 -0.071
   - k =  -0.500  0.009 -0.071
   - k =  -0.500 -0.009 -0.071
   - k =  -0.500 -0.027 -0.071
   - k =  -0.500 -0.045 -0.071
   - k =  -0.500 -0.064 -0.071
   - k =  -0.500 -0.082 -0.071
   - k =  -0.500 -0.100 -0.071
   - k =  -0.500 -0.118 -0.071
   - k =  -0.500 -0.136 -0.071
   - k =  -0.500 -0.155 -0.071
   - k =  -0.500 -0.173 -0.071
   - k =  -0.500 -0.191 -0.071
   - k =  -0.500 -0.209 -0.071
   - k =  -0.500 -0.227 -0.071
   - k =  -0.500 -0.245 -0.071
   - k =  -0.500 -0.264 -0.071
   - k =  -0.500 -0.282 -0.071
   - k =  -0.500 -0.300 -0.071
   - k =  -0.500 -0.318 -0.071
   - k =  -0.500 -0.336 -0.071
   - k =  -0.500 -0.355 -0.071
   - k =  -0.500 -0.373 -0.071
   - k =  -0.500 -0.391 -0.071
   - k =  -0.500 -0.409 -0.071
   - k =  -0.500 -0.427 -0.071
   - k =  -0.500 -0.445 -0.071
   - k =  -0.500 -0.464 -0.071
   - k =  -0.500 -0.482 -0.071
   - k =  -0.500 -0.500 -0.071

  |-> Computing Wannier center evolution at k-point number:      4

  Treating all   56 k-points in band plot segment #   5:
   Sampling over :
   - k =  -0.500  0.500  0.071
   - k =  -0.500  0.482  0.071
   - k =  -0.500  0.464  0.071
   - k =  -0.500  0.445  0.071
   - k =  -0.500  0.427  0.071
   - k =  -0.500  0.409  0.071
   - k =  -0.500  0.391  0.071
   - k =  -0.500  0.373  0.071
   - k =  -0.500  0.355  0.071
   - k =  -0.500  0.336  0.071
   - k =  -0.500  0.318  0.071
   - k =  -0.500  0.300  0.071
   - k =  -0.500  0.282  0.071
   - k =  -0.500  0.264  0.071
   - k =  -0.500  0.245  0.071
   - k =  -0.500  0.227  0.071
   - k =  -0.500  0.209  0.071
   - k =  -0.500  0.191  0.071
   - k =  -0.500  0.173  0.071
   - k =  -0.500  0.155  0.071
   - k =  -0.500  0.136  0.071
   - k =  -0.500  0.118  0.071
   - k =  -0.500  0.100  0.071
   - k =  -0.500  0.082  0.071
   - k =  -0.500  0.064  0.071
   - k =  -0.500  0.045  0.071
   - k =  -0.500  0.027  0.071
   - k =  -0.500  0.009  0.071
   - k =  -0.500 -0.009  0.071
   - k =  -0.500 -0.027  0.071
   - k =  -0.500 -0.045  0.071
   - k =  -0.500 -0.064  0.071
   - k =  -0.500 -0.082  0.071
   - k =  -0.500 -0.100  0.071
   - k =  -0.500 -0.118  0.071
   - k =  -0.500 -0.136  0.071
   - k =  -0.500 -0.155  0.071
   - k =  -0.500 -0.173  0.071
   - k =  -0.500 -0.191  0.071
   - k =  -0.500 -0.209  0.071
   - k =  -0.500 -0.227  0.071
   - k =  -0.500 -0.245  0.071
   - k =  -0.500 -0.264  0.071
   - k =  -0.500 -0.282  0.071
   - k =  -0.500 -0.300  0.071
   - k =  -0.500 -0.318  0.071
   - k =  -0.500 -0.336  0.071
   - k =  -0.500 -0.355  0.071
   - k =  -0.500 -0.373  0.071
   - k =  -0.500 -0.391  0.071
   - k =  -0.500 -0.409  0.071
   - k =  -0.500 -0.427  0.071
   - k =  -0.500 -0.445  0.071
   - k =  -0.500 -0.464  0.071
   - k =  -0.500 -0.482  0.071
   - k =  -0.500 -0.500  0.071

  |-> Computing Wannier center evolution at k-point number:      5

  Treating all   56 k-points in band plot segment #   6:
   Sampling over :
   - k =  -0.500  0.500  0.214
   - k =  -0.500  0.482  0.214
   - k =  -0.500  0.464  0.214
   - k =  -0.500  0.445  0.214
   - k =  -0.500  0.427  0.214
   - k =  -0.500  0.409  0.214
   - k =  -0.500  0.391  0.214
   - k =  -0.500  0.373  0.214
   - k =  -0.500  0.355  0.214
   - k =  -0.500  0.336  0.214
   - k =  -0.500  0.318  0.214
   - k =  -0.500  0.300  0.214
   - k =  -0.500  0.282  0.214
   - k =  -0.500  0.264  0.214
   - k =  -0.500  0.245  0.214
   - k =  -0.500  0.227  0.214
   - k =  -0.500  0.209  0.214
   - k =  -0.500  0.191  0.214
   - k =  -0.500  0.173  0.214
   - k =  -0.500  0.155  0.214
   - k =  -0.500  0.136  0.214
   - k =  -0.500  0.118  0.214
   - k =  -0.500  0.100  0.214
   - k =  -0.500  0.082  0.214
   - k =  -0.500  0.064  0.214
   - k =  -0.500  0.045  0.214
   - k =  -0.500  0.027  0.214
   - k =  -0.500  0.009  0.214
   - k =  -0.500 -0.009  0.214
   - k =  -0.500 -0.027  0.214
   - k =  -0.500 -0.045  0.214
   - k =  -0.500 -0.064  0.214
   - k =  -0.500 -0.082  0.214
   - k =  -0.500 -0.100  0.214
   - k =  -0.500 -0.118  0.214
   - k =  -0.500 -0.136  0.214
   - k =  -0.500 -0.155  0.214
   - k =  -0.500 -0.173  0.214
   - k =  -0.500 -0.191  0.214
   - k =  -0.500 -0.209  0.214
   - k =  -0.500 -0.227  0.214
   - k =  -0.500 -0.245  0.214
   - k =  -0.500 -0.264  0.214
   - k =  -0.500 -0.282  0.214
   - k =  -0.500 -0.300  0.214
   - k =  -0.500 -0.318  0.214
   - k =  -0.500 -0.336  0.214
   - k =  -0.500 -0.355  0.214
   - k =  -0.500 -0.373  0.214
   - k =  -0.500 -0.391  0.214
   - k =  -0.500 -0.409  0.214
   - k =  -0.500 -0.427  0.214
   - k =  -0.500 -0.445  0.214
   - k =  -0.500 -0.464  0.214
   - k =  -0.500 -0.482  0.214
   - k =  -0.500 -0.500  0.214

  |-> Computing Wannier center evolution at k-point number:      6

  Treating all   56 k-points in band plot segment #   7:
   Sampling over :
   - k =  -0.500  0.500  0.357
   - k =  -0.500  0.482  0.357
   - k =  -0.500  0.464  0.357
   - k =  -0.500  0.445  0.357
   - k =  -0.500  0.427  0.357
   - k =  -0.500  0.409  0.357
   - k =  -0.500  0.391  0.357
   - k =  -0.500  0.373  0.357
   - k =  -0.500  0.355  0.357
   - k =  -0.500  0.336  0.357
   - k =  -0.500  0.318  0.357
   - k =  -0.500  0.300  0.357
   - k =  -0.500  0.282  0.357
   - k =  -0.500  0.264  0.357
   - k =  -0.500  0.245  0.357
   - k =  -0.500  0.227  0.357
   - k =  -0.500  0.209  0.357
   - k =  -0.500  0.191  0.357
   - k =  -0.500  0.173  0.357
   - k =  -0.500  0.155  0.357
   - k =  -0.500  0.136  0.357
   - k =  -0.500  0.118  0.357
   - k =  -0.500  0.100  0.357
   - k =  -0.500  0.082  0.357
   - k =  -0.500  0.064  0.357
   - k =  -0.500  0.045  0.357
   - k =  -0.500  0.027  0.357
   - k =  -0.500  0.009  0.357
   - k =  -0.500 -0.009  0.357
   - k =  -0.500 -0.027  0.357
   - k =  -0.500 -0.045  0.357
   - k =  -0.500 -0.064  0.357
   - k =  -0.500 -0.082  0.357
   - k =  -0.500 -0.100  0.357
   - k =  -0.500 -0.118  0.357
   - k =  -0.500 -0.136  0.357
   - k =  -0.500 -0.155  0.357
   - k =  -0.500 -0.173  0.357
   - k =  -0.500 -0.191  0.357
   - k =  -0.500 -0.209  0.357
   - k =  -0.500 -0.227  0.357
   - k =  -0.500 -0.245  0.357
   - k =  -0.500 -0.264  0.357
   - k =  -0.500 -0.282  0.357
   - k =  -0.500 -0.300  0.357
   - k =  -0.500 -0.318  0.357
   - k =  -0.500 -0.336  0.357
   - k =  -0.500 -0.355  0.357
   - k =  -0.500 -0.373  0.357
   - k =  -0.500 -0.391  0.357
   - k =  -0.500 -0.409  0.357
   - k =  -0.500 -0.427  0.357
   - k =  -0.500 -0.445  0.357
   - k =  -0.500 -0.464  0.357
   - k =  -0.500 -0.482  0.357
   - k =  -0.500 -0.500  0.357

  |-> Computing Wannier center evolution at k-point number:      7

  Treating all   56 k-points in band plot segment #   8:
   Sampling over :
   - k =  -0.500  0.500  0.500
   - k =  -0.500  0.482  0.500
   - k =  -0.500  0.464  0.500
   - k =  -0.500  0.445  0.500
   - k =  -0.500  0.427  0.500
   - k =  -0.500  0.409  0.500
   - k =  -0.500  0.391  0.500
   - k =  -0.500  0.373  0.500
   - k =  -0.500  0.355  0.500
   - k =  -0.500  0.336  0.500
   - k =  -0.500  0.318  0.500
   - k =  -0.500  0.300  0.500
   - k =  -0.500  0.282  0.500
   - k =  -0.500  0.264  0.500
   - k =  -0.500  0.245  0.500
   - k =  -0.500  0.227  0.500
   - k =  -0.500  0.209  0.500
   - k =  -0.500  0.191  0.500
   - k =  -0.500  0.173  0.500
   - k =  -0.500  0.155  0.500
   - k =  -0.500  0.136  0.500
   - k =  -0.500  0.118  0.500
   - k =  -0.500  0.100  0.500
   - k =  -0.500  0.082  0.500
   - k =  -0.500  0.064  0.500
   - k =  -0.500  0.045  0.500
   - k =  -0.500  0.027  0.500
   - k =  -0.500  0.009  0.500
   - k =  -0.500 -0.009  0.500
   - k =  -0.500 -0.027  0.500
   - k =  -0.500 -0.045  0.500
   - k =  -0.500 -0.064  0.500
   - k =  -0.500 -0.082  0.500
   - k =  -0.500 -0.100  0.500
   - k =  -0.500 -0.118  0.500
   - k =  -0.500 -0.136  0.500
   - k =  -0.500 -0.155  0.500
   - k =  -0.500 -0.173  0.500
   - k =  -0.500 -0.191  0.500
   - k =  -0.500 -0.209  0.500
   - k =  -0.500 -0.227  0.500
   - k =  -0.500 -0.245  0.500
   - k =  -0.500 -0.264  0.500
   - k =  -0.500 -0.282  0.500
   - k =  -0.500 -0.300  0.500
   - k =  -0.500 -0.318  0.500
   - k =  -0.500 -0.336  0.500
   - k =  -0.500 -0.355  0.500
   - k =  -0.500 -0.373  0.500
   - k =  -0.500 -0.391  0.500
   - k =  -0.500 -0.409  0.500
   - k =  -0.500 -0.427  0.500
   - k =  -0.500 -0.445  0.500
   - k =  -0.500 -0.464  0.500
   - k =  -0.500 -0.482  0.500
   - k =  -0.500 -0.500  0.500

  |-> Computing Wannier center evolution at k-point number:      8

  Treating all   56 k-points in band plot segment #   9:
   Sampling over :
   - k =  -0.357  0.500 -0.500
   - k =  -0.357  0.482 -0.500
   - k =  -0.357  0.464 -0.500
   - k =  -0.357  0.445 -0.500
   - k =  -0.357  0.427 -0.500
   - k =  -0.357  0.409 -0.500
   - k =  -0.357  0.391 -0.500
   - k =  -0.357  0.373 -0.500
   - k =  -0.357  0.355 -0.500
   - k =  -0.357  0.336 -0.500
   - k =  -0.357  0.318 -0.500
   - k =  -0.357  0.300 -0.500
   - k =  -0.357  0.282 -0.500
   - k =  -0.357  0.264 -0.500
   - k =  -0.357  0.245 -0.500
   - k =  -0.357  0.227 -0.500
   - k =  -0.357  0.209 -0.500
   - k =  -0.357  0.191 -0.500
   - k =  -0.357  0.173 -0.500
   - k =  -0.357  0.155 -0.500
   - k =  -0.357  0.136 -0.500
   - k =  -0.357  0.118 -0.500
   - k =  -0.357  0.100 -0.500
   - k =  -0.357  0.082 -0.500
   - k =  -0.357  0.064 -0.500
   - k =  -0.357  0.045 -0.500
   - k =  -0.357  0.027 -0.500
   - k =  -0.357  0.009 -0.500
   - k =  -0.357 -0.009 -0.500
   - k =  -0.357 -0.027 -0.500
   - k =  -0.357 -0.045 -0.500
   - k =  -0.357 -0.064 -0.500
   - k =  -0.357 -0.082 -0.500
   - k =  -0.357 -0.100 -0.500
   - k =  -0.357 -0.118 -0.500
   - k =  -0.357 -0.136 -0.500
   - k =  -0.357 -0.155 -0.500
   - k =  -0.357 -0.173 -0.500
   - k =  -0.357 -0.191 -0.500
   - k =  -0.357 -0.209 -0.500
   - k =  -0.357 -0.227 -0.500
   - k =  -0.357 -0.245 -0.500
   - k =  -0.357 -0.264 -0.500
   - k =  -0.357 -0.282 -0.500
   - k =  -0.357 -0.300 -0.500
   - k =  -0.357 -0.318 -0.500
   - k =  -0.357 -0.336 -0.500
   - k =  -0.357 -0.355 -0.500
   - k =  -0.357 -0.373 -0.500
   - k =  -0.357 -0.391 -0.500
   - k =  -0.357 -0.409 -0.500
   - k =  -0.357 -0.427 -0.500
   - k =  -0.357 -0.445 -0.500
   - k =  -0.357 -0.464 -0.500
   - k =  -0.357 -0.482 -0.500
   - k =  -0.357 -0.500 -0.500

  |-> Computing Wannier center evolution at k-point number:      9

  Treating all   56 k-points in band plot segment #  10:
   Sampling over :
   - k =  -0.357  0.500 -0.357
   - k =  -0.357  0.482 -0.357
   - k =  -0.357  0.464 -0.357
   - k =  -0.357  0.445 -0.357
   - k =  -0.357  0.427 -0.357
   - k =  -0.357  0.409 -0.357
   - k =  -0.357  0.391 -0.357
   - k =  -0.357  0.373 -0.357
   - k =  -0.357  0.355 -0.357
   - k =  -0.357  0.336 -0.357
   - k =  -0.357  0.318 -0.357
   - k =  -0.357  0.300 -0.357
   - k =  -0.357  0.282 -0.357
   - k =  -0.357  0.264 -0.357
   - k =  -0.357  0.245 -0.357
   - k =  -0.357  0.227 -0.357
   - k =  -0.357  0.209 -0.357
   - k =  -0.357  0.191 -0.357
   - k =  -0.357  0.173 -0.357
   - k =  -0.357  0.155 -0.357
   - k =  -0.357  0.136 -0.357
   - k =  -0.357  0.118 -0.357
   - k =  -0.357  0.100 -0.357
   - k =  -0.357  0.082 -0.357
   - k =  -0.357  0.064 -0.357
   - k =  -0.357  0.045 -0.357
   - k =  -0.357  0.027 -0.357
   - k =  -0.357  0.009 -0.357
   - k =  -0.357 -0.009 -0.357
   - k =  -0.357 -0.027 -0.357
   - k =  -0.357 -0.045 -0.357
   - k =  -0.357 -0.064 -0.357
   - k =  -0.357 -0.082 -0.357
   - k =  -0.357 -0.100 -0.357
   - k =  -0.357 -0.118 -0.357
   - k =  -0.357 -0.136 -0.357
   - k =  -0.357 -0.155 -0.357
   - k =  -0.357 -0.173 -0.357
   - k =  -0.357 -0.191 -0.357
   - k =  -0.357 -0.209 -0.357
   - k =  -0.357 -0.227 -0.357
   - k =  -0.357 -0.245 -0.357
   - k =  -0.357 -0.264 -0.357
   - k =  -0.357 -0.282 -0.357
   - k =  -0.357 -0.300 -0.357
   - k =  -0.357 -0.318 -0.357
   - k =  -0.357 -0.336 -0.357
   - k =  -0.357 -0.355 -0.357
   - k =  -0.357 -0.373 -0.357
   - k =  -0.357 -0.391 -0.357
   - k =  -0.357 -0.409 -0.357
   - k =  -0.357 -0.427 -0.357
   - k =  -0.357 -0.445 -0.357
   - k =  -0.357 -0.464 -0.357
   - k =  -0.357 -0.482 -0.357
   - k =  -0.357 -0.500 -0.357

  |-> Computing Wannier center evolution at k-point number:     10

  Treating all   56 k-points in band plot segment #  11:
   Sampling over :
   - k =  -0.357  0.500 -0.214
   - k =  -0.357  0.482 -0.214
   - k =  -0.357  0.464 -0.214
   - k =  -0.357  0.445 -0.214
   - k =  -0.357  0.427 -0.214
   - k =  -0.357  0.409 -0.214
   - k =  -0.357  0.391 -0.214
   - k =  -0.357  0.373 -0.214
   - k =  -0.357  0.355 -0.214
   - k =  -0.357  0.336 -0.214
   - k =  -0.357  0.318 -0.214
   - k =  -0.357  0.300 -0.214
   - k =  -0.357  0.282 -0.214
   - k =  -0.357  0.264 -0.214
   - k =  -0.357  0.245 -0.214
   - k =  -0.357  0.227 -0.214
   - k =  -0.357  0.209 -0.214
   - k =  -0.357  0.191 -0.214
   - k =  -0.357  0.173 -0.214
   - k =  -0.357  0.155 -0.214
   - k =  -0.357  0.136 -0.214
   - k =  -0.357  0.118 -0.214
   - k =  -0.357  0.100 -0.214
   - k =  -0.357  0.082 -0.214
   - k =  -0.357  0.064 -0.214
   - k =  -0.357  0.045 -0.214
   - k =  -0.357  0.027 -0.214
   - k =  -0.357  0.009 -0.214
   - k =  -0.357 -0.009 -0.214
   - k =  -0.357 -0.027 -0.214
   - k =  -0.357 -0.045 -0.214
   - k =  -0.357 -0.064 -0.214
   - k =  -0.357 -0.082 -0.214
   - k =  -0.357 -0.100 -0.214
   - k =  -0.357 -0.118 -0.214
   - k =  -0.357 -0.136 -0.214
   - k =  -0.357 -0.155 -0.214
   - k =  -0.357 -0.173 -0.214
   - k =  -0.357 -0.191 -0.214
   - k =  -0.357 -0.209 -0.214
   - k =  -0.357 -0.227 -0.214
   - k =  -0.357 -0.245 -0.214
   - k =  -0.357 -0.264 -0.214
   - k =  -0.357 -0.282 -0.214
   - k =  -0.357 -0.300 -0.214
   - k =  -0.357 -0.318 -0.214
   - k =  -0.357 -0.336 -0.214
   - k =  -0.357 -0.355 -0.214
   - k =  -0.357 -0.373 -0.214
   - k =  -0.357 -0.391 -0.214
   - k =  -0.357 -0.409 -0.214
   - k =  -0.357 -0.427 -0.214
   - k =  -0.357 -0.445 -0.214
   - k =  -0.357 -0.464 -0.214
   - k =  -0.357 -0.482 -0.214
   - k =  -0.357 -0.500 -0.214

  |-> Computing Wannier center evolution at k-point number:     11

  Treating all   56 k-points in band plot segment #  12:
   Sampling over :
   - k =  -0.357  0.500 -0.071
   - k =  -0.357  0.482 -0.071
   - k =  -0.357  0.464 -0.071
   - k =  -0.357  0.445 -0.071
   - k =  -0.357  0.427 -0.071
   - k =  -0.357  0.409 -0.071
   - k =  -0.357  0.391 -0.071
   - k =  -0.357  0.373 -0.071
   - k =  -0.357  0.355 -0.071
   - k =  -0.357  0.336 -0.071
   - k =  -0.357  0.318 -0.071
   - k =  -0.357  0.300 -0.071
   - k =  -0.357  0.282 -0.071
   - k =  -0.357  0.264 -0.071
   - k =  -0.357  0.245 -0.071
   - k =  -0.357  0.227 -0.071
   - k =  -0.357  0.209 -0.071
   - k =  -0.357  0.191 -0.071
   - k =  -0.357  0.173 -0.071
   - k =  -0.357  0.155 -0.071
   - k =  -0.357  0.136 -0.071
   - k =  -0.357  0.118 -0.071
   - k =  -0.357  0.100 -0.071
   - k =  -0.357  0.082 -0.071
   - k =  -0.357  0.064 -0.071
   - k =  -0.357  0.045 -0.071
   - k =  -0.357  0.027 -0.071
   - k =  -0.357  0.009 -0.071
   - k =  -0.357 -0.009 -0.071
   - k =  -0.357 -0.027 -0.071
   - k =  -0.357 -0.045 -0.071
   - k =  -0.357 -0.064 -0.071
   - k =  -0.357 -0.082 -0.071
   - k =  -0.357 -0.100 -0.071
   - k =  -0.357 -0.118 -0.071
   - k =  -0.357 -0.136 -0.071
   - k =  -0.357 -0.155 -0.071
   - k =  -0.357 -0.173 -0.071
   - k =  -0.357 -0.191 -0.071
   - k =  -0.357 -0.209 -0.071
   - k =  -0.357 -0.227 -0.071
   - k =  -0.357 -0.245 -0.071
   - k =  -0.357 -0.264 -0.071
   - k =  -0.357 -0.282 -0.071
   - k =  -0.357 -0.300 -0.071
   - k =  -0.357 -0.318 -0.071
   - k =  -0.357 -0.336 -0.071
   - k =  -0.357 -0.355 -0.071
   - k =  -0.357 -0.373 -0.071
   - k =  -0.357 -0.391 -0.071
   - k =  -0.357 -0.409 -0.071
   - k =  -0.357 -0.427 -0.071
   - k =  -0.357 -0.445 -0.071
   - k =  -0.357 -0.464 -0.071
   - k =  -0.357 -0.482 -0.071
   - k =  -0.357 -0.500 -0.071

  |-> Computing Wannier center evolution at k-point number:     12

  Treating all   56 k-points in band plot segment #  13:
   Sampling over :
   - k =  -0.357  0.500  0.071
   - k =  -0.357  0.482  0.071
   - k =  -0.357  0.464  0.071
   - k =  -0.357  0.445  0.071
   - k =  -0.357  0.427  0.071
   - k =  -0.357  0.409  0.071
   - k =  -0.357  0.391  0.071
   - k =  -0.357  0.373  0.071
   - k =  -0.357  0.355  0.071
   - k =  -0.357  0.336  0.071
   - k =  -0.357  0.318  0.071
   - k =  -0.357  0.300  0.071
   - k =  -0.357  0.282  0.071
   - k =  -0.357  0.264  0.071
   - k =  -0.357  0.245  0.071
   - k =  -0.357  0.227  0.071
   - k =  -0.357  0.209  0.071
   - k =  -0.357  0.191  0.071
   - k =  -0.357  0.173  0.071
   - k =  -0.357  0.155  0.071
   - k =  -0.357  0.136  0.071
   - k =  -0.357  0.118  0.071
   - k =  -0.357  0.100  0.071
   - k =  -0.357  0.082  0.071
   - k =  -0.357  0.064  0.071
   - k =  -0.357  0.045  0.071
   - k =  -0.357  0.027  0.071
   - k =  -0.357  0.009  0.071
   - k =  -0.357 -0.009  0.071
   - k =  -0.357 -0.027  0.071
   - k =  -0.357 -0.045  0.071
   - k =  -0.357 -0.064  0.071
   - k =  -0.357 -0.082  0.071
   - k =  -0.357 -0.100  0.071
   - k =  -0.357 -0.118  0.071
   - k =  -0.357 -0.136  0.071
   - k =  -0.357 -0.155  0.071
   - k =  -0.357 -0.173  0.071
   - k =  -0.357 -0.191  0.071
   - k =  -0.357 -0.209  0.071
   - k =  -0.357 -0.227  0.071
   - k =  -0.357 -0.245  0.071
   - k =  -0.357 -0.264  0.071
   - k =  -0.357 -0.282  0.071
   - k =  -0.357 -0.300  0.071
   - k =  -0.357 -0.318  0.071
   - k =  -0.357 -0.336  0.071
   - k =  -0.357 -0.355  0.071
   - k =  -0.357 -0.373  0.071
   - k =  -0.357 -0.391  0.071
   - k =  -0.357 -0.409  0.071
   - k =  -0.357 -0.427  0.071
   - k =  -0.357 -0.445  0.071
   - k =  -0.357 -0.464  0.071
   - k =  -0.357 -0.482  0.071
   - k =  -0.357 -0.500  0.071

  |-> Computing Wannier center evolution at k-point number:     13

  Treating all   56 k-points in band plot segment #  14:
   Sampling over :
   - k =  -0.357  0.500  0.214
   - k =  -0.357  0.482  0.214
   - k =  -0.357  0.464  0.214
   - k =  -0.357  0.445  0.214
   - k =  -0.357  0.427  0.214
   - k =  -0.357  0.409  0.214
   - k =  -0.357  0.391  0.214
   - k =  -0.357  0.373  0.214
   - k =  -0.357  0.355  0.214
   - k =  -0.357  0.336  0.214
   - k =  -0.357  0.318  0.214
   - k =  -0.357  0.300  0.214
   - k =  -0.357  0.282  0.214
   - k =  -0.357  0.264  0.214
   - k =  -0.357  0.245  0.214
   - k =  -0.357  0.227  0.214
   - k =  -0.357  0.209  0.214
   - k =  -0.357  0.191  0.214
   - k =  -0.357  0.173  0.214
   - k =  -0.357  0.155  0.214
   - k =  -0.357  0.136  0.214
   - k =  -0.357  0.118  0.214
   - k =  -0.357  0.100  0.214
   - k =  -0.357  0.082  0.214
   - k =  -0.357  0.064  0.214
   - k =  -0.357  0.045  0.214
   - k =  -0.357  0.027  0.214
   - k =  -0.357  0.009  0.214
   - k =  -0.357 -0.009  0.214
   - k =  -0.357 -0.027  0.214
   - k =  -0.357 -0.045  0.214
   - k =  -0.357 -0.064  0.214
   - k =  -0.357 -0.082  0.214
   - k =  -0.357 -0.100  0.214
   - k =  -0.357 -0.118  0.214
   - k =  -0.357 -0.136  0.214
   - k =  -0.357 -0.155  0.214
   - k =  -0.357 -0.173  0.214
   - k =  -0.357 -0.191  0.214
   - k =  -0.357 -0.209  0.214
   - k =  -0.357 -0.227  0.214
   - k =  -0.357 -0.245  0.214
   - k =  -0.357 -0.264  0.214
   - k =  -0.357 -0.282  0.214
   - k =  -0.357 -0.300  0.214
   - k =  -0.357 -0.318  0.214
   - k =  -0.357 -0.336  0.214
   - k =  -0.357 -0.355  0.214
   - k =  -0.357 -0.373  0.214
   - k =  -0.357 -0.391  0.214
   - k =  -0.357 -0.409  0.214
   - k =  -0.357 -0.427  0.214
   - k =  -0.357 -0.445  0.214
   - k =  -0.357 -0.464  0.214
   - k =  -0.357 -0.482  0.214
   - k =  -0.357 -0.500  0.214

  |-> Computing Wannier center evolution at k-point number:     14

  Treating all   56 k-points in band plot segment #  15:
   Sampling over :
   - k =  -0.357  0.500  0.357
   - k =  -0.357  0.482  0.357
   - k =  -0.357  0.464  0.357
   - k =  -0.357  0.445  0.357
   - k =  -0.357  0.427  0.357
   - k =  -0.357  0.409  0.357
   - k =  -0.357  0.391  0.357
   - k =  -0.357  0.373  0.357
   - k =  -0.357  0.355  0.357
   - k =  -0.357  0.336  0.357
   - k =  -0.357  0.318  0.357
   - k =  -0.357  0.300  0.357
   - k =  -0.357  0.282  0.357
   - k =  -0.357  0.264  0.357
   - k =  -0.357  0.245  0.357
   - k =  -0.357  0.227  0.357
   - k =  -0.357  0.209  0.357
   - k =  -0.357  0.191  0.357
   - k =  -0.357  0.173  0.357
   - k =  -0.357  0.155  0.357
   - k =  -0.357  0.136  0.357
   - k =  -0.357  0.118  0.357
   - k =  -0.357  0.100  0.357
   - k =  -0.357  0.082  0.357
   - k =  -0.357  0.064  0.357
   - k =  -0.357  0.045  0.357
   - k =  -0.357  0.027  0.357
   - k =  -0.357  0.009  0.357
   - k =  -0.357 -0.009  0.357
   - k =  -0.357 -0.027  0.357
   - k =  -0.357 -0.045  0.357
   - k =  -0.357 -0.064  0.357
   - k =  -0.357 -0.082  0.357
   - k =  -0.357 -0.100  0.357
   - k =  -0.357 -0.118  0.357
   - k =  -0.357 -0.136  0.357
   - k =  -0.357 -0.155  0.357
   - k =  -0.357 -0.173  0.357
   - k =  -0.357 -0.191  0.357
   - k =  -0.357 -0.209  0.357
   - k =  -0.357 -0.227  0.357
   - k =  -0.357 -0.245  0.357
   - k =  -0.357 -0.264  0.357
   - k =  -0.357 -0.282  0.357
   - k =  -0.357 -0.300  0.357
   - k =  -0.357 -0.318  0.357
   - k =  -0.357 -0.336  0.357
   - k =  -0.357 -0.355  0.357
   - k =  -0.357 -0.373  0.357
   - k =  -0.357 -0.391  0.357
   - k =  -0.357 -0.409  0.357
   - k =  -0.357 -0.427  0.357
   - k =  -0.357 -0.445  0.357
   - k =  -0.357 -0.464  0.357
   - k =  -0.357 -0.482  0.357
   - k =  -0.357 -0.500  0.357

  |-> Computing Wannier center evolution at k-point number:     15

  Treating all   56 k-points in band plot segment #  16:
   Sampling over :
   - k =  -0.357  0.500  0.500
   - k =  -0.357  0.482  0.500
   - k =  -0.357  0.464  0.500
   - k =  -0.357  0.445  0.500
   - k =  -0.357  0.427  0.500
   - k =  -0.357  0.409  0.500
   - k =  -0.357  0.391  0.500
   - k =  -0.357  0.373  0.500
   - k =  -0.357  0.355  0.500
   - k =  -0.357  0.336  0.500
   - k =  -0.357  0.318  0.500
   - k =  -0.357  0.300  0.500
   - k =  -0.357  0.282  0.500
   - k =  -0.357  0.264  0.500
   - k =  -0.357  0.245  0.500
   - k =  -0.357  0.227  0.500
   - k =  -0.357  0.209  0.500
   - k =  -0.357  0.191  0.500
   - k =  -0.357  0.173  0.500
   - k =  -0.357  0.155  0.500
   - k =  -0.357  0.136  0.500
   - k =  -0.357  0.118  0.500
   - k =  -0.357  0.100  0.500
   - k =  -0.357  0.082  0.500
   - k =  -0.357  0.064  0.500
   - k =  -0.357  0.045  0.500
   - k =  -0.357  0.027  0.500
   - k =  -0.357  0.009  0.500
   - k =  -0.357 -0.009  0.500
   - k =  -0.357 -0.027  0.500
   - k =  -0.357 -0.045  0.500
   - k =  -0.357 -0.064  0.500
   - k =  -0.357 -0.082  0.500
   - k =  -0.357 -0.100  0.500
   - k =  -0.357 -0.118  0.500
   - k =  -0.357 -0.136  0.500
   - k =  -0.357 -0.155  0.500
   - k =  -0.357 -0.173  0.500
   - k =  -0.357 -0.191  0.500
   - k =  -0.357 -0.209  0.500
   - k =  -0.357 -0.227  0.500
   - k =  -0.357 -0.245  0.500
   - k =  -0.357 -0.264  0.500
   - k =  -0.357 -0.282  0.500
   - k =  -0.357 -0.300  0.500
   - k =  -0.357 -0.318  0.500
   - k =  -0.357 -0.336  0.500
   - k =  -0.357 -0.355  0.500
   - k =  -0.357 -0.373  0.500
   - k =  -0.357 -0.391  0.500
   - k =  -0.357 -0.409  0.500
   - k =  -0.357 -0.427  0.500
   - k =  -0.357 -0.445  0.500
   - k =  -0.357 -0.464  0.500
   - k =  -0.357 -0.482  0.500
   - k =  -0.357 -0.500  0.500

  |-> Computing Wannier center evolution at k-point number:     16

  Treating all   56 k-points in band plot segment #  17:
   Sampling over :
   - k =  -0.214  0.500 -0.500
   - k =  -0.214  0.482 -0.500
   - k =  -0.214  0.464 -0.500
   - k =  -0.214  0.445 -0.500
   - k =  -0.214  0.427 -0.500
   - k =  -0.214  0.409 -0.500
   - k =  -0.214  0.391 -0.500
   - k =  -0.214  0.373 -0.500
   - k =  -0.214  0.355 -0.500
   - k =  -0.214  0.336 -0.500
   - k =  -0.214  0.318 -0.500
   - k =  -0.214  0.300 -0.500
   - k =  -0.214  0.282 -0.500
   - k =  -0.214  0.264 -0.500
   - k =  -0.214  0.245 -0.500
   - k =  -0.214  0.227 -0.500
   - k =  -0.214  0.209 -0.500
   - k =  -0.214  0.191 -0.500
   - k =  -0.214  0.173 -0.500
   - k =  -0.214  0.155 -0.500
   - k =  -0.214  0.136 -0.500
   - k =  -0.214  0.118 -0.500
   - k =  -0.214  0.100 -0.500
   - k =  -0.214  0.082 -0.500
   - k =  -0.214  0.064 -0.500
   - k =  -0.214  0.045 -0.500
   - k =  -0.214  0.027 -0.500
   - k =  -0.214  0.009 -0.500
   - k =  -0.214 -0.009 -0.500
   - k =  -0.214 -0.027 -0.500
   - k =  -0.214 -0.045 -0.500
   - k =  -0.214 -0.064 -0.500
   - k =  -0.214 -0.082 -0.500
   - k =  -0.214 -0.100 -0.500
   - k =  -0.214 -0.118 -0.500
   - k =  -0.214 -0.136 -0.500
   - k =  -0.214 -0.155 -0.500
   - k =  -0.214 -0.173 -0.500
   - k =  -0.214 -0.191 -0.500
   - k =  -0.214 -0.209 -0.500
   - k =  -0.214 -0.227 -0.500
   - k =  -0.214 -0.245 -0.500
   - k =  -0.214 -0.264 -0.500
   - k =  -0.214 -0.282 -0.500
   - k =  -0.214 -0.300 -0.500
   - k =  -0.214 -0.318 -0.500
   - k =  -0.214 -0.336 -0.500
   - k =  -0.214 -0.355 -0.500
   - k =  -0.214 -0.373 -0.500
   - k =  -0.214 -0.391 -0.500
   - k =  -0.214 -0.409 -0.500
   - k =  -0.214 -0.427 -0.500
   - k =  -0.214 -0.445 -0.500
   - k =  -0.214 -0.464 -0.500
   - k =  -0.214 -0.482 -0.500
   - k =  -0.214 -0.500 -0.500

  |-> Computing Wannier center evolution at k-point number:     17

  Treating all   56 k-points in band plot segment #  18:
   Sampling over :
   - k =  -0.214  0.500 -0.357
   - k =  -0.214  0.482 -0.357
   - k =  -0.214  0.464 -0.357
   - k =  -0.214  0.445 -0.357
   - k =  -0.214  0.427 -0.357
   - k =  -0.214  0.409 -0.357
   - k =  -0.214  0.391 -0.357
   - k =  -0.214  0.373 -0.357
   - k =  -0.214  0.355 -0.357
   - k =  -0.214  0.336 -0.357
   - k =  -0.214  0.318 -0.357
   - k =  -0.214  0.300 -0.357
   - k =  -0.214  0.282 -0.357
   - k =  -0.214  0.264 -0.357
   - k =  -0.214  0.245 -0.357
   - k =  -0.214  0.227 -0.357
   - k =  -0.214  0.209 -0.357
   - k =  -0.214  0.191 -0.357
   - k =  -0.214  0.173 -0.357
   - k =  -0.214  0.155 -0.357
   - k =  -0.214  0.136 -0.357
   - k =  -0.214  0.118 -0.357
   - k =  -0.214  0.100 -0.357
   - k =  -0.214  0.082 -0.357
   - k =  -0.214  0.064 -0.357
   - k =  -0.214  0.045 -0.357
   - k =  -0.214  0.027 -0.357
   - k =  -0.214  0.009 -0.357
   - k =  -0.214 -0.009 -0.357
   - k =  -0.214 -0.027 -0.357
   - k =  -0.214 -0.045 -0.357
   - k =  -0.214 -0.064 -0.357
   - k =  -0.214 -0.082 -0.357
   - k =  -0.214 -0.100 -0.357
   - k =  -0.214 -0.118 -0.357
   - k =  -0.214 -0.136 -0.357
   - k =  -0.214 -0.155 -0.357
   - k =  -0.214 -0.173 -0.357
   - k =  -0.214 -0.191 -0.357
   - k =  -0.214 -0.209 -0.357
   - k =  -0.214 -0.227 -0.357
   - k =  -0.214 -0.245 -0.357
   - k =  -0.214 -0.264 -0.357
   - k =  -0.214 -0.282 -0.357
   - k =  -0.214 -0.300 -0.357
   - k =  -0.214 -0.318 -0.357
   - k =  -0.214 -0.336 -0.357
   - k =  -0.214 -0.355 -0.357
   - k =  -0.214 -0.373 -0.357
   - k =  -0.214 -0.391 -0.357
   - k =  -0.214 -0.409 -0.357
   - k =  -0.214 -0.427 -0.357
   - k =  -0.214 -0.445 -0.357
   - k =  -0.214 -0.464 -0.357
   - k =  -0.214 -0.482 -0.357
   - k =  -0.214 -0.500 -0.357

  |-> Computing Wannier center evolution at k-point number:     18

  Treating all   56 k-points in band plot segment #  19:
   Sampling over :
   - k =  -0.214  0.500 -0.214
   - k =  -0.214  0.482 -0.214
   - k =  -0.214  0.464 -0.214
   - k =  -0.214  0.445 -0.214
   - k =  -0.214  0.427 -0.214
   - k =  -0.214  0.409 -0.214
   - k =  -0.214  0.391 -0.214
   - k =  -0.214  0.373 -0.214
   - k =  -0.214  0.355 -0.214
   - k =  -0.214  0.336 -0.214
   - k =  -0.214  0.318 -0.214
   - k =  -0.214  0.300 -0.214
   - k =  -0.214  0.282 -0.214
   - k =  -0.214  0.264 -0.214
   - k =  -0.214  0.245 -0.214
   - k =  -0.214  0.227 -0.214
   - k =  -0.214  0.209 -0.214
   - k =  -0.214  0.191 -0.214
   - k =  -0.214  0.173 -0.214
   - k =  -0.214  0.155 -0.214
   - k =  -0.214  0.136 -0.214
   - k =  -0.214  0.118 -0.214
   - k =  -0.214  0.100 -0.214
   - k =  -0.214  0.082 -0.214
   - k =  -0.214  0.064 -0.214
   - k =  -0.214  0.045 -0.214
   - k =  -0.214  0.027 -0.214
   - k =  -0.214  0.009 -0.214
   - k =  -0.214 -0.009 -0.214
   - k =  -0.214 -0.027 -0.214
   - k =  -0.214 -0.045 -0.214
   - k =  -0.214 -0.064 -0.214
   - k =  -0.214 -0.082 -0.214
   - k =  -0.214 -0.100 -0.214
   - k =  -0.214 -0.118 -0.214
   - k =  -0.214 -0.136 -0.214
   - k =  -0.214 -0.155 -0.214
   - k =  -0.214 -0.173 -0.214
   - k =  -0.214 -0.191 -0.214
   - k =  -0.214 -0.209 -0.214
   - k =  -0.214 -0.227 -0.214
   - k =  -0.214 -0.245 -0.214
   - k =  -0.214 -0.264 -0.214
   - k =  -0.214 -0.282 -0.214
   - k =  -0.214 -0.300 -0.214
   - k =  -0.214 -0.318 -0.214
   - k =  -0.214 -0.336 -0.214
   - k =  -0.214 -0.355 -0.214
   - k =  -0.214 -0.373 -0.214
   - k =  -0.214 -0.391 -0.214
   - k =  -0.214 -0.409 -0.214
   - k =  -0.214 -0.427 -0.214
   - k =  -0.214 -0.445 -0.214
   - k =  -0.214 -0.464 -0.214
   - k =  -0.214 -0.482 -0.214
   - k =  -0.214 -0.500 -0.214

  |-> Computing Wannier center evolution at k-point number:     19

  Treating all   56 k-points in band plot segment #  20:
   Sampling over :
   - k =  -0.214  0.500 -0.071
   - k =  -0.214  0.482 -0.071
   - k =  -0.214  0.464 -0.071
   - k =  -0.214  0.445 -0.071
   - k =  -0.214  0.427 -0.071
   - k =  -0.214  0.409 -0.071
   - k =  -0.214  0.391 -0.071
   - k =  -0.214  0.373 -0.071
   - k =  -0.214  0.355 -0.071
   - k =  -0.214  0.336 -0.071
   - k =  -0.214  0.318 -0.071
   - k =  -0.214  0.300 -0.071
   - k =  -0.214  0.282 -0.071
   - k =  -0.214  0.264 -0.071
   - k =  -0.214  0.245 -0.071
   - k =  -0.214  0.227 -0.071
   - k =  -0.214  0.209 -0.071
   - k =  -0.214  0.191 -0.071
   - k =  -0.214  0.173 -0.071
   - k =  -0.214  0.155 -0.071
   - k =  -0.214  0.136 -0.071
   - k =  -0.214  0.118 -0.071
   - k =  -0.214  0.100 -0.071
   - k =  -0.214  0.082 -0.071
   - k =  -0.214  0.064 -0.071
   - k =  -0.214  0.045 -0.071
   - k =  -0.214  0.027 -0.071
   - k =  -0.214  0.009 -0.071
   - k =  -0.214 -0.009 -0.071
   - k =  -0.214 -0.027 -0.071
   - k =  -0.214 -0.045 -0.071
   - k =  -0.214 -0.064 -0.071
   - k =  -0.214 -0.082 -0.071
   - k =  -0.214 -0.100 -0.071
   - k =  -0.214 -0.118 -0.071
   - k =  -0.214 -0.136 -0.071
   - k =  -0.214 -0.155 -0.071
   - k =  -0.214 -0.173 -0.071
   - k =  -0.214 -0.191 -0.071
   - k =  -0.214 -0.209 -0.071
   - k =  -0.214 -0.227 -0.071
   - k =  -0.214 -0.245 -0.071
   - k =  -0.214 -0.264 -0.071
   - k =  -0.214 -0.282 -0.071
   - k =  -0.214 -0.300 -0.071
   - k =  -0.214 -0.318 -0.071
   - k =  -0.214 -0.336 -0.071
   - k =  -0.214 -0.355 -0.071
   - k =  -0.214 -0.373 -0.071
   - k =  -0.214 -0.391 -0.071
   - k =  -0.214 -0.409 -0.071
   - k =  -0.214 -0.427 -0.071
   - k =  -0.214 -0.445 -0.071
   - k =  -0.214 -0.464 -0.071
   - k =  -0.214 -0.482 -0.071
   - k =  -0.214 -0.500 -0.071

  |-> Computing Wannier center evolution at k-point number:     20

  Treating all   56 k-points in band plot segment #  21:
   Sampling over :
   - k =  -0.214  0.500  0.071
   - k =  -0.214  0.482  0.071
   - k =  -0.214  0.464  0.071
   - k =  -0.214  0.445  0.071
   - k =  -0.214  0.427  0.071
   - k =  -0.214  0.409  0.071
   - k =  -0.214  0.391  0.071
   - k =  -0.214  0.373  0.071
   - k =  -0.214  0.355  0.071
   - k =  -0.214  0.336  0.071
   - k =  -0.214  0.318  0.071
   - k =  -0.214  0.300  0.071
   - k =  -0.214  0.282  0.071
   - k =  -0.214  0.264  0.071
   - k =  -0.214  0.245  0.071
   - k =  -0.214  0.227  0.071
   - k =  -0.214  0.209  0.071
   - k =  -0.214  0.191  0.071
   - k =  -0.214  0.173  0.071
   - k =  -0.214  0.155  0.071
   - k =  -0.214  0.136  0.071
   - k =  -0.214  0.118  0.071
   - k =  -0.214  0.100  0.071
   - k =  -0.214  0.082  0.071
   - k =  -0.214  0.064  0.071
   - k =  -0.214  0.045  0.071
   - k =  -0.214  0.027  0.071
   - k =  -0.214  0.009  0.071
   - k =  -0.214 -0.009  0.071
   - k =  -0.214 -0.027  0.071
   - k =  -0.214 -0.045  0.071
   - k =  -0.214 -0.064  0.071
   - k =  -0.214 -0.082  0.071
   - k =  -0.214 -0.100  0.071
   - k =  -0.214 -0.118  0.071
   - k =  -0.214 -0.136  0.071
   - k =  -0.214 -0.155  0.071
   - k =  -0.214 -0.173  0.071
   - k =  -0.214 -0.191  0.071
   - k =  -0.214 -0.209  0.071
   - k =  -0.214 -0.227  0.071
   - k =  -0.214 -0.245  0.071
   - k =  -0.214 -0.264  0.071
   - k =  -0.214 -0.282  0.071
   - k =  -0.214 -0.300  0.071
   - k =  -0.214 -0.318  0.071
   - k =  -0.214 -0.336  0.071
   - k =  -0.214 -0.355  0.071
   - k =  -0.214 -0.373  0.071
   - k =  -0.214 -0.391  0.071
   - k =  -0.214 -0.409  0.071
   - k =  -0.214 -0.427  0.071
   - k =  -0.214 -0.445  0.071
   - k =  -0.214 -0.464  0.071
   - k =  -0.214 -0.482  0.071
   - k =  -0.214 -0.500  0.071

  |-> Computing Wannier center evolution at k-point number:     21

  Treating all   56 k-points in band plot segment #  22:
   Sampling over :
   - k =  -0.214  0.500  0.214
   - k =  -0.214  0.482  0.214
   - k =  -0.214  0.464  0.214
   - k =  -0.214  0.445  0.214
   - k =  -0.214  0.427  0.214
   - k =  -0.214  0.409  0.214
   - k =  -0.214  0.391  0.214
   - k =  -0.214  0.373  0.214
   - k =  -0.214  0.355  0.214
   - k =  -0.214  0.336  0.214
   - k =  -0.214  0.318  0.214
   - k =  -0.214  0.300  0.214
   - k =  -0.214  0.282  0.214
   - k =  -0.214  0.264  0.214
   - k =  -0.214  0.245  0.214
   - k =  -0.214  0.227  0.214
   - k =  -0.214  0.209  0.214
   - k =  -0.214  0.191  0.214
   - k =  -0.214  0.173  0.214
   - k =  -0.214  0.155  0.214
   - k =  -0.214  0.136  0.214
   - k =  -0.214  0.118  0.214
   - k =  -0.214  0.100  0.214
   - k =  -0.214  0.082  0.214
   - k =  -0.214  0.064  0.214
   - k =  -0.214  0.045  0.214
   - k =  -0.214  0.027  0.214
   - k =  -0.214  0.009  0.214
   - k =  -0.214 -0.009  0.214
   - k =  -0.214 -0.027  0.214
   - k =  -0.214 -0.045  0.214
   - k =  -0.214 -0.064  0.214
   - k =  -0.214 -0.082  0.214
   - k =  -0.214 -0.100  0.214
   - k =  -0.214 -0.118  0.214
   - k =  -0.214 -0.136  0.214
   - k =  -0.214 -0.155  0.214
   - k =  -0.214 -0.173  0.214
   - k =  -0.214 -0.191  0.214
   - k =  -0.214 -0.209  0.214
   - k =  -0.214 -0.227  0.214
   - k =  -0.214 -0.245  0.214
   - k =  -0.214 -0.264  0.214
   - k =  -0.214 -0.282  0.214
   - k =  -0.214 -0.300  0.214
   - k =  -0.214 -0.318  0.214
   - k =  -0.214 -0.336  0.214
   - k =  -0.214 -0.355  0.214
   - k =  -0.214 -0.373  0.214
   - k =  -0.214 -0.391  0.214
   - k =  -0.214 -0.409  0.214
   - k =  -0.214 -0.427  0.214
   - k =  -0.214 -0.445  0.214
   - k =  -0.214 -0.464  0.214
   - k =  -0.214 -0.482  0.214
   - k =  -0.214 -0.500  0.214

  |-> Computing Wannier center evolution at k-point number:     22

  Treating all   56 k-points in band plot segment #  23:
   Sampling over :
   - k =  -0.214  0.500  0.357
   - k =  -0.214  0.482  0.357
   - k =  -0.214  0.464  0.357
   - k =  -0.214  0.445  0.357
   - k =  -0.214  0.427  0.357
   - k =  -0.214  0.409  0.357
   - k =  -0.214  0.391  0.357
   - k =  -0.214  0.373  0.357
   - k =  -0.214  0.355  0.357
   - k =  -0.214  0.336  0.357
   - k =  -0.214  0.318  0.357
   - k =  -0.214  0.300  0.357
   - k =  -0.214  0.282  0.357
   - k =  -0.214  0.264  0.357
   - k =  -0.214  0.245  0.357
   - k =  -0.214  0.227  0.357
   - k =  -0.214  0.209  0.357
   - k =  -0.214  0.191  0.357
   - k =  -0.214  0.173  0.357
   - k =  -0.214  0.155  0.357
   - k =  -0.214  0.136  0.357
   - k =  -0.214  0.118  0.357
   - k =  -0.214  0.100  0.357
   - k =  -0.214  0.082  0.357
   - k =  -0.214  0.064  0.357
   - k =  -0.214  0.045  0.357
   - k =  -0.214  0.027  0.357
   - k =  -0.214  0.009  0.357
   - k =  -0.214 -0.009  0.357
   - k =  -0.214 -0.027  0.357
   - k =  -0.214 -0.045  0.357
   - k =  -0.214 -0.064  0.357
   - k =  -0.214 -0.082  0.357
   - k =  -0.214 -0.100  0.357
   - k =  -0.214 -0.118  0.357
   - k =  -0.214 -0.136  0.357
   - k =  -0.214 -0.155  0.357
   - k =  -0.214 -0.173  0.357
   - k =  -0.214 -0.191  0.357
   - k =  -0.214 -0.209  0.357
   - k =  -0.214 -0.227  0.357
   - k =  -0.214 -0.245  0.357
   - k =  -0.214 -0.264  0.357
   - k =  -0.214 -0.282  0.357
   - k =  -0.214 -0.300  0.357
   - k =  -0.214 -0.318  0.357
   - k =  -0.214 -0.336  0.357
   - k =  -0.214 -0.355  0.357
   - k =  -0.214 -0.373  0.357
   - k =  -0.214 -0.391  0.357
   - k =  -0.214 -0.409  0.357
   - k =  -0.214 -0.427  0.357
   - k =  -0.214 -0.445  0.357
   - k =  -0.214 -0.464  0.357
   - k =  -0.214 -0.482  0.357
   - k =  -0.214 -0.500  0.357

  |-> Computing Wannier center evolution at k-point number:     23

  Treating all   56 k-points in band plot segment #  24:
   Sampling over :
   - k =  -0.214  0.500  0.500
   - k =  -0.214  0.482  0.500
   - k =  -0.214  0.464  0.500
   - k =  -0.214  0.445  0.500
   - k =  -0.214  0.427  0.500
   - k =  -0.214  0.409  0.500
   - k =  -0.214  0.391  0.500
   - k =  -0.214  0.373  0.500
   - k =  -0.214  0.355  0.500
   - k =  -0.214  0.336  0.500
   - k =  -0.214  0.318  0.500
   - k =  -0.214  0.300  0.500
   - k =  -0.214  0.282  0.500
   - k =  -0.214  0.264  0.500
   - k =  -0.214  0.245  0.500
   - k =  -0.214  0.227  0.500
   - k =  -0.214  0.209  0.500
   - k =  -0.214  0.191  0.500
   - k =  -0.214  0.173  0.500
   - k =  -0.214  0.155  0.500
   - k =  -0.214  0.136  0.500
   - k =  -0.214  0.118  0.500
   - k =  -0.214  0.100  0.500
   - k =  -0.214  0.082  0.500
   - k =  -0.214  0.064  0.500
   - k =  -0.214  0.045  0.500
   - k =  -0.214  0.027  0.500
   - k =  -0.214  0.009  0.500
   - k =  -0.214 -0.009  0.500
   - k =  -0.214 -0.027  0.500
   - k =  -0.214 -0.045  0.500
   - k =  -0.214 -0.064  0.500
   - k =  -0.214 -0.082  0.500
   - k =  -0.214 -0.100  0.500
   - k =  -0.214 -0.118  0.500
   - k =  -0.214 -0.136  0.500
   - k =  -0.214 -0.155  0.500
   - k =  -0.214 -0.173  0.500
   - k =  -0.214 -0.191  0.500
   - k =  -0.214 -0.209  0.500
   - k =  -0.214 -0.227  0.500
   - k =  -0.214 -0.245  0.500
   - k =  -0.214 -0.264  0.500
   - k =  -0.214 -0.282  0.500
   - k =  -0.214 -0.300  0.500
   - k =  -0.214 -0.318  0.500
   - k =  -0.214 -0.336  0.500
   - k =  -0.214 -0.355  0.500
   - k =  -0.214 -0.373  0.500
   - k =  -0.214 -0.391  0.500
   - k =  -0.214 -0.409  0.500
   - k =  -0.214 -0.427  0.500
   - k =  -0.214 -0.445  0.500
   - k =  -0.214 -0.464  0.500
   - k =  -0.214 -0.482  0.500
   - k =  -0.214 -0.500  0.500

  |-> Computing Wannier center evolution at k-point number:     24

  Treating all   56 k-points in band plot segment #  25:
   Sampling over :
   - k =  -0.071  0.500 -0.500
   - k =  -0.071  0.482 -0.500
   - k =  -0.071  0.464 -0.500
   - k =  -0.071  0.445 -0.500
   - k =  -0.071  0.427 -0.500
   - k =  -0.071  0.409 -0.500
   - k =  -0.071  0.391 -0.500
   - k =  -0.071  0.373 -0.500
   - k =  -0.071  0.355 -0.500
   - k =  -0.071  0.336 -0.500
   - k =  -0.071  0.318 -0.500
   - k =  -0.071  0.300 -0.500
   - k =  -0.071  0.282 -0.500
   - k =  -0.071  0.264 -0.500
   - k =  -0.071  0.245 -0.500
   - k =  -0.071  0.227 -0.500
   - k =  -0.071  0.209 -0.500
   - k =  -0.071  0.191 -0.500
   - k =  -0.071  0.173 -0.500
   - k =  -0.071  0.155 -0.500
   - k =  -0.071  0.136 -0.500
   - k =  -0.071  0.118 -0.500
   - k =  -0.071  0.100 -0.500
   - k =  -0.071  0.082 -0.500
   - k =  -0.071  0.064 -0.500
   - k =  -0.071  0.045 -0.500
   - k =  -0.071  0.027 -0.500
   - k =  -0.071  0.009 -0.500
   - k =  -0.071 -0.009 -0.500
   - k =  -0.071 -0.027 -0.500
   - k =  -0.071 -0.045 -0.500
   - k =  -0.071 -0.064 -0.500
   - k =  -0.071 -0.082 -0.500
   - k =  -0.071 -0.100 -0.500
   - k =  -0.071 -0.118 -0.500
   - k =  -0.071 -0.136 -0.500
   - k =  -0.071 -0.155 -0.500
   - k =  -0.071 -0.173 -0.500
   - k =  -0.071 -0.191 -0.500
   - k =  -0.071 -0.209 -0.500
   - k =  -0.071 -0.227 -0.500
   - k =  -0.071 -0.245 -0.500
   - k =  -0.071 -0.264 -0.500
   - k =  -0.071 -0.282 -0.500
   - k =  -0.071 -0.300 -0.500
   - k =  -0.071 -0.318 -0.500
   - k =  -0.071 -0.336 -0.500
   - k =  -0.071 -0.355 -0.500
   - k =  -0.071 -0.373 -0.500
   - k =  -0.071 -0.391 -0.500
   - k =  -0.071 -0.409 -0.500
   - k =  -0.071 -0.427 -0.500
   - k =  -0.071 -0.445 -0.500
   - k =  -0.071 -0.464 -0.500
   - k =  -0.071 -0.482 -0.500
   - k =  -0.071 -0.500 -0.500

  |-> Computing Wannier center evolution at k-point number:     25

  Treating all   56 k-points in band plot segment #  26:
   Sampling over :
   - k =  -0.071  0.500 -0.357
   - k =  -0.071  0.482 -0.357
   - k =  -0.071  0.464 -0.357
   - k =  -0.071  0.445 -0.357
   - k =  -0.071  0.427 -0.357
   - k =  -0.071  0.409 -0.357
   - k =  -0.071  0.391 -0.357
   - k =  -0.071  0.373 -0.357
   - k =  -0.071  0.355 -0.357
   - k =  -0.071  0.336 -0.357
   - k =  -0.071  0.318 -0.357
   - k =  -0.071  0.300 -0.357
   - k =  -0.071  0.282 -0.357
   - k =  -0.071  0.264 -0.357
   - k =  -0.071  0.245 -0.357
   - k =  -0.071  0.227 -0.357
   - k =  -0.071  0.209 -0.357
   - k =  -0.071  0.191 -0.357
   - k =  -0.071  0.173 -0.357
   - k =  -0.071  0.155 -0.357
   - k =  -0.071  0.136 -0.357
   - k =  -0.071  0.118 -0.357
   - k =  -0.071  0.100 -0.357
   - k =  -0.071  0.082 -0.357
   - k =  -0.071  0.064 -0.357
   - k =  -0.071  0.045 -0.357
   - k =  -0.071  0.027 -0.357
   - k =  -0.071  0.009 -0.357
   - k =  -0.071 -0.009 -0.357
   - k =  -0.071 -0.027 -0.357
   - k =  -0.071 -0.045 -0.357
   - k =  -0.071 -0.064 -0.357
   - k =  -0.071 -0.082 -0.357
   - k =  -0.071 -0.100 -0.357
   - k =  -0.071 -0.118 -0.357
   - k =  -0.071 -0.136 -0.357
   - k =  -0.071 -0.155 -0.357
   - k =  -0.071 -0.173 -0.357
   - k =  -0.071 -0.191 -0.357
   - k =  -0.071 -0.209 -0.357
   - k =  -0.071 -0.227 -0.357
   - k =  -0.071 -0.245 -0.357
   - k =  -0.071 -0.264 -0.357
   - k =  -0.071 -0.282 -0.357
   - k =  -0.071 -0.300 -0.357
   - k =  -0.071 -0.318 -0.357
   - k =  -0.071 -0.336 -0.357
   - k =  -0.071 -0.355 -0.357
   - k =  -0.071 -0.373 -0.357
   - k =  -0.071 -0.391 -0.357
   - k =  -0.071 -0.409 -0.357
   - k =  -0.071 -0.427 -0.357
   - k =  -0.071 -0.445 -0.357
   - k =  -0.071 -0.464 -0.357
   - k =  -0.071 -0.482 -0.357
   - k =  -0.071 -0.500 -0.357

  |-> Computing Wannier center evolution at k-point number:     26

  Treating all   56 k-points in band plot segment #  27:
   Sampling over :
   - k =  -0.071  0.500 -0.214
   - k =  -0.071  0.482 -0.214
   - k =  -0.071  0.464 -0.214
   - k =  -0.071  0.445 -0.214
   - k =  -0.071  0.427 -0.214
   - k =  -0.071  0.409 -0.214
   - k =  -0.071  0.391 -0.214
   - k =  -0.071  0.373 -0.214
   - k =  -0.071  0.355 -0.214
   - k =  -0.071  0.336 -0.214
   - k =  -0.071  0.318 -0.214
   - k =  -0.071  0.300 -0.214
   - k =  -0.071  0.282 -0.214
   - k =  -0.071  0.264 -0.214
   - k =  -0.071  0.245 -0.214
   - k =  -0.071  0.227 -0.214
   - k =  -0.071  0.209 -0.214
   - k =  -0.071  0.191 -0.214
   - k =  -0.071  0.173 -0.214
   - k =  -0.071  0.155 -0.214
   - k =  -0.071  0.136 -0.214
   - k =  -0.071  0.118 -0.214
   - k =  -0.071  0.100 -0.214
   - k =  -0.071  0.082 -0.214
   - k =  -0.071  0.064 -0.214
   - k =  -0.071  0.045 -0.214
   - k =  -0.071  0.027 -0.214
   - k =  -0.071  0.009 -0.214
   - k =  -0.071 -0.009 -0.214
   - k =  -0.071 -0.027 -0.214
   - k =  -0.071 -0.045 -0.214
   - k =  -0.071 -0.064 -0.214
   - k =  -0.071 -0.082 -0.214
   - k =  -0.071 -0.100 -0.214
   - k =  -0.071 -0.118 -0.214
   - k =  -0.071 -0.136 -0.214
   - k =  -0.071 -0.155 -0.214
   - k =  -0.071 -0.173 -0.214
   - k =  -0.071 -0.191 -0.214
   - k =  -0.071 -0.209 -0.214
   - k =  -0.071 -0.227 -0.214
   - k =  -0.071 -0.245 -0.214
   - k =  -0.071 -0.264 -0.214
   - k =  -0.071 -0.282 -0.214
   - k =  -0.071 -0.300 -0.214
   - k =  -0.071 -0.318 -0.214
   - k =  -0.071 -0.336 -0.214
   - k =  -0.071 -0.355 -0.214
   - k =  -0.071 -0.373 -0.214
   - k =  -0.071 -0.391 -0.214
   - k =  -0.071 -0.409 -0.214
   - k =  -0.071 -0.427 -0.214
   - k =  -0.071 -0.445 -0.214
   - k =  -0.071 -0.464 -0.214
   - k =  -0.071 -0.482 -0.214
   - k =  -0.071 -0.500 -0.214

  |-> Computing Wannier center evolution at k-point number:     27

  Treating all   56 k-points in band plot segment #  28:
   Sampling over :
   - k =  -0.071  0.500 -0.071
   - k =  -0.071  0.482 -0.071
   - k =  -0.071  0.464 -0.071
   - k =  -0.071  0.445 -0.071
   - k =  -0.071  0.427 -0.071
   - k =  -0.071  0.409 -0.071
   - k =  -0.071  0.391 -0.071
   - k =  -0.071  0.373 -0.071
   - k =  -0.071  0.355 -0.071
   - k =  -0.071  0.336 -0.071
   - k =  -0.071  0.318 -0.071
   - k =  -0.071  0.300 -0.071
   - k =  -0.071  0.282 -0.071
   - k =  -0.071  0.264 -0.071
   - k =  -0.071  0.245 -0.071
   - k =  -0.071  0.227 -0.071
   - k =  -0.071  0.209 -0.071
   - k =  -0.071  0.191 -0.071
   - k =  -0.071  0.173 -0.071
   - k =  -0.071  0.155 -0.071
   - k =  -0.071  0.136 -0.071
   - k =  -0.071  0.118 -0.071
   - k =  -0.071  0.100 -0.071
   - k =  -0.071  0.082 -0.071
   - k =  -0.071  0.064 -0.071
   - k =  -0.071  0.045 -0.071
   - k =  -0.071  0.027 -0.071
   - k =  -0.071  0.009 -0.071
   - k =  -0.071 -0.009 -0.071
   - k =  -0.071 -0.027 -0.071
   - k =  -0.071 -0.045 -0.071
   - k =  -0.071 -0.064 -0.071
   - k =  -0.071 -0.082 -0.071
   - k =  -0.071 -0.100 -0.071
   - k =  -0.071 -0.118 -0.071
   - k =  -0.071 -0.136 -0.071
   - k =  -0.071 -0.155 -0.071
   - k =  -0.071 -0.173 -0.071
   - k =  -0.071 -0.191 -0.071
   - k =  -0.071 -0.209 -0.071
   - k =  -0.071 -0.227 -0.071
   - k =  -0.071 -0.245 -0.071
   - k =  -0.071 -0.264 -0.071
   - k =  -0.071 -0.282 -0.071
   - k =  -0.071 -0.300 -0.071
   - k =  -0.071 -0.318 -0.071
   - k =  -0.071 -0.336 -0.071
   - k =  -0.071 -0.355 -0.071
   - k =  -0.071 -0.373 -0.071
   - k =  -0.071 -0.391 -0.071
   - k =  -0.071 -0.409 -0.071
   - k =  -0.071 -0.427 -0.071
   - k =  -0.071 -0.445 -0.071
   - k =  -0.071 -0.464 -0.071
   - k =  -0.071 -0.482 -0.071
   - k =  -0.071 -0.500 -0.071

  |-> Computing Wannier center evolution at k-point number:     28

  Treating all   56 k-points in band plot segment #  29:
   Sampling over :
   - k =  -0.071  0.500  0.071
   - k =  -0.071  0.482  0.071
   - k =  -0.071  0.464  0.071
   - k =  -0.071  0.445  0.071
   - k =  -0.071  0.427  0.071
   - k =  -0.071  0.409  0.071
   - k =  -0.071  0.391  0.071
   - k =  -0.071  0.373  0.071
   - k =  -0.071  0.355  0.071
   - k =  -0.071  0.336  0.071
   - k =  -0.071  0.318  0.071
   - k =  -0.071  0.300  0.071
   - k =  -0.071  0.282  0.071
   - k =  -0.071  0.264  0.071
   - k =  -0.071  0.245  0.071
   - k =  -0.071  0.227  0.071
   - k =  -0.071  0.209  0.071
   - k =  -0.071  0.191  0.071
   - k =  -0.071  0.173  0.071
   - k =  -0.071  0.155  0.071
   - k =  -0.071  0.136  0.071
   - k =  -0.071  0.118  0.071
   - k =  -0.071  0.100  0.071
   - k =  -0.071  0.082  0.071
   - k =  -0.071  0.064  0.071
   - k =  -0.071  0.045  0.071
   - k =  -0.071  0.027  0.071
   - k =  -0.071  0.009  0.071
   - k =  -0.071 -0.009  0.071
   - k =  -0.071 -0.027  0.071
   - k =  -0.071 -0.045  0.071
   - k =  -0.071 -0.064  0.071
   - k =  -0.071 -0.082  0.071
   - k =  -0.071 -0.100  0.071
   - k =  -0.071 -0.118  0.071
   - k =  -0.071 -0.136  0.071
   - k =  -0.071 -0.155  0.071
   - k =  -0.071 -0.173  0.071
   - k =  -0.071 -0.191  0.071
   - k =  -0.071 -0.209  0.071
   - k =  -0.071 -0.227  0.071
   - k =  -0.071 -0.245  0.071
   - k =  -0.071 -0.264  0.071
   - k =  -0.071 -0.282  0.071
   - k =  -0.071 -0.300  0.071
   - k =  -0.071 -0.318  0.071
   - k =  -0.071 -0.336  0.071
   - k =  -0.071 -0.355  0.071
   - k =  -0.071 -0.373  0.071
   - k =  -0.071 -0.391  0.071
   - k =  -0.071 -0.409  0.071
   - k =  -0.071 -0.427  0.071
   - k =  -0.071 -0.445  0.071
   - k =  -0.071 -0.464  0.071
   - k =  -0.071 -0.482  0.071
   - k =  -0.071 -0.500  0.071

  |-> Computing Wannier center evolution at k-point number:     29

  Treating all   56 k-points in band plot segment #  30:
   Sampling over :
   - k =  -0.071  0.500  0.214
   - k =  -0.071  0.482  0.214
   - k =  -0.071  0.464  0.214
   - k =  -0.071  0.445  0.214
   - k =  -0.071  0.427  0.214
   - k =  -0.071  0.409  0.214
   - k =  -0.071  0.391  0.214
   - k =  -0.071  0.373  0.214
   - k =  -0.071  0.355  0.214
   - k =  -0.071  0.336  0.214
   - k =  -0.071  0.318  0.214
   - k =  -0.071  0.300  0.214
   - k =  -0.071  0.282  0.214
   - k =  -0.071  0.264  0.214
   - k =  -0.071  0.245  0.214
   - k =  -0.071  0.227  0.214
   - k =  -0.071  0.209  0.214
   - k =  -0.071  0.191  0.214
   - k =  -0.071  0.173  0.214
   - k =  -0.071  0.155  0.214
   - k =  -0.071  0.136  0.214
   - k =  -0.071  0.118  0.214
   - k =  -0.071  0.100  0.214
   - k =  -0.071  0.082  0.214
   - k =  -0.071  0.064  0.214
   - k =  -0.071  0.045  0.214
   - k =  -0.071  0.027  0.214
   - k =  -0.071  0.009  0.214
   - k =  -0.071 -0.009  0.214
   - k =  -0.071 -0.027  0.214
   - k =  -0.071 -0.045  0.214
   - k =  -0.071 -0.064  0.214
   - k =  -0.071 -0.082  0.214
   - k =  -0.071 -0.100  0.214
   - k =  -0.071 -0.118  0.214
   - k =  -0.071 -0.136  0.214
   - k =  -0.071 -0.155  0.214
   - k =  -0.071 -0.173  0.214
   - k =  -0.071 -0.191  0.214
   - k =  -0.071 -0.209  0.214
   - k =  -0.071 -0.227  0.214
   - k =  -0.071 -0.245  0.214
   - k =  -0.071 -0.264  0.214
   - k =  -0.071 -0.282  0.214
   - k =  -0.071 -0.300  0.214
   - k =  -0.071 -0.318  0.214
   - k =  -0.071 -0.336  0.214
   - k =  -0.071 -0.355  0.214
   - k =  -0.071 -0.373  0.214
   - k =  -0.071 -0.391  0.214
   - k =  -0.071 -0.409  0.214
   - k =  -0.071 -0.427  0.214
   - k =  -0.071 -0.445  0.214
   - k =  -0.071 -0.464  0.214
   - k =  -0.071 -0.482  0.214
   - k =  -0.071 -0.500  0.214

  |-> Computing Wannier center evolution at k-point number:     30

  Treating all   56 k-points in band plot segment #  31:
   Sampling over :
   - k =  -0.071  0.500  0.357
   - k =  -0.071  0.482  0.357
   - k =  -0.071  0.464  0.357
   - k =  -0.071  0.445  0.357
   - k =  -0.071  0.427  0.357
   - k =  -0.071  0.409  0.357
   - k =  -0.071  0.391  0.357
   - k =  -0.071  0.373  0.357
   - k =  -0.071  0.355  0.357
   - k =  -0.071  0.336  0.357
   - k =  -0.071  0.318  0.357
   - k =  -0.071  0.300  0.357
   - k =  -0.071  0.282  0.357
   - k =  -0.071  0.264  0.357
   - k =  -0.071  0.245  0.357
   - k =  -0.071  0.227  0.357
   - k =  -0.071  0.209  0.357
   - k =  -0.071  0.191  0.357
   - k =  -0.071  0.173  0.357
   - k =  -0.071  0.155  0.357
   - k =  -0.071  0.136  0.357
   - k =  -0.071  0.118  0.357
   - k =  -0.071  0.100  0.357
   - k =  -0.071  0.082  0.357
   - k =  -0.071  0.064  0.357
   - k =  -0.071  0.045  0.357
   - k =  -0.071  0.027  0.357
   - k =  -0.071  0.009  0.357
   - k =  -0.071 -0.009  0.357
   - k =  -0.071 -0.027  0.357
   - k =  -0.071 -0.045  0.357
   - k =  -0.071 -0.064  0.357
   - k =  -0.071 -0.082  0.357
   - k =  -0.071 -0.100  0.357
   - k =  -0.071 -0.118  0.357
   - k =  -0.071 -0.136  0.357
   - k =  -0.071 -0.155  0.357
   - k =  -0.071 -0.173  0.357
   - k =  -0.071 -0.191  0.357
   - k =  -0.071 -0.209  0.357
   - k =  -0.071 -0.227  0.357
   - k =  -0.071 -0.245  0.357
   - k =  -0.071 -0.264  0.357
   - k =  -0.071 -0.282  0.357
   - k =  -0.071 -0.300  0.357
   - k =  -0.071 -0.318  0.357
   - k =  -0.071 -0.336  0.357
   - k =  -0.071 -0.355  0.357
   - k =  -0.071 -0.373  0.357
   - k =  -0.071 -0.391  0.357
   - k =  -0.071 -0.409  0.357
   - k =  -0.071 -0.427  0.357
   - k =  -0.071 -0.445  0.357
   - k =  -0.071 -0.464  0.357
   - k =  -0.071 -0.482  0.357
   - k =  -0.071 -0.500  0.357

  |-> Computing Wannier center evolution at k-point number:     31

  Treating all   56 k-points in band plot segment #  32:
   Sampling over :
   - k =  -0.071  0.500  0.500
   - k =  -0.071  0.482  0.500
   - k =  -0.071  0.464  0.500
   - k =  -0.071  0.445  0.500
   - k =  -0.071  0.427  0.500
   - k =  -0.071  0.409  0.500
   - k =  -0.071  0.391  0.500
   - k =  -0.071  0.373  0.500
   - k =  -0.071  0.355  0.500
   - k =  -0.071  0.336  0.500
   - k =  -0.071  0.318  0.500
   - k =  -0.071  0.300  0.500
   - k =  -0.071  0.282  0.500
   - k =  -0.071  0.264  0.500
   - k =  -0.071  0.245  0.500
   - k =  -0.071  0.227  0.500
   - k =  -0.071  0.209  0.500
   - k =  -0.071  0.191  0.500
   - k =  -0.071  0.173  0.500
   - k =  -0.071  0.155  0.500
   - k =  -0.071  0.136  0.500
   - k =  -0.071  0.118  0.500
   - k =  -0.071  0.100  0.500
   - k =  -0.071  0.082  0.500
   - k =  -0.071  0.064  0.500
   - k =  -0.071  0.045  0.500
   - k =  -0.071  0.027  0.500
   - k =  -0.071  0.009  0.500
   - k =  -0.071 -0.009  0.500
   - k =  -0.071 -0.027  0.500
   - k =  -0.071 -0.045  0.500
   - k =  -0.071 -0.064  0.500
   - k =  -0.071 -0.082  0.500
   - k =  -0.071 -0.100  0.500
   - k =  -0.071 -0.118  0.500
   - k =  -0.071 -0.136  0.500
   - k =  -0.071 -0.155  0.500
   - k =  -0.071 -0.173  0.500
   - k =  -0.071 -0.191  0.500
   - k =  -0.071 -0.209  0.500
   - k =  -0.071 -0.227  0.500
   - k =  -0.071 -0.245  0.500
   - k =  -0.071 -0.264  0.500
   - k =  -0.071 -0.282  0.500
   - k =  -0.071 -0.300  0.500
   - k =  -0.071 -0.318  0.500
   - k =  -0.071 -0.336  0.500
   - k =  -0.071 -0.355  0.500
   - k =  -0.071 -0.373  0.500
   - k =  -0.071 -0.391  0.500
   - k =  -0.071 -0.409  0.500
   - k =  -0.071 -0.427  0.500
   - k =  -0.071 -0.445  0.500
   - k =  -0.071 -0.464  0.500
   - k =  -0.071 -0.482  0.500
   - k =  -0.071 -0.500  0.500

  |-> Computing Wannier center evolution at k-point number:     32

  Treating all   56 k-points in band plot segment #  33:
   Sampling over :
   - k =   0.071  0.500 -0.500
   - k =   0.071  0.482 -0.500
   - k =   0.071  0.464 -0.500
   - k =   0.071  0.445 -0.500
   - k =   0.071  0.427 -0.500
   - k =   0.071  0.409 -0.500
   - k =   0.071  0.391 -0.500
   - k =   0.071  0.373 -0.500
   - k =   0.071  0.355 -0.500
   - k =   0.071  0.336 -0.500
   - k =   0.071  0.318 -0.500
   - k =   0.071  0.300 -0.500
   - k =   0.071  0.282 -0.500
   - k =   0.071  0.264 -0.500
   - k =   0.071  0.245 -0.500
   - k =   0.071  0.227 -0.500
   - k =   0.071  0.209 -0.500
   - k =   0.071  0.191 -0.500
   - k =   0.071  0.173 -0.500
   - k =   0.071  0.155 -0.500
   - k =   0.071  0.136 -0.500
   - k =   0.071  0.118 -0.500
   - k =   0.071  0.100 -0.500
   - k =   0.071  0.082 -0.500
   - k =   0.071  0.064 -0.500
   - k =   0.071  0.045 -0.500
   - k =   0.071  0.027 -0.500
   - k =   0.071  0.009 -0.500
   - k =   0.071 -0.009 -0.500
   - k =   0.071 -0.027 -0.500
   - k =   0.071 -0.045 -0.500
   - k =   0.071 -0.064 -0.500
   - k =   0.071 -0.082 -0.500
   - k =   0.071 -0.100 -0.500
   - k =   0.071 -0.118 -0.500
   - k =   0.071 -0.136 -0.500
   - k =   0.071 -0.155 -0.500
   - k =   0.071 -0.173 -0.500
   - k =   0.071 -0.191 -0.500
   - k =   0.071 -0.209 -0.500
   - k =   0.071 -0.227 -0.500
   - k =   0.071 -0.245 -0.500
   - k =   0.071 -0.264 -0.500
   - k =   0.071 -0.282 -0.500
   - k =   0.071 -0.300 -0.500
   - k =   0.071 -0.318 -0.500
   - k =   0.071 -0.336 -0.500
   - k =   0.071 -0.355 -0.500
   - k =   0.071 -0.373 -0.500
   - k =   0.071 -0.391 -0.500
   - k =   0.071 -0.409 -0.500
   - k =   0.071 -0.427 -0.500
   - k =   0.071 -0.445 -0.500
   - k =   0.071 -0.464 -0.500
   - k =   0.071 -0.482 -0.500
   - k =   0.071 -0.500 -0.500

  |-> Computing Wannier center evolution at k-point number:     33

  Treating all   56 k-points in band plot segment #  34:
   Sampling over :
   - k =   0.071  0.500 -0.357
   - k =   0.071  0.482 -0.357
   - k =   0.071  0.464 -0.357
   - k =   0.071  0.445 -0.357
   - k =   0.071  0.427 -0.357
   - k =   0.071  0.409 -0.357
   - k =   0.071  0.391 -0.357
   - k =   0.071  0.373 -0.357
   - k =   0.071  0.355 -0.357
   - k =   0.071  0.336 -0.357
   - k =   0.071  0.318 -0.357
   - k =   0.071  0.300 -0.357
   - k =   0.071  0.282 -0.357
   - k =   0.071  0.264 -0.357
   - k =   0.071  0.245 -0.357
   - k =   0.071  0.227 -0.357
   - k =   0.071  0.209 -0.357
   - k =   0.071  0.191 -0.357
   - k =   0.071  0.173 -0.357
   - k =   0.071  0.155 -0.357
   - k =   0.071  0.136 -0.357
   - k =   0.071  0.118 -0.357
   - k =   0.071  0.100 -0.357
   - k =   0.071  0.082 -0.357
   - k =   0.071  0.064 -0.357
   - k =   0.071  0.045 -0.357
   - k =   0.071  0.027 -0.357
   - k =   0.071  0.009 -0.357
   - k =   0.071 -0.009 -0.357
   - k =   0.071 -0.027 -0.357
   - k =   0.071 -0.045 -0.357
   - k =   0.071 -0.064 -0.357
   - k =   0.071 -0.082 -0.357
   - k =   0.071 -0.100 -0.357
   - k =   0.071 -0.118 -0.357
   - k =   0.071 -0.136 -0.357
   - k =   0.071 -0.155 -0.357
   - k =   0.071 -0.173 -0.357
   - k =   0.071 -0.191 -0.357
   - k =   0.071 -0.209 -0.357
   - k =   0.071 -0.227 -0.357
   - k =   0.071 -0.245 -0.357
   - k =   0.071 -0.264 -0.357
   - k =   0.071 -0.282 -0.357
   - k =   0.071 -0.300 -0.357
   - k =   0.071 -0.318 -0.357
   - k =   0.071 -0.336 -0.357
   - k =   0.071 -0.355 -0.357
   - k =   0.071 -0.373 -0.357
   - k =   0.071 -0.391 -0.357
   - k =   0.071 -0.409 -0.357
   - k =   0.071 -0.427 -0.357
   - k =   0.071 -0.445 -0.357
   - k =   0.071 -0.464 -0.357
   - k =   0.071 -0.482 -0.357
   - k =   0.071 -0.500 -0.357

  |-> Computing Wannier center evolution at k-point number:     34

  Treating all   56 k-points in band plot segment #  35:
   Sampling over :
   - k =   0.071  0.500 -0.214
   - k =   0.071  0.482 -0.214
   - k =   0.071  0.464 -0.214
   - k =   0.071  0.445 -0.214
   - k =   0.071  0.427 -0.214
   - k =   0.071  0.409 -0.214
   - k =   0.071  0.391 -0.214
   - k =   0.071  0.373 -0.214
   - k =   0.071  0.355 -0.214
   - k =   0.071  0.336 -0.214
   - k =   0.071  0.318 -0.214
   - k =   0.071  0.300 -0.214
   - k =   0.071  0.282 -0.214
   - k =   0.071  0.264 -0.214
   - k =   0.071  0.245 -0.214
   - k =   0.071  0.227 -0.214
   - k =   0.071  0.209 -0.214
   - k =   0.071  0.191 -0.214
   - k =   0.071  0.173 -0.214
   - k =   0.071  0.155 -0.214
   - k =   0.071  0.136 -0.214
   - k =   0.071  0.118 -0.214
   - k =   0.071  0.100 -0.214
   - k =   0.071  0.082 -0.214
   - k =   0.071  0.064 -0.214
   - k =   0.071  0.045 -0.214
   - k =   0.071  0.027 -0.214
   - k =   0.071  0.009 -0.214
   - k =   0.071 -0.009 -0.214
   - k =   0.071 -0.027 -0.214
   - k =   0.071 -0.045 -0.214
   - k =   0.071 -0.064 -0.214
   - k =   0.071 -0.082 -0.214
   - k =   0.071 -0.100 -0.214
   - k =   0.071 -0.118 -0.214
   - k =   0.071 -0.136 -0.214
   - k =   0.071 -0.155 -0.214
   - k =   0.071 -0.173 -0.214
   - k =   0.071 -0.191 -0.214
   - k =   0.071 -0.209 -0.214
   - k =   0.071 -0.227 -0.214
   - k =   0.071 -0.245 -0.214
   - k =   0.071 -0.264 -0.214
   - k =   0.071 -0.282 -0.214
   - k =   0.071 -0.300 -0.214
   - k =   0.071 -0.318 -0.214
   - k =   0.071 -0.336 -0.214
   - k =   0.071 -0.355 -0.214
   - k =   0.071 -0.373 -0.214
   - k =   0.071 -0.391 -0.214
   - k =   0.071 -0.409 -0.214
   - k =   0.071 -0.427 -0.214
   - k =   0.071 -0.445 -0.214
   - k =   0.071 -0.464 -0.214
   - k =   0.071 -0.482 -0.214
   - k =   0.071 -0.500 -0.214

  |-> Computing Wannier center evolution at k-point number:     35

  Treating all   56 k-points in band plot segment #  36:
   Sampling over :
   - k =   0.071  0.500 -0.071
   - k =   0.071  0.482 -0.071
   - k =   0.071  0.464 -0.071
   - k =   0.071  0.445 -0.071
   - k =   0.071  0.427 -0.071
   - k =   0.071  0.409 -0.071
   - k =   0.071  0.391 -0.071
   - k =   0.071  0.373 -0.071
   - k =   0.071  0.355 -0.071
   - k =   0.071  0.336 -0.071
   - k =   0.071  0.318 -0.071
   - k =   0.071  0.300 -0.071
   - k =   0.071  0.282 -0.071
   - k =   0.071  0.264 -0.071
   - k =   0.071  0.245 -0.071
   - k =   0.071  0.227 -0.071
   - k =   0.071  0.209 -0.071
   - k =   0.071  0.191 -0.071
   - k =   0.071  0.173 -0.071
   - k =   0.071  0.155 -0.071
   - k =   0.071  0.136 -0.071
   - k =   0.071  0.118 -0.071
   - k =   0.071  0.100 -0.071
   - k =   0.071  0.082 -0.071
   - k =   0.071  0.064 -0.071
   - k =   0.071  0.045 -0.071
   - k =   0.071  0.027 -0.071
   - k =   0.071  0.009 -0.071
   - k =   0.071 -0.009 -0.071
   - k =   0.071 -0.027 -0.071
   - k =   0.071 -0.045 -0.071
   - k =   0.071 -0.064 -0.071
   - k =   0.071 -0.082 -0.071
   - k =   0.071 -0.100 -0.071
   - k =   0.071 -0.118 -0.071
   - k =   0.071 -0.136 -0.071
   - k =   0.071 -0.155 -0.071
   - k =   0.071 -0.173 -0.071
   - k =   0.071 -0.191 -0.071
   - k =   0.071 -0.209 -0.071
   - k =   0.071 -0.227 -0.071
   - k =   0.071 -0.245 -0.071
   - k =   0.071 -0.264 -0.071
   - k =   0.071 -0.282 -0.071
   - k =   0.071 -0.300 -0.071
   - k =   0.071 -0.318 -0.071
   - k =   0.071 -0.336 -0.071
   - k =   0.071 -0.355 -0.071
   - k =   0.071 -0.373 -0.071
   - k =   0.071 -0.391 -0.071
   - k =   0.071 -0.409 -0.071
   - k =   0.071 -0.427 -0.071
   - k =   0.071 -0.445 -0.071
   - k =   0.071 -0.464 -0.071
   - k =   0.071 -0.482 -0.071
   - k =   0.071 -0.500 -0.071

  |-> Computing Wannier center evolution at k-point number:     36

  Treating all   56 k-points in band plot segment #  37:
   Sampling over :
   - k =   0.071  0.500  0.071
   - k =   0.071  0.482  0.071
   - k =   0.071  0.464  0.071
   - k =   0.071  0.445  0.071
   - k =   0.071  0.427  0.071
   - k =   0.071  0.409  0.071
   - k =   0.071  0.391  0.071
   - k =   0.071  0.373  0.071
   - k =   0.071  0.355  0.071
   - k =   0.071  0.336  0.071
   - k =   0.071  0.318  0.071
   - k =   0.071  0.300  0.071
   - k =   0.071  0.282  0.071
   - k =   0.071  0.264  0.071
   - k =   0.071  0.245  0.071
   - k =   0.071  0.227  0.071
   - k =   0.071  0.209  0.071
   - k =   0.071  0.191  0.071
   - k =   0.071  0.173  0.071
   - k =   0.071  0.155  0.071
   - k =   0.071  0.136  0.071
   - k =   0.071  0.118  0.071
   - k =   0.071  0.100  0.071
   - k =   0.071  0.082  0.071
   - k =   0.071  0.064  0.071
   - k =   0.071  0.045  0.071
   - k =   0.071  0.027  0.071
   - k =   0.071  0.009  0.071
   - k =   0.071 -0.009  0.071
   - k =   0.071 -0.027  0.071
   - k =   0.071 -0.045  0.071
   - k =   0.071 -0.064  0.071
   - k =   0.071 -0.082  0.071
   - k =   0.071 -0.100  0.071
   - k =   0.071 -0.118  0.071
   - k =   0.071 -0.136  0.071
   - k =   0.071 -0.155  0.071
   - k =   0.071 -0.173  0.071
   - k =   0.071 -0.191  0.071
   - k =   0.071 -0.209  0.071
   - k =   0.071 -0.227  0.071
   - k =   0.071 -0.245  0.071
   - k =   0.071 -0.264  0.071
   - k =   0.071 -0.282  0.071
   - k =   0.071 -0.300  0.071
   - k =   0.071 -0.318  0.071
   - k =   0.071 -0.336  0.071
   - k =   0.071 -0.355  0.071
   - k =   0.071 -0.373  0.071
   - k =   0.071 -0.391  0.071
   - k =   0.071 -0.409  0.071
   - k =   0.071 -0.427  0.071
   - k =   0.071 -0.445  0.071
   - k =   0.071 -0.464  0.071
   - k =   0.071 -0.482  0.071
   - k =   0.071 -0.500  0.071

  |-> Computing Wannier center evolution at k-point number:     37

  Treating all   56 k-points in band plot segment #  38:
   Sampling over :
   - k =   0.071  0.500  0.214
   - k =   0.071  0.482  0.214
   - k =   0.071  0.464  0.214
   - k =   0.071  0.445  0.214
   - k =   0.071  0.427  0.214
   - k =   0.071  0.409  0.214
   - k =   0.071  0.391  0.214
   - k =   0.071  0.373  0.214
   - k =   0.071  0.355  0.214
   - k =   0.071  0.336  0.214
   - k =   0.071  0.318  0.214
   - k =   0.071  0.300  0.214
   - k =   0.071  0.282  0.214
   - k =   0.071  0.264  0.214
   - k =   0.071  0.245  0.214
   - k =   0.071  0.227  0.214
   - k =   0.071  0.209  0.214
   - k =   0.071  0.191  0.214
   - k =   0.071  0.173  0.214
   - k =   0.071  0.155  0.214
   - k =   0.071  0.136  0.214
   - k =   0.071  0.118  0.214
   - k =   0.071  0.100  0.214
   - k =   0.071  0.082  0.214
   - k =   0.071  0.064  0.214
   - k =   0.071  0.045  0.214
   - k =   0.071  0.027  0.214
   - k =   0.071  0.009  0.214
   - k =   0.071 -0.009  0.214
   - k =   0.071 -0.027  0.214
   - k =   0.071 -0.045  0.214
   - k =   0.071 -0.064  0.214
   - k =   0.071 -0.082  0.214
   - k =   0.071 -0.100  0.214
   - k =   0.071 -0.118  0.214
   - k =   0.071 -0.136  0.214
   - k =   0.071 -0.155  0.214
   - k =   0.071 -0.173  0.214
   - k =   0.071 -0.191  0.214
   - k =   0.071 -0.209  0.214
   - k =   0.071 -0.227  0.214
   - k =   0.071 -0.245  0.214
   - k =   0.071 -0.264  0.214
   - k =   0.071 -0.282  0.214
   - k =   0.071 -0.300  0.214
   - k =   0.071 -0.318  0.214
   - k =   0.071 -0.336  0.214
   - k =   0.071 -0.355  0.214
   - k =   0.071 -0.373  0.214
   - k =   0.071 -0.391  0.214
   - k =   0.071 -0.409  0.214
   - k =   0.071 -0.427  0.214
   - k =   0.071 -0.445  0.214
   - k =   0.071 -0.464  0.214
   - k =   0.071 -0.482  0.214
   - k =   0.071 -0.500  0.214

  |-> Computing Wannier center evolution at k-point number:     38

  Treating all   56 k-points in band plot segment #  39:
   Sampling over :
   - k =   0.071  0.500  0.357
   - k =   0.071  0.482  0.357
   - k =   0.071  0.464  0.357
   - k =   0.071  0.445  0.357
   - k =   0.071  0.427  0.357
   - k =   0.071  0.409  0.357
   - k =   0.071  0.391  0.357
   - k =   0.071  0.373  0.357
   - k =   0.071  0.355  0.357
   - k =   0.071  0.336  0.357
   - k =   0.071  0.318  0.357
   - k =   0.071  0.300  0.357
   - k =   0.071  0.282  0.357
   - k =   0.071  0.264  0.357
   - k =   0.071  0.245  0.357
   - k =   0.071  0.227  0.357
   - k =   0.071  0.209  0.357
   - k =   0.071  0.191  0.357
   - k =   0.071  0.173  0.357
   - k =   0.071  0.155  0.357
   - k =   0.071  0.136  0.357
   - k =   0.071  0.118  0.357
   - k =   0.071  0.100  0.357
   - k =   0.071  0.082  0.357
   - k =   0.071  0.064  0.357
   - k =   0.071  0.045  0.357
   - k =   0.071  0.027  0.357
   - k =   0.071  0.009  0.357
   - k =   0.071 -0.009  0.357
   - k =   0.071 -0.027  0.357
   - k =   0.071 -0.045  0.357
   - k =   0.071 -0.064  0.357
   - k =   0.071 -0.082  0.357
   - k =   0.071 -0.100  0.357
   - k =   0.071 -0.118  0.357
   - k =   0.071 -0.136  0.357
   - k =   0.071 -0.155  0.357
   - k =   0.071 -0.173  0.357
   - k =   0.071 -0.191  0.357
   - k =   0.071 -0.209  0.357
   - k =   0.071 -0.227  0.357
   - k =   0.071 -0.245  0.357
   - k =   0.071 -0.264  0.357
   - k =   0.071 -0.282  0.357
   - k =   0.071 -0.300  0.357
   - k =   0.071 -0.318  0.357
   - k =   0.071 -0.336  0.357
   - k =   0.071 -0.355  0.357
   - k =   0.071 -0.373  0.357
   - k =   0.071 -0.391  0.357
   - k =   0.071 -0.409  0.357
   - k =   0.071 -0.427  0.357
   - k =   0.071 -0.445  0.357
   - k =   0.071 -0.464  0.357
   - k =   0.071 -0.482  0.357
   - k =   0.071 -0.500  0.357

  |-> Computing Wannier center evolution at k-point number:     39

  Treating all   56 k-points in band plot segment #  40:
   Sampling over :
   - k =   0.071  0.500  0.500
   - k =   0.071  0.482  0.500
   - k =   0.071  0.464  0.500
   - k =   0.071  0.445  0.500
   - k =   0.071  0.427  0.500
   - k =   0.071  0.409  0.500
   - k =   0.071  0.391  0.500
   - k =   0.071  0.373  0.500
   - k =   0.071  0.355  0.500
   - k =   0.071  0.336  0.500
   - k =   0.071  0.318  0.500
   - k =   0.071  0.300  0.500
   - k =   0.071  0.282  0.500
   - k =   0.071  0.264  0.500
   - k =   0.071  0.245  0.500
   - k =   0.071  0.227  0.500
   - k =   0.071  0.209  0.500
   - k =   0.071  0.191  0.500
   - k =   0.071  0.173  0.500
   - k =   0.071  0.155  0.500
   - k =   0.071  0.136  0.500
   - k =   0.071  0.118  0.500
   - k =   0.071  0.100  0.500
   - k =   0.071  0.082  0.500
   - k =   0.071  0.064  0.500
   - k =   0.071  0.045  0.500
   - k =   0.071  0.027  0.500
   - k =   0.071  0.009  0.500
   - k =   0.071 -0.009  0.500
   - k =   0.071 -0.027  0.500
   - k =   0.071 -0.045  0.500
   - k =   0.071 -0.064  0.500
   - k =   0.071 -0.082  0.500
   - k =   0.071 -0.100  0.500
   - k =   0.071 -0.118  0.500
   - k =   0.071 -0.136  0.500
   - k =   0.071 -0.155  0.500
   - k =   0.071 -0.173  0.500
   - k =   0.071 -0.191  0.500
   - k =   0.071 -0.209  0.500
   - k =   0.071 -0.227  0.500
   - k =   0.071 -0.245  0.500
   - k =   0.071 -0.264  0.500
   - k =   0.071 -0.282  0.500
   - k =   0.071 -0.300  0.500
   - k =   0.071 -0.318  0.500
   - k =   0.071 -0.336  0.500
   - k =   0.071 -0.355  0.500
   - k =   0.071 -0.373  0.500
   - k =   0.071 -0.391  0.500
   - k =   0.071 -0.409  0.500
   - k =   0.071 -0.427  0.500
   - k =   0.071 -0.445  0.500
   - k =   0.071 -0.464  0.500
   - k =   0.071 -0.482  0.500
   - k =   0.071 -0.500  0.500

  |-> Computing Wannier center evolution at k-point number:     40

  Treating all   56 k-points in band plot segment #  41:
   Sampling over :
   - k =   0.214  0.500 -0.500
   - k =   0.214  0.482 -0.500
   - k =   0.214  0.464 -0.500
   - k =   0.214  0.445 -0.500
   - k =   0.214  0.427 -0.500
   - k =   0.214  0.409 -0.500
   - k =   0.214  0.391 -0.500
   - k =   0.214  0.373 -0.500
   - k =   0.214  0.355 -0.500
   - k =   0.214  0.336 -0.500
   - k =   0.214  0.318 -0.500
   - k =   0.214  0.300 -0.500
   - k =   0.214  0.282 -0.500
   - k =   0.214  0.264 -0.500
   - k =   0.214  0.245 -0.500
   - k =   0.214  0.227 -0.500
   - k =   0.214  0.209 -0.500
   - k =   0.214  0.191 -0.500
   - k =   0.214  0.173 -0.500
   - k =   0.214  0.155 -0.500
   - k =   0.214  0.136 -0.500
   - k =   0.214  0.118 -0.500
   - k =   0.214  0.100 -0.500
   - k =   0.214  0.082 -0.500
   - k =   0.214  0.064 -0.500
   - k =   0.214  0.045 -0.500
   - k =   0.214  0.027 -0.500
   - k =   0.214  0.009 -0.500
   - k =   0.214 -0.009 -0.500
   - k =   0.214 -0.027 -0.500
   - k =   0.214 -0.045 -0.500
   - k =   0.214 -0.064 -0.500
   - k =   0.214 -0.082 -0.500
   - k =   0.214 -0.100 -0.500
   - k =   0.214 -0.118 -0.500
   - k =   0.214 -0.136 -0.500
   - k =   0.214 -0.155 -0.500
   - k =   0.214 -0.173 -0.500
   - k =   0.214 -0.191 -0.500
   - k =   0.214 -0.209 -0.500
   - k =   0.214 -0.227 -0.500
   - k =   0.214 -0.245 -0.500
   - k =   0.214 -0.264 -0.500
   - k =   0.214 -0.282 -0.500
   - k =   0.214 -0.300 -0.500
   - k =   0.214 -0.318 -0.500
   - k =   0.214 -0.336 -0.500
   - k =   0.214 -0.355 -0.500
   - k =   0.214 -0.373 -0.500
   - k =   0.214 -0.391 -0.500
   - k =   0.214 -0.409 -0.500
   - k =   0.214 -0.427 -0.500
   - k =   0.214 -0.445 -0.500
   - k =   0.214 -0.464 -0.500
   - k =   0.214 -0.482 -0.500
   - k =   0.214 -0.500 -0.500

  |-> Computing Wannier center evolution at k-point number:     41

  Treating all   56 k-points in band plot segment #  42:
   Sampling over :
   - k =   0.214  0.500 -0.357
   - k =   0.214  0.482 -0.357
   - k =   0.214  0.464 -0.357
   - k =   0.214  0.445 -0.357
   - k =   0.214  0.427 -0.357
   - k =   0.214  0.409 -0.357
   - k =   0.214  0.391 -0.357
   - k =   0.214  0.373 -0.357
   - k =   0.214  0.355 -0.357
   - k =   0.214  0.336 -0.357
   - k =   0.214  0.318 -0.357
   - k =   0.214  0.300 -0.357
   - k =   0.214  0.282 -0.357
   - k =   0.214  0.264 -0.357
   - k =   0.214  0.245 -0.357
   - k =   0.214  0.227 -0.357
   - k =   0.214  0.209 -0.357
   - k =   0.214  0.191 -0.357
   - k =   0.214  0.173 -0.357
   - k =   0.214  0.155 -0.357
   - k =   0.214  0.136 -0.357
   - k =   0.214  0.118 -0.357
   - k =   0.214  0.100 -0.357
   - k =   0.214  0.082 -0.357
   - k =   0.214  0.064 -0.357
   - k =   0.214  0.045 -0.357
   - k =   0.214  0.027 -0.357
   - k =   0.214  0.009 -0.357
   - k =   0.214 -0.009 -0.357
   - k =   0.214 -0.027 -0.357
   - k =   0.214 -0.045 -0.357
   - k =   0.214 -0.064 -0.357
   - k =   0.214 -0.082 -0.357
   - k =   0.214 -0.100 -0.357
   - k =   0.214 -0.118 -0.357
   - k =   0.214 -0.136 -0.357
   - k =   0.214 -0.155 -0.357
   - k =   0.214 -0.173 -0.357
   - k =   0.214 -0.191 -0.357
   - k =   0.214 -0.209 -0.357
   - k =   0.214 -0.227 -0.357
   - k =   0.214 -0.245 -0.357
   - k =   0.214 -0.264 -0.357
   - k =   0.214 -0.282 -0.357
   - k =   0.214 -0.300 -0.357
   - k =   0.214 -0.318 -0.357
   - k =   0.214 -0.336 -0.357
   - k =   0.214 -0.355 -0.357
   - k =   0.214 -0.373 -0.357
   - k =   0.214 -0.391 -0.357
   - k =   0.214 -0.409 -0.357
   - k =   0.214 -0.427 -0.357
   - k =   0.214 -0.445 -0.357
   - k =   0.214 -0.464 -0.357
   - k =   0.214 -0.482 -0.357
   - k =   0.214 -0.500 -0.357

  |-> Computing Wannier center evolution at k-point number:     42

  Treating all   56 k-points in band plot segment #  43:
   Sampling over :
   - k =   0.214  0.500 -0.214
   - k =   0.214  0.482 -0.214
   - k =   0.214  0.464 -0.214
   - k =   0.214  0.445 -0.214
   - k =   0.214  0.427 -0.214
   - k =   0.214  0.409 -0.214
   - k =   0.214  0.391 -0.214
   - k =   0.214  0.373 -0.214
   - k =   0.214  0.355 -0.214
   - k =   0.214  0.336 -0.214
   - k =   0.214  0.318 -0.214
   - k =   0.214  0.300 -0.214
   - k =   0.214  0.282 -0.214
   - k =   0.214  0.264 -0.214
   - k =   0.214  0.245 -0.214
   - k =   0.214  0.227 -0.214
   - k =   0.214  0.209 -0.214
   - k =   0.214  0.191 -0.214
   - k =   0.214  0.173 -0.214
   - k =   0.214  0.155 -0.214
   - k =   0.214  0.136 -0.214
   - k =   0.214  0.118 -0.214
   - k =   0.214  0.100 -0.214
   - k =   0.214  0.082 -0.214
   - k =   0.214  0.064 -0.214
   - k =   0.214  0.045 -0.214
   - k =   0.214  0.027 -0.214
   - k =   0.214  0.009 -0.214
   - k =   0.214 -0.009 -0.214
   - k =   0.214 -0.027 -0.214
   - k =   0.214 -0.045 -0.214
   - k =   0.214 -0.064 -0.214
   - k =   0.214 -0.082 -0.214
   - k =   0.214 -0.100 -0.214
   - k =   0.214 -0.118 -0.214
   - k =   0.214 -0.136 -0.214
   - k =   0.214 -0.155 -0.214
   - k =   0.214 -0.173 -0.214
   - k =   0.214 -0.191 -0.214
   - k =   0.214 -0.209 -0.214
   - k =   0.214 -0.227 -0.214
   - k =   0.214 -0.245 -0.214
   - k =   0.214 -0.264 -0.214
   - k =   0.214 -0.282 -0.214
   - k =   0.214 -0.300 -0.214
   - k =   0.214 -0.318 -0.214
   - k =   0.214 -0.336 -0.214
   - k =   0.214 -0.355 -0.214
   - k =   0.214 -0.373 -0.214
   - k =   0.214 -0.391 -0.214
   - k =   0.214 -0.409 -0.214
   - k =   0.214 -0.427 -0.214
   - k =   0.214 -0.445 -0.214
   - k =   0.214 -0.464 -0.214
   - k =   0.214 -0.482 -0.214
   - k =   0.214 -0.500 -0.214

  |-> Computing Wannier center evolution at k-point number:     43

  Treating all   56 k-points in band plot segment #  44:
   Sampling over :
   - k =   0.214  0.500 -0.071
   - k =   0.214  0.482 -0.071
   - k =   0.214  0.464 -0.071
   - k =   0.214  0.445 -0.071
   - k =   0.214  0.427 -0.071
   - k =   0.214  0.409 -0.071
   - k =   0.214  0.391 -0.071
   - k =   0.214  0.373 -0.071
   - k =   0.214  0.355 -0.071
   - k =   0.214  0.336 -0.071
   - k =   0.214  0.318 -0.071
   - k =   0.214  0.300 -0.071
   - k =   0.214  0.282 -0.071
   - k =   0.214  0.264 -0.071
   - k =   0.214  0.245 -0.071
   - k =   0.214  0.227 -0.071
   - k =   0.214  0.209 -0.071
   - k =   0.214  0.191 -0.071
   - k =   0.214  0.173 -0.071
   - k =   0.214  0.155 -0.071
   - k =   0.214  0.136 -0.071
   - k =   0.214  0.118 -0.071
   - k =   0.214  0.100 -0.071
   - k =   0.214  0.082 -0.071
   - k =   0.214  0.064 -0.071
   - k =   0.214  0.045 -0.071
   - k =   0.214  0.027 -0.071
   - k =   0.214  0.009 -0.071
   - k =   0.214 -0.009 -0.071
   - k =   0.214 -0.027 -0.071
   - k =   0.214 -0.045 -0.071
   - k =   0.214 -0.064 -0.071
   - k =   0.214 -0.082 -0.071
   - k =   0.214 -0.100 -0.071
   - k =   0.214 -0.118 -0.071
   - k =   0.214 -0.136 -0.071
   - k =   0.214 -0.155 -0.071
   - k =   0.214 -0.173 -0.071
   - k =   0.214 -0.191 -0.071
   - k =   0.214 -0.209 -0.071
   - k =   0.214 -0.227 -0.071
   - k =   0.214 -0.245 -0.071
   - k =   0.214 -0.264 -0.071
   - k =   0.214 -0.282 -0.071
   - k =   0.214 -0.300 -0.071
   - k =   0.214 -0.318 -0.071
   - k =   0.214 -0.336 -0.071
   - k =   0.214 -0.355 -0.071
   - k =   0.214 -0.373 -0.071
   - k =   0.214 -0.391 -0.071
   - k =   0.214 -0.409 -0.071
   - k =   0.214 -0.427 -0.071
   - k =   0.214 -0.445 -0.071
   - k =   0.214 -0.464 -0.071
   - k =   0.214 -0.482 -0.071
   - k =   0.214 -0.500 -0.071

  |-> Computing Wannier center evolution at k-point number:     44

  Treating all   56 k-points in band plot segment #  45:
   Sampling over :
   - k =   0.214  0.500  0.071
   - k =   0.214  0.482  0.071
   - k =   0.214  0.464  0.071
   - k =   0.214  0.445  0.071
   - k =   0.214  0.427  0.071
   - k =   0.214  0.409  0.071
   - k =   0.214  0.391  0.071
   - k =   0.214  0.373  0.071
   - k =   0.214  0.355  0.071
   - k =   0.214  0.336  0.071
   - k =   0.214  0.318  0.071
   - k =   0.214  0.300  0.071
   - k =   0.214  0.282  0.071
   - k =   0.214  0.264  0.071
   - k =   0.214  0.245  0.071
   - k =   0.214  0.227  0.071
   - k =   0.214  0.209  0.071
   - k =   0.214  0.191  0.071
   - k =   0.214  0.173  0.071
   - k =   0.214  0.155  0.071
   - k =   0.214  0.136  0.071
   - k =   0.214  0.118  0.071
   - k =   0.214  0.100  0.071
   - k =   0.214  0.082  0.071
   - k =   0.214  0.064  0.071
   - k =   0.214  0.045  0.071
   - k =   0.214  0.027  0.071
   - k =   0.214  0.009  0.071
   - k =   0.214 -0.009  0.071
   - k =   0.214 -0.027  0.071
   - k =   0.214 -0.045  0.071
   - k =   0.214 -0.064  0.071
   - k =   0.214 -0.082  0.071
   - k =   0.214 -0.100  0.071
   - k =   0.214 -0.118  0.071
   - k =   0.214 -0.136  0.071
   - k =   0.214 -0.155  0.071
   - k =   0.214 -0.173  0.071
   - k =   0.214 -0.191  0.071
   - k =   0.214 -0.209  0.071
   - k =   0.214 -0.227  0.071
   - k =   0.214 -0.245  0.071
   - k =   0.214 -0.264  0.071
   - k =   0.214 -0.282  0.071
   - k =   0.214 -0.300  0.071
   - k =   0.214 -0.318  0.071
   - k =   0.214 -0.336  0.071
   - k =   0.214 -0.355  0.071
   - k =   0.214 -0.373  0.071
   - k =   0.214 -0.391  0.071
   - k =   0.214 -0.409  0.071
   - k =   0.214 -0.427  0.071
   - k =   0.214 -0.445  0.071
   - k =   0.214 -0.464  0.071
   - k =   0.214 -0.482  0.071
   - k =   0.214 -0.500  0.071

  |-> Computing Wannier center evolution at k-point number:     45

  Treating all   56 k-points in band plot segment #  46:
   Sampling over :
   - k =   0.214  0.500  0.214
   - k =   0.214  0.482  0.214
   - k =   0.214  0.464  0.214
   - k =   0.214  0.445  0.214
   - k =   0.214  0.427  0.214
   - k =   0.214  0.409  0.214
   - k =   0.214  0.391  0.214
   - k =   0.214  0.373  0.214
   - k =   0.214  0.355  0.214
   - k =   0.214  0.336  0.214
   - k =   0.214  0.318  0.214
   - k =   0.214  0.300  0.214
   - k =   0.214  0.282  0.214
   - k =   0.214  0.264  0.214
   - k =   0.214  0.245  0.214
   - k =   0.214  0.227  0.214
   - k =   0.214  0.209  0.214
   - k =   0.214  0.191  0.214
   - k =   0.214  0.173  0.214
   - k =   0.214  0.155  0.214
   - k =   0.214  0.136  0.214
   - k =   0.214  0.118  0.214
   - k =   0.214  0.100  0.214
   - k =   0.214  0.082  0.214
   - k =   0.214  0.064  0.214
   - k =   0.214  0.045  0.214
   - k =   0.214  0.027  0.214
   - k =   0.214  0.009  0.214
   - k =   0.214 -0.009  0.214
   - k =   0.214 -0.027  0.214
   - k =   0.214 -0.045  0.214
   - k =   0.214 -0.064  0.214
   - k =   0.214 -0.082  0.214
   - k =   0.214 -0.100  0.214
   - k =   0.214 -0.118  0.214
   - k =   0.214 -0.136  0.214
   - k =   0.214 -0.155  0.214
   - k =   0.214 -0.173  0.214
   - k =   0.214 -0.191  0.214
   - k =   0.214 -0.209  0.214
   - k =   0.214 -0.227  0.214
   - k =   0.214 -0.245  0.214
   - k =   0.214 -0.264  0.214
   - k =   0.214 -0.282  0.214
   - k =   0.214 -0.300  0.214
   - k =   0.214 -0.318  0.214
   - k =   0.214 -0.336  0.214
   - k =   0.214 -0.355  0.214
   - k =   0.214 -0.373  0.214
   - k =   0.214 -0.391  0.214
   - k =   0.214 -0.409  0.214
   - k =   0.214 -0.427  0.214
   - k =   0.214 -0.445  0.214
   - k =   0.214 -0.464  0.214
   - k =   0.214 -0.482  0.214
   - k =   0.214 -0.500  0.214

  |-> Computing Wannier center evolution at k-point number:     46

  Treating all   56 k-points in band plot segment #  47:
   Sampling over :
   - k =   0.214  0.500  0.357
   - k =   0.214  0.482  0.357
   - k =   0.214  0.464  0.357
   - k =   0.214  0.445  0.357
   - k =   0.214  0.427  0.357
   - k =   0.214  0.409  0.357
   - k =   0.214  0.391  0.357
   - k =   0.214  0.373  0.357
   - k =   0.214  0.355  0.357
   - k =   0.214  0.336  0.357
   - k =   0.214  0.318  0.357
   - k =   0.214  0.300  0.357
   - k =   0.214  0.282  0.357
   - k =   0.214  0.264  0.357
   - k =   0.214  0.245  0.357
   - k =   0.214  0.227  0.357
   - k =   0.214  0.209  0.357
   - k =   0.214  0.191  0.357
   - k =   0.214  0.173  0.357
   - k =   0.214  0.155  0.357
   - k =   0.214  0.136  0.357
   - k =   0.214  0.118  0.357
   - k =   0.214  0.100  0.357
   - k =   0.214  0.082  0.357
   - k =   0.214  0.064  0.357
   - k =   0.214  0.045  0.357
   - k =   0.214  0.027  0.357
   - k =   0.214  0.009  0.357
   - k =   0.214 -0.009  0.357
   - k =   0.214 -0.027  0.357
   - k =   0.214 -0.045  0.357
   - k =   0.214 -0.064  0.357
   - k =   0.214 -0.082  0.357
   - k =   0.214 -0.100  0.357
   - k =   0.214 -0.118  0.357
   - k =   0.214 -0.136  0.357
   - k =   0.214 -0.155  0.357
   - k =   0.214 -0.173  0.357
   - k =   0.214 -0.191  0.357
   - k =   0.214 -0.209  0.357
   - k =   0.214 -0.227  0.357
   - k =   0.214 -0.245  0.357
   - k =   0.214 -0.264  0.357
   - k =   0.214 -0.282  0.357
   - k =   0.214 -0.300  0.357
   - k =   0.214 -0.318  0.357
   - k =   0.214 -0.336  0.357
   - k =   0.214 -0.355  0.357
   - k =   0.214 -0.373  0.357
   - k =   0.214 -0.391  0.357
   - k =   0.214 -0.409  0.357
   - k =   0.214 -0.427  0.357
   - k =   0.214 -0.445  0.357
   - k =   0.214 -0.464  0.357
   - k =   0.214 -0.482  0.357
   - k =   0.214 -0.500  0.357

  |-> Computing Wannier center evolution at k-point number:     47

  Treating all   56 k-points in band plot segment #  48:
   Sampling over :
   - k =   0.214  0.500  0.500
   - k =   0.214  0.482  0.500
   - k =   0.214  0.464  0.500
   - k =   0.214  0.445  0.500
   - k =   0.214  0.427  0.500
   - k =   0.214  0.409  0.500
   - k =   0.214  0.391  0.500
   - k =   0.214  0.373  0.500
   - k =   0.214  0.355  0.500
   - k =   0.214  0.336  0.500
   - k =   0.214  0.318  0.500
   - k =   0.214  0.300  0.500
   - k =   0.214  0.282  0.500
   - k =   0.214  0.264  0.500
   - k =   0.214  0.245  0.500
   - k =   0.214  0.227  0.500
   - k =   0.214  0.209  0.500
   - k =   0.214  0.191  0.500
   - k =   0.214  0.173  0.500
   - k =   0.214  0.155  0.500
   - k =   0.214  0.136  0.500
   - k =   0.214  0.118  0.500
   - k =   0.214  0.100  0.500
   - k =   0.214  0.082  0.500
   - k =   0.214  0.064  0.500
   - k =   0.214  0.045  0.500
   - k =   0.214  0.027  0.500
   - k =   0.214  0.009  0.500
   - k =   0.214 -0.009  0.500
   - k =   0.214 -0.027  0.500
   - k =   0.214 -0.045  0.500
   - k =   0.214 -0.064  0.500
   - k =   0.214 -0.082  0.500
   - k =   0.214 -0.100  0.500
   - k =   0.214 -0.118  0.500
   - k =   0.214 -0.136  0.500
   - k =   0.214 -0.155  0.500
   - k =   0.214 -0.173  0.500
   - k =   0.214 -0.191  0.500
   - k =   0.214 -0.209  0.500
   - k =   0.214 -0.227  0.500
   - k =   0.214 -0.245  0.500
   - k =   0.214 -0.264  0.500
   - k =   0.214 -0.282  0.500
   - k =   0.214 -0.300  0.500
   - k =   0.214 -0.318  0.500
   - k =   0.214 -0.336  0.500
   - k =   0.214 -0.355  0.500
   - k =   0.214 -0.373  0.500
   - k =   0.214 -0.391  0.500
   - k =   0.214 -0.409  0.500
   - k =   0.214 -0.427  0.500
   - k =   0.214 -0.445  0.500
   - k =   0.214 -0.464  0.500
   - k =   0.214 -0.482  0.500
   - k =   0.214 -0.500  0.500

  |-> Computing Wannier center evolution at k-point number:     48

  Treating all   56 k-points in band plot segment #  49:
   Sampling over :
   - k =   0.357  0.500 -0.500
   - k =   0.357  0.482 -0.500
   - k =   0.357  0.464 -0.500
   - k =   0.357  0.445 -0.500
   - k =   0.357  0.427 -0.500
   - k =   0.357  0.409 -0.500
   - k =   0.357  0.391 -0.500
   - k =   0.357  0.373 -0.500
   - k =   0.357  0.355 -0.500
   - k =   0.357  0.336 -0.500
   - k =   0.357  0.318 -0.500
   - k =   0.357  0.300 -0.500
   - k =   0.357  0.282 -0.500
   - k =   0.357  0.264 -0.500
   - k =   0.357  0.245 -0.500
   - k =   0.357  0.227 -0.500
   - k =   0.357  0.209 -0.500
   - k =   0.357  0.191 -0.500
   - k =   0.357  0.173 -0.500
   - k =   0.357  0.155 -0.500
   - k =   0.357  0.136 -0.500
   - k =   0.357  0.118 -0.500
   - k =   0.357  0.100 -0.500
   - k =   0.357  0.082 -0.500
   - k =   0.357  0.064 -0.500
   - k =   0.357  0.045 -0.500
   - k =   0.357  0.027 -0.500
   - k =   0.357  0.009 -0.500
   - k =   0.357 -0.009 -0.500
   - k =   0.357 -0.027 -0.500
   - k =   0.357 -0.045 -0.500
   - k =   0.357 -0.064 -0.500
   - k =   0.357 -0.082 -0.500
   - k =   0.357 -0.100 -0.500
   - k =   0.357 -0.118 -0.500
   - k =   0.357 -0.136 -0.500
   - k =   0.357 -0.155 -0.500
   - k =   0.357 -0.173 -0.500
   - k =   0.357 -0.191 -0.500
   - k =   0.357 -0.209 -0.500
   - k =   0.357 -0.227 -0.500
   - k =   0.357 -0.245 -0.500
   - k =   0.357 -0.264 -0.500
   - k =   0.357 -0.282 -0.500
   - k =   0.357 -0.300 -0.500
   - k =   0.357 -0.318 -0.500
   - k =   0.357 -0.336 -0.500
   - k =   0.357 -0.355 -0.500
   - k =   0.357 -0.373 -0.500
   - k =   0.357 -0.391 -0.500
   - k =   0.357 -0.409 -0.500
   - k =   0.357 -0.427 -0.500
   - k =   0.357 -0.445 -0.500
   - k =   0.357 -0.464 -0.500
   - k =   0.357 -0.482 -0.500
   - k =   0.357 -0.500 -0.500

  |-> Computing Wannier center evolution at k-point number:     49

  Treating all   56 k-points in band plot segment #  50:
   Sampling over :
   - k =   0.357  0.500 -0.357
   - k =   0.357  0.482 -0.357
   - k =   0.357  0.464 -0.357
   - k =   0.357  0.445 -0.357
   - k =   0.357  0.427 -0.357
   - k =   0.357  0.409 -0.357
   - k =   0.357  0.391 -0.357
   - k =   0.357  0.373 -0.357
   - k =   0.357  0.355 -0.357
   - k =   0.357  0.336 -0.357
   - k =   0.357  0.318 -0.357
   - k =   0.357  0.300 -0.357
   - k =   0.357  0.282 -0.357
   - k =   0.357  0.264 -0.357
   - k =   0.357  0.245 -0.357
   - k =   0.357  0.227 -0.357
   - k =   0.357  0.209 -0.357
   - k =   0.357  0.191 -0.357
   - k =   0.357  0.173 -0.357
   - k =   0.357  0.155 -0.357
   - k =   0.357  0.136 -0.357
   - k =   0.357  0.118 -0.357
   - k =   0.357  0.100 -0.357
   - k =   0.357  0.082 -0.357
   - k =   0.357  0.064 -0.357
   - k =   0.357  0.045 -0.357
   - k =   0.357  0.027 -0.357
   - k =   0.357  0.009 -0.357
   - k =   0.357 -0.009 -0.357
   - k =   0.357 -0.027 -0.357
   - k =   0.357 -0.045 -0.357
   - k =   0.357 -0.064 -0.357
   - k =   0.357 -0.082 -0.357
   - k =   0.357 -0.100 -0.357
   - k =   0.357 -0.118 -0.357
   - k =   0.357 -0.136 -0.357
   - k =   0.357 -0.155 -0.357
   - k =   0.357 -0.173 -0.357
   - k =   0.357 -0.191 -0.357
   - k =   0.357 -0.209 -0.357
   - k =   0.357 -0.227 -0.357
   - k =   0.357 -0.245 -0.357
   - k =   0.357 -0.264 -0.357
   - k =   0.357 -0.282 -0.357
   - k =   0.357 -0.300 -0.357
   - k =   0.357 -0.318 -0.357
   - k =   0.357 -0.336 -0.357
   - k =   0.357 -0.355 -0.357
   - k =   0.357 -0.373 -0.357
   - k =   0.357 -0.391 -0.357
   - k =   0.357 -0.409 -0.357
   - k =   0.357 -0.427 -0.357
   - k =   0.357 -0.445 -0.357
   - k =   0.357 -0.464 -0.357
   - k =   0.357 -0.482 -0.357
   - k =   0.357 -0.500 -0.357

  |-> Computing Wannier center evolution at k-point number:     50

  Treating all   56 k-points in band plot segment #  51:
   Sampling over :
   - k =   0.357  0.500 -0.214
   - k =   0.357  0.482 -0.214
   - k =   0.357  0.464 -0.214
   - k =   0.357  0.445 -0.214
   - k =   0.357  0.427 -0.214
   - k =   0.357  0.409 -0.214
   - k =   0.357  0.391 -0.214
   - k =   0.357  0.373 -0.214
   - k =   0.357  0.355 -0.214
   - k =   0.357  0.336 -0.214
   - k =   0.357  0.318 -0.214
   - k =   0.357  0.300 -0.214
   - k =   0.357  0.282 -0.214
   - k =   0.357  0.264 -0.214
   - k =   0.357  0.245 -0.214
   - k =   0.357  0.227 -0.214
   - k =   0.357  0.209 -0.214
   - k =   0.357  0.191 -0.214
   - k =   0.357  0.173 -0.214
   - k =   0.357  0.155 -0.214
   - k =   0.357  0.136 -0.214
   - k =   0.357  0.118 -0.214
   - k =   0.357  0.100 -0.214
   - k =   0.357  0.082 -0.214
   - k =   0.357  0.064 -0.214
   - k =   0.357  0.045 -0.214
   - k =   0.357  0.027 -0.214
   - k =   0.357  0.009 -0.214
   - k =   0.357 -0.009 -0.214
   - k =   0.357 -0.027 -0.214
   - k =   0.357 -0.045 -0.214
   - k =   0.357 -0.064 -0.214
   - k =   0.357 -0.082 -0.214
   - k =   0.357 -0.100 -0.214
   - k =   0.357 -0.118 -0.214
   - k =   0.357 -0.136 -0.214
   - k =   0.357 -0.155 -0.214
   - k =   0.357 -0.173 -0.214
   - k =   0.357 -0.191 -0.214
   - k =   0.357 -0.209 -0.214
   - k =   0.357 -0.227 -0.214
   - k =   0.357 -0.245 -0.214
   - k =   0.357 -0.264 -0.214
   - k =   0.357 -0.282 -0.214
   - k =   0.357 -0.300 -0.214
   - k =   0.357 -0.318 -0.214
   - k =   0.357 -0.336 -0.214
   - k =   0.357 -0.355 -0.214
   - k =   0.357 -0.373 -0.214
   - k =   0.357 -0.391 -0.214
   - k =   0.357 -0.409 -0.214
   - k =   0.357 -0.427 -0.214
   - k =   0.357 -0.445 -0.214
   - k =   0.357 -0.464 -0.214
   - k =   0.357 -0.482 -0.214
   - k =   0.357 -0.500 -0.214

  |-> Computing Wannier center evolution at k-point number:     51

  Treating all   56 k-points in band plot segment #  52:
   Sampling over :
   - k =   0.357  0.500 -0.071
   - k =   0.357  0.482 -0.071
   - k =   0.357  0.464 -0.071
   - k =   0.357  0.445 -0.071
   - k =   0.357  0.427 -0.071
   - k =   0.357  0.409 -0.071
   - k =   0.357  0.391 -0.071
   - k =   0.357  0.373 -0.071
   - k =   0.357  0.355 -0.071
   - k =   0.357  0.336 -0.071
   - k =   0.357  0.318 -0.071
   - k =   0.357  0.300 -0.071
   - k =   0.357  0.282 -0.071
   - k =   0.357  0.264 -0.071
   - k =   0.357  0.245 -0.071
   - k =   0.357  0.227 -0.071
   - k =   0.357  0.209 -0.071
   - k =   0.357  0.191 -0.071
   - k =   0.357  0.173 -0.071
   - k =   0.357  0.155 -0.071
   - k =   0.357  0.136 -0.071
   - k =   0.357  0.118 -0.071
   - k =   0.357  0.100 -0.071
   - k =   0.357  0.082 -0.071
   - k =   0.357  0.064 -0.071
   - k =   0.357  0.045 -0.071
   - k =   0.357  0.027 -0.071
   - k =   0.357  0.009 -0.071
   - k =   0.357 -0.009 -0.071
   - k =   0.357 -0.027 -0.071
   - k =   0.357 -0.045 -0.071
   - k =   0.357 -0.064 -0.071
   - k =   0.357 -0.082 -0.071
   - k =   0.357 -0.100 -0.071
   - k =   0.357 -0.118 -0.071
   - k =   0.357 -0.136 -0.071
   - k =   0.357 -0.155 -0.071
   - k =   0.357 -0.173 -0.071
   - k =   0.357 -0.191 -0.071
   - k =   0.357 -0.209 -0.071
   - k =   0.357 -0.227 -0.071
   - k =   0.357 -0.245 -0.071
   - k =   0.357 -0.264 -0.071
   - k =   0.357 -0.282 -0.071
   - k =   0.357 -0.300 -0.071
   - k =   0.357 -0.318 -0.071
   - k =   0.357 -0.336 -0.071
   - k =   0.357 -0.355 -0.071
   - k =   0.357 -0.373 -0.071
   - k =   0.357 -0.391 -0.071
   - k =   0.357 -0.409 -0.071
   - k =   0.357 -0.427 -0.071
   - k =   0.357 -0.445 -0.071
   - k =   0.357 -0.464 -0.071
   - k =   0.357 -0.482 -0.071
   - k =   0.357 -0.500 -0.071

  |-> Computing Wannier center evolution at k-point number:     52

  Treating all   56 k-points in band plot segment #  53:
   Sampling over :
   - k =   0.357  0.500  0.071
   - k =   0.357  0.482  0.071
   - k =   0.357  0.464  0.071
   - k =   0.357  0.445  0.071
   - k =   0.357  0.427  0.071
   - k =   0.357  0.409  0.071
   - k =   0.357  0.391  0.071
   - k =   0.357  0.373  0.071
   - k =   0.357  0.355  0.071
   - k =   0.357  0.336  0.071
   - k =   0.357  0.318  0.071
   - k =   0.357  0.300  0.071
   - k =   0.357  0.282  0.071
   - k =   0.357  0.264  0.071
   - k =   0.357  0.245  0.071
   - k =   0.357  0.227  0.071
   - k =   0.357  0.209  0.071
   - k =   0.357  0.191  0.071
   - k =   0.357  0.173  0.071
   - k =   0.357  0.155  0.071
   - k =   0.357  0.136  0.071
   - k =   0.357  0.118  0.071
   - k =   0.357  0.100  0.071
   - k =   0.357  0.082  0.071
   - k =   0.357  0.064  0.071
   - k =   0.357  0.045  0.071
   - k =   0.357  0.027  0.071
   - k =   0.357  0.009  0.071
   - k =   0.357 -0.009  0.071
   - k =   0.357 -0.027  0.071
   - k =   0.357 -0.045  0.071
   - k =   0.357 -0.064  0.071
   - k =   0.357 -0.082  0.071
   - k =   0.357 -0.100  0.071
   - k =   0.357 -0.118  0.071
   - k =   0.357 -0.136  0.071
   - k =   0.357 -0.155  0.071
   - k =   0.357 -0.173  0.071
   - k =   0.357 -0.191  0.071
   - k =   0.357 -0.209  0.071
   - k =   0.357 -0.227  0.071
   - k =   0.357 -0.245  0.071
   - k =   0.357 -0.264  0.071
   - k =   0.357 -0.282  0.071
   - k =   0.357 -0.300  0.071
   - k =   0.357 -0.318  0.071
   - k =   0.357 -0.336  0.071
   - k =   0.357 -0.355  0.071
   - k =   0.357 -0.373  0.071
   - k =   0.357 -0.391  0.071
   - k =   0.357 -0.409  0.071
   - k =   0.357 -0.427  0.071
   - k =   0.357 -0.445  0.071
   - k =   0.357 -0.464  0.071
   - k =   0.357 -0.482  0.071
   - k =   0.357 -0.500  0.071

  |-> Computing Wannier center evolution at k-point number:     53

  Treating all   56 k-points in band plot segment #  54:
   Sampling over :
   - k =   0.357  0.500  0.214
   - k =   0.357  0.482  0.214
   - k =   0.357  0.464  0.214
   - k =   0.357  0.445  0.214
   - k =   0.357  0.427  0.214
   - k =   0.357  0.409  0.214
   - k =   0.357  0.391  0.214
   - k =   0.357  0.373  0.214
   - k =   0.357  0.355  0.214
   - k =   0.357  0.336  0.214
   - k =   0.357  0.318  0.214
   - k =   0.357  0.300  0.214
   - k =   0.357  0.282  0.214
   - k =   0.357  0.264  0.214
   - k =   0.357  0.245  0.214
   - k =   0.357  0.227  0.214
   - k =   0.357  0.209  0.214
   - k =   0.357  0.191  0.214
   - k =   0.357  0.173  0.214
   - k =   0.357  0.155  0.214
   - k =   0.357  0.136  0.214
   - k =   0.357  0.118  0.214
   - k =   0.357  0.100  0.214
   - k =   0.357  0.082  0.214
   - k =   0.357  0.064  0.214
   - k =   0.357  0.045  0.214
   - k =   0.357  0.027  0.214
   - k =   0.357  0.009  0.214
   - k =   0.357 -0.009  0.214
   - k =   0.357 -0.027  0.214
   - k =   0.357 -0.045  0.214
   - k =   0.357 -0.064  0.214
   - k =   0.357 -0.082  0.214
   - k =   0.357 -0.100  0.214
   - k =   0.357 -0.118  0.214
   - k =   0.357 -0.136  0.214
   - k =   0.357 -0.155  0.214
   - k =   0.357 -0.173  0.214
   - k =   0.357 -0.191  0.214
   - k =   0.357 -0.209  0.214
   - k =   0.357 -0.227  0.214
   - k =   0.357 -0.245  0.214
   - k =   0.357 -0.264  0.214
   - k =   0.357 -0.282  0.214
   - k =   0.357 -0.300  0.214
   - k =   0.357 -0.318  0.214
   - k =   0.357 -0.336  0.214
   - k =   0.357 -0.355  0.214
   - k =   0.357 -0.373  0.214
   - k =   0.357 -0.391  0.214
   - k =   0.357 -0.409  0.214
   - k =   0.357 -0.427  0.214
   - k =   0.357 -0.445  0.214
   - k =   0.357 -0.464  0.214
   - k =   0.357 -0.482  0.214
   - k =   0.357 -0.500  0.214

  |-> Computing Wannier center evolution at k-point number:     54

  Treating all   56 k-points in band plot segment #  55:
   Sampling over :
   - k =   0.357  0.500  0.357
   - k =   0.357  0.482  0.357
   - k =   0.357  0.464  0.357
   - k =   0.357  0.445  0.357
   - k =   0.357  0.427  0.357
   - k =   0.357  0.409  0.357
   - k =   0.357  0.391  0.357
   - k =   0.357  0.373  0.357
   - k =   0.357  0.355  0.357
   - k =   0.357  0.336  0.357
   - k =   0.357  0.318  0.357
   - k =   0.357  0.300  0.357
   - k =   0.357  0.282  0.357
   - k =   0.357  0.264  0.357
   - k =   0.357  0.245  0.357
   - k =   0.357  0.227  0.357
   - k =   0.357  0.209  0.357
   - k =   0.357  0.191  0.357
   - k =   0.357  0.173  0.357
   - k =   0.357  0.155  0.357
   - k =   0.357  0.136  0.357
   - k =   0.357  0.118  0.357
   - k =   0.357  0.100  0.357
   - k =   0.357  0.082  0.357
   - k =   0.357  0.064  0.357
   - k =   0.357  0.045  0.357
   - k =   0.357  0.027  0.357
   - k =   0.357  0.009  0.357
   - k =   0.357 -0.009  0.357
   - k =   0.357 -0.027  0.357
   - k =   0.357 -0.045  0.357
   - k =   0.357 -0.064  0.357
   - k =   0.357 -0.082  0.357
   - k =   0.357 -0.100  0.357
   - k =   0.357 -0.118  0.357
   - k =   0.357 -0.136  0.357
   - k =   0.357 -0.155  0.357
   - k =   0.357 -0.173  0.357
   - k =   0.357 -0.191  0.357
   - k =   0.357 -0.209  0.357
   - k =   0.357 -0.227  0.357
   - k =   0.357 -0.245  0.357
   - k =   0.357 -0.264  0.357
   - k =   0.357 -0.282  0.357
   - k =   0.357 -0.300  0.357
   - k =   0.357 -0.318  0.357
   - k =   0.357 -0.336  0.357
   - k =   0.357 -0.355  0.357
   - k =   0.357 -0.373  0.357
   - k =   0.357 -0.391  0.357
   - k =   0.357 -0.409  0.357
   - k =   0.357 -0.427  0.357
   - k =   0.357 -0.445  0.357
   - k =   0.357 -0.464  0.357
   - k =   0.357 -0.482  0.357
   - k =   0.357 -0.500  0.357

  |-> Computing Wannier center evolution at k-point number:     55

  Treating all   56 k-points in band plot segment #  56:
   Sampling over :
   - k =   0.357  0.500  0.500
   - k =   0.357  0.482  0.500
   - k =   0.357  0.464  0.500
   - k =   0.357  0.445  0.500
   - k =   0.357  0.427  0.500
   - k =   0.357  0.409  0.500
   - k =   0.357  0.391  0.500
   - k =   0.357  0.373  0.500
   - k =   0.357  0.355  0.500
   - k =   0.357  0.336  0.500
   - k =   0.357  0.318  0.500
   - k =   0.357  0.300  0.500
   - k =   0.357  0.282  0.500
   - k =   0.357  0.264  0.500
   - k =   0.357  0.245  0.500
   - k =   0.357  0.227  0.500
   - k =   0.357  0.209  0.500
   - k =   0.357  0.191  0.500
   - k =   0.357  0.173  0.500
   - k =   0.357  0.155  0.500
   - k =   0.357  0.136  0.500
   - k =   0.357  0.118  0.500
   - k =   0.357  0.100  0.500
   - k =   0.357  0.082  0.500
   - k =   0.357  0.064  0.500
   - k =   0.357  0.045  0.500
   - k =   0.357  0.027  0.500
   - k =   0.357  0.009  0.500
   - k =   0.357 -0.009  0.500
   - k =   0.357 -0.027  0.500
   - k =   0.357 -0.045  0.500
   - k =   0.357 -0.064  0.500
   - k =   0.357 -0.082  0.500
   - k =   0.357 -0.100  0.500
   - k =   0.357 -0.118  0.500
   - k =   0.357 -0.136  0.500
   - k =   0.357 -0.155  0.500
   - k =   0.357 -0.173  0.500
   - k =   0.357 -0.191  0.500
   - k =   0.357 -0.209  0.500
   - k =   0.357 -0.227  0.500
   - k =   0.357 -0.245  0.500
   - k =   0.357 -0.264  0.500
   - k =   0.357 -0.282  0.500
   - k =   0.357 -0.300  0.500
   - k =   0.357 -0.318  0.500
   - k =   0.357 -0.336  0.500
   - k =   0.357 -0.355  0.500
   - k =   0.357 -0.373  0.500
   - k =   0.357 -0.391  0.500
   - k =   0.357 -0.409  0.500
   - k =   0.357 -0.427  0.500
   - k =   0.357 -0.445  0.500
   - k =   0.357 -0.464  0.500
   - k =   0.357 -0.482  0.500
   - k =   0.357 -0.500  0.500

  |-> Computing Wannier center evolution at k-point number:     56

  Treating all   56 k-points in band plot segment #  57:
   Sampling over :
   - k =   0.500  0.500 -0.500
   - k =   0.500  0.482 -0.500
   - k =   0.500  0.464 -0.500
   - k =   0.500  0.445 -0.500
   - k =   0.500  0.427 -0.500
   - k =   0.500  0.409 -0.500
   - k =   0.500  0.391 -0.500
   - k =   0.500  0.373 -0.500
   - k =   0.500  0.355 -0.500
   - k =   0.500  0.336 -0.500
   - k =   0.500  0.318 -0.500
   - k =   0.500  0.300 -0.500
   - k =   0.500  0.282 -0.500
   - k =   0.500  0.264 -0.500
   - k =   0.500  0.245 -0.500
   - k =   0.500  0.227 -0.500
   - k =   0.500  0.209 -0.500
   - k =   0.500  0.191 -0.500
   - k =   0.500  0.173 -0.500
   - k =   0.500  0.155 -0.500
   - k =   0.500  0.136 -0.500
   - k =   0.500  0.118 -0.500
   - k =   0.500  0.100 -0.500
   - k =   0.500  0.082 -0.500
   - k =   0.500  0.064 -0.500
   - k =   0.500  0.045 -0.500
   - k =   0.500  0.027 -0.500
   - k =   0.500  0.009 -0.500
   - k =   0.500 -0.009 -0.500
   - k =   0.500 -0.027 -0.500
   - k =   0.500 -0.045 -0.500
   - k =   0.500 -0.064 -0.500
   - k =   0.500 -0.082 -0.500
   - k =   0.500 -0.100 -0.500
   - k =   0.500 -0.118 -0.500
   - k =   0.500 -0.136 -0.500
   - k =   0.500 -0.155 -0.500
   - k =   0.500 -0.173 -0.500
   - k =   0.500 -0.191 -0.500
   - k =   0.500 -0.209 -0.500
   - k =   0.500 -0.227 -0.500
   - k =   0.500 -0.245 -0.500
   - k =   0.500 -0.264 -0.500
   - k =   0.500 -0.282 -0.500
   - k =   0.500 -0.300 -0.500
   - k =   0.500 -0.318 -0.500
   - k =   0.500 -0.336 -0.500
   - k =   0.500 -0.355 -0.500
   - k =   0.500 -0.373 -0.500
   - k =   0.500 -0.391 -0.500
   - k =   0.500 -0.409 -0.500
   - k =   0.500 -0.427 -0.500
   - k =   0.500 -0.445 -0.500
   - k =   0.500 -0.464 -0.500
   - k =   0.500 -0.482 -0.500
   - k =   0.500 -0.500 -0.500

  |-> Computing Wannier center evolution at k-point number:     57

  Treating all   56 k-points in band plot segment #  58:
   Sampling over :
   - k =   0.500  0.500 -0.357
   - k =   0.500  0.482 -0.357
   - k =   0.500  0.464 -0.357
   - k =   0.500  0.445 -0.357
   - k =   0.500  0.427 -0.357
   - k =   0.500  0.409 -0.357
   - k =   0.500  0.391 -0.357
   - k =   0.500  0.373 -0.357
   - k =   0.500  0.355 -0.357
   - k =   0.500  0.336 -0.357
   - k =   0.500  0.318 -0.357
   - k =   0.500  0.300 -0.357
   - k =   0.500  0.282 -0.357
   - k =   0.500  0.264 -0.357
   - k =   0.500  0.245 -0.357
   - k =   0.500  0.227 -0.357
   - k =   0.500  0.209 -0.357
   - k =   0.500  0.191 -0.357
   - k =   0.500  0.173 -0.357
   - k =   0.500  0.155 -0.357
   - k =   0.500  0.136 -0.357
   - k =   0.500  0.118 -0.357
   - k =   0.500  0.100 -0.357
   - k =   0.500  0.082 -0.357
   - k =   0.500  0.064 -0.357
   - k =   0.500  0.045 -0.357
   - k =   0.500  0.027 -0.357
   - k =   0.500  0.009 -0.357
   - k =   0.500 -0.009 -0.357
   - k =   0.500 -0.027 -0.357
   - k =   0.500 -0.045 -0.357
   - k =   0.500 -0.064 -0.357
   - k =   0.500 -0.082 -0.357
   - k =   0.500 -0.100 -0.357
   - k =   0.500 -0.118 -0.357
   - k =   0.500 -0.136 -0.357
   - k =   0.500 -0.155 -0.357
   - k =   0.500 -0.173 -0.357
   - k =   0.500 -0.191 -0.357
   - k =   0.500 -0.209 -0.357
   - k =   0.500 -0.227 -0.357
   - k =   0.500 -0.245 -0.357
   - k =   0.500 -0.264 -0.357
   - k =   0.500 -0.282 -0.357
   - k =   0.500 -0.300 -0.357
   - k =   0.500 -0.318 -0.357
   - k =   0.500 -0.336 -0.357
   - k =   0.500 -0.355 -0.357
   - k =   0.500 -0.373 -0.357
   - k =   0.500 -0.391 -0.357
   - k =   0.500 -0.409 -0.357
   - k =   0.500 -0.427 -0.357
   - k =   0.500 -0.445 -0.357
   - k =   0.500 -0.464 -0.357
   - k =   0.500 -0.482 -0.357
   - k =   0.500 -0.500 -0.357

  |-> Computing Wannier center evolution at k-point number:     58

  Treating all   56 k-points in band plot segment #  59:
   Sampling over :
   - k =   0.500  0.500 -0.214
   - k =   0.500  0.482 -0.214
   - k =   0.500  0.464 -0.214
   - k =   0.500  0.445 -0.214
   - k =   0.500  0.427 -0.214
   - k =   0.500  0.409 -0.214
   - k =   0.500  0.391 -0.214
   - k =   0.500  0.373 -0.214
   - k =   0.500  0.355 -0.214
   - k =   0.500  0.336 -0.214
   - k =   0.500  0.318 -0.214
   - k =   0.500  0.300 -0.214
   - k =   0.500  0.282 -0.214
   - k =   0.500  0.264 -0.214
   - k =   0.500  0.245 -0.214
   - k =   0.500  0.227 -0.214
   - k =   0.500  0.209 -0.214
   - k =   0.500  0.191 -0.214
   - k =   0.500  0.173 -0.214
   - k =   0.500  0.155 -0.214
   - k =   0.500  0.136 -0.214
   - k =   0.500  0.118 -0.214
   - k =   0.500  0.100 -0.214
   - k =   0.500  0.082 -0.214
   - k =   0.500  0.064 -0.214
   - k =   0.500  0.045 -0.214
   - k =   0.500  0.027 -0.214
   - k =   0.500  0.009 -0.214
   - k =   0.500 -0.009 -0.214
   - k =   0.500 -0.027 -0.214
   - k =   0.500 -0.045 -0.214
   - k =   0.500 -0.064 -0.214
   - k =   0.500 -0.082 -0.214
   - k =   0.500 -0.100 -0.214
   - k =   0.500 -0.118 -0.214
   - k =   0.500 -0.136 -0.214
   - k =   0.500 -0.155 -0.214
   - k =   0.500 -0.173 -0.214
   - k =   0.500 -0.191 -0.214
   - k =   0.500 -0.209 -0.214
   - k =   0.500 -0.227 -0.214
   - k =   0.500 -0.245 -0.214
   - k =   0.500 -0.264 -0.214
   - k =   0.500 -0.282 -0.214
   - k =   0.500 -0.300 -0.214
   - k =   0.500 -0.318 -0.214
   - k =   0.500 -0.336 -0.214
   - k =   0.500 -0.355 -0.214
   - k =   0.500 -0.373 -0.214
   - k =   0.500 -0.391 -0.214
   - k =   0.500 -0.409 -0.214
   - k =   0.500 -0.427 -0.214
   - k =   0.500 -0.445 -0.214
   - k =   0.500 -0.464 -0.214
   - k =   0.500 -0.482 -0.214
   - k =   0.500 -0.500 -0.214

  |-> Computing Wannier center evolution at k-point number:     59

  Treating all   56 k-points in band plot segment #  60:
   Sampling over :
   - k =   0.500  0.500 -0.071
   - k =   0.500  0.482 -0.071
   - k =   0.500  0.464 -0.071
   - k =   0.500  0.445 -0.071
   - k =   0.500  0.427 -0.071
   - k =   0.500  0.409 -0.071
   - k =   0.500  0.391 -0.071
   - k =   0.500  0.373 -0.071
   - k =   0.500  0.355 -0.071
   - k =   0.500  0.336 -0.071
   - k =   0.500  0.318 -0.071
   - k =   0.500  0.300 -0.071
   - k =   0.500  0.282 -0.071
   - k =   0.500  0.264 -0.071
   - k =   0.500  0.245 -0.071
   - k =   0.500  0.227 -0.071
   - k =   0.500  0.209 -0.071
   - k =   0.500  0.191 -0.071
   - k =   0.500  0.173 -0.071
   - k =   0.500  0.155 -0.071
   - k =   0.500  0.136 -0.071
   - k =   0.500  0.118 -0.071
   - k =   0.500  0.100 -0.071
   - k =   0.500  0.082 -0.071
   - k =   0.500  0.064 -0.071
   - k =   0.500  0.045 -0.071
   - k =   0.500  0.027 -0.071
   - k =   0.500  0.009 -0.071
   - k =   0.500 -0.009 -0.071
   - k =   0.500 -0.027 -0.071
   - k =   0.500 -0.045 -0.071
   - k =   0.500 -0.064 -0.071
   - k =   0.500 -0.082 -0.071
   - k =   0.500 -0.100 -0.071
   - k =   0.500 -0.118 -0.071
   - k =   0.500 -0.136 -0.071
   - k =   0.500 -0.155 -0.071
   - k =   0.500 -0.173 -0.071
   - k =   0.500 -0.191 -0.071
   - k =   0.500 -0.209 -0.071
   - k =   0.500 -0.227 -0.071
   - k =   0.500 -0.245 -0.071
   - k =   0.500 -0.264 -0.071
   - k =   0.500 -0.282 -0.071
   - k =   0.500 -0.300 -0.071
   - k =   0.500 -0.318 -0.071
   - k =   0.500 -0.336 -0.071
   - k =   0.500 -0.355 -0.071
   - k =   0.500 -0.373 -0.071
   - k =   0.500 -0.391 -0.071
   - k =   0.500 -0.409 -0.071
   - k =   0.500 -0.427 -0.071
   - k =   0.500 -0.445 -0.071
   - k =   0.500 -0.464 -0.071
   - k =   0.500 -0.482 -0.071
   - k =   0.500 -0.500 -0.071

  |-> Computing Wannier center evolution at k-point number:     60

  Treating all   56 k-points in band plot segment #  61:
   Sampling over :
   - k =   0.500  0.500  0.071
   - k =   0.500  0.482  0.071
   - k =   0.500  0.464  0.071
   - k =   0.500  0.445  0.071
   - k =   0.500  0.427  0.071
   - k =   0.500  0.409  0.071
   - k =   0.500  0.391  0.071
   - k =   0.500  0.373  0.071
   - k =   0.500  0.355  0.071
   - k =   0.500  0.336  0.071
   - k =   0.500  0.318  0.071
   - k =   0.500  0.300  0.071
   - k =   0.500  0.282  0.071
   - k =   0.500  0.264  0.071
   - k =   0.500  0.245  0.071
   - k =   0.500  0.227  0.071
   - k =   0.500  0.209  0.071
   - k =   0.500  0.191  0.071
   - k =   0.500  0.173  0.071
   - k =   0.500  0.155  0.071
   - k =   0.500  0.136  0.071
   - k =   0.500  0.118  0.071
   - k =   0.500  0.100  0.071
   - k =   0.500  0.082  0.071
   - k =   0.500  0.064  0.071
   - k =   0.500  0.045  0.071
   - k =   0.500  0.027  0.071
   - k =   0.500  0.009  0.071
   - k =   0.500 -0.009  0.071
   - k =   0.500 -0.027  0.071
   - k =   0.500 -0.045  0.071
   - k =   0.500 -0.064  0.071
   - k =   0.500 -0.082  0.071
   - k =   0.500 -0.100  0.071
   - k =   0.500 -0.118  0.071
   - k =   0.500 -0.136  0.071
   - k =   0.500 -0.155  0.071
   - k =   0.500 -0.173  0.071
   - k =   0.500 -0.191  0.071
   - k =   0.500 -0.209  0.071
   - k =   0.500 -0.227  0.071
   - k =   0.500 -0.245  0.071
   - k =   0.500 -0.264  0.071
   - k =   0.500 -0.282  0.071
   - k =   0.500 -0.300  0.071
   - k =   0.500 -0.318  0.071
   - k =   0.500 -0.336  0.071
   - k =   0.500 -0.355  0.071
   - k =   0.500 -0.373  0.071
   - k =   0.500 -0.391  0.071
   - k =   0.500 -0.409  0.071
   - k =   0.500 -0.427  0.071
   - k =   0.500 -0.445  0.071
   - k =   0.500 -0.464  0.071
   - k =   0.500 -0.482  0.071
   - k =   0.500 -0.500  0.071

  |-> Computing Wannier center evolution at k-point number:     61

  Treating all   56 k-points in band plot segment #  62:
   Sampling over :
   - k =   0.500  0.500  0.214
   - k =   0.500  0.482  0.214
   - k =   0.500  0.464  0.214
   - k =   0.500  0.445  0.214
   - k =   0.500  0.427  0.214
   - k =   0.500  0.409  0.214
   - k =   0.500  0.391  0.214
   - k =   0.500  0.373  0.214
   - k =   0.500  0.355  0.214
   - k =   0.500  0.336  0.214
   - k =   0.500  0.318  0.214
   - k =   0.500  0.300  0.214
   - k =   0.500  0.282  0.214
   - k =   0.500  0.264  0.214
   - k =   0.500  0.245  0.214
   - k =   0.500  0.227  0.214
   - k =   0.500  0.209  0.214
   - k =   0.500  0.191  0.214
   - k =   0.500  0.173  0.214
   - k =   0.500  0.155  0.214
   - k =   0.500  0.136  0.214
   - k =   0.500  0.118  0.214
   - k =   0.500  0.100  0.214
   - k =   0.500  0.082  0.214
   - k =   0.500  0.064  0.214
   - k =   0.500  0.045  0.214
   - k =   0.500  0.027  0.214
   - k =   0.500  0.009  0.214
   - k =   0.500 -0.009  0.214
   - k =   0.500 -0.027  0.214
   - k =   0.500 -0.045  0.214
   - k =   0.500 -0.064  0.214
   - k =   0.500 -0.082  0.214
   - k =   0.500 -0.100  0.214
   - k =   0.500 -0.118  0.214
   - k =   0.500 -0.136  0.214
   - k =   0.500 -0.155  0.214
   - k =   0.500 -0.173  0.214
   - k =   0.500 -0.191  0.214
   - k =   0.500 -0.209  0.214
   - k =   0.500 -0.227  0.214
   - k =   0.500 -0.245  0.214
   - k =   0.500 -0.264  0.214
   - k =   0.500 -0.282  0.214
   - k =   0.500 -0.300  0.214
   - k =   0.500 -0.318  0.214
   - k =   0.500 -0.336  0.214
   - k =   0.500 -0.355  0.214
   - k =   0.500 -0.373  0.214
   - k =   0.500 -0.391  0.214
   - k =   0.500 -0.409  0.214
   - k =   0.500 -0.427  0.214
   - k =   0.500 -0.445  0.214
   - k =   0.500 -0.464  0.214
   - k =   0.500 -0.482  0.214
   - k =   0.500 -0.500  0.214

  |-> Computing Wannier center evolution at k-point number:     62

  Treating all   56 k-points in band plot segment #  63:
   Sampling over :
   - k =   0.500  0.500  0.357
   - k =   0.500  0.482  0.357
   - k =   0.500  0.464  0.357
   - k =   0.500  0.445  0.357
   - k =   0.500  0.427  0.357
   - k =   0.500  0.409  0.357
   - k =   0.500  0.391  0.357
   - k =   0.500  0.373  0.357
   - k =   0.500  0.355  0.357
   - k =   0.500  0.336  0.357
   - k =   0.500  0.318  0.357
   - k =   0.500  0.300  0.357
   - k =   0.500  0.282  0.357
   - k =   0.500  0.264  0.357
   - k =   0.500  0.245  0.357
   - k =   0.500  0.227  0.357
   - k =   0.500  0.209  0.357
   - k =   0.500  0.191  0.357
   - k =   0.500  0.173  0.357
   - k =   0.500  0.155  0.357
   - k =   0.500  0.136  0.357
   - k =   0.500  0.118  0.357
   - k =   0.500  0.100  0.357
   - k =   0.500  0.082  0.357
   - k =   0.500  0.064  0.357
   - k =   0.500  0.045  0.357
   - k =   0.500  0.027  0.357
   - k =   0.500  0.009  0.357
   - k =   0.500 -0.009  0.357
   - k =   0.500 -0.027  0.357
   - k =   0.500 -0.045  0.357
   - k =   0.500 -0.064  0.357
   - k =   0.500 -0.082  0.357
   - k =   0.500 -0.100  0.357
   - k =   0.500 -0.118  0.357
   - k =   0.500 -0.136  0.357
   - k =   0.500 -0.155  0.357
   - k =   0.500 -0.173  0.357
   - k =   0.500 -0.191  0.357
   - k =   0.500 -0.209  0.357
   - k =   0.500 -0.227  0.357
   - k =   0.500 -0.245  0.357
   - k =   0.500 -0.264  0.357
   - k =   0.500 -0.282  0.357
   - k =   0.500 -0.300  0.357
   - k =   0.500 -0.318  0.357
   - k =   0.500 -0.336  0.357
   - k =   0.500 -0.355  0.357
   - k =   0.500 -0.373  0.357
   - k =   0.500 -0.391  0.357
   - k =   0.500 -0.409  0.357
   - k =   0.500 -0.427  0.357
   - k =   0.500 -0.445  0.357
   - k =   0.500 -0.464  0.357
   - k =   0.500 -0.482  0.357
   - k =   0.500 -0.500  0.357

  |-> Computing Wannier center evolution at k-point number:     63

  Treating all   56 k-points in band plot segment #  64:
   Sampling over :
   - k =   0.500  0.500  0.500
   - k =   0.500  0.482  0.500
   - k =   0.500  0.464  0.500
   - k =   0.500  0.445  0.500
   - k =   0.500  0.427  0.500
   - k =   0.500  0.409  0.500
   - k =   0.500  0.391  0.500
   - k =   0.500  0.373  0.500
   - k =   0.500  0.355  0.500
   - k =   0.500  0.336  0.500
   - k =   0.500  0.318  0.500
   - k =   0.500  0.300  0.500
   - k =   0.500  0.282  0.500
   - k =   0.500  0.264  0.500
   - k =   0.500  0.245  0.500
   - k =   0.500  0.227  0.500
   - k =   0.500  0.209  0.500
   - k =   0.500  0.191  0.500
   - k =   0.500  0.173  0.500
   - k =   0.500  0.155  0.500
   - k =   0.500  0.136  0.500
   - k =   0.500  0.118  0.500
   - k =   0.500  0.100  0.500
   - k =   0.500  0.082  0.500
   - k =   0.500  0.064  0.500
   - k =   0.500  0.045  0.500
   - k =   0.500  0.027  0.500
   - k =   0.500  0.009  0.500
   - k =   0.500 -0.009  0.500
   - k =   0.500 -0.027  0.500
   - k =   0.500 -0.045  0.500
   - k =   0.500 -0.064  0.500
   - k =   0.500 -0.082  0.500
   - k =   0.500 -0.100  0.500
   - k =   0.500 -0.118  0.500
   - k =   0.500 -0.136  0.500
   - k =   0.500 -0.155  0.500
   - k =   0.500 -0.173  0.500
   - k =   0.500 -0.191  0.500
   - k =   0.500 -0.209  0.500
   - k =   0.500 -0.227  0.500
   - k =   0.500 -0.245  0.500
   - k =   0.500 -0.264  0.500
   - k =   0.500 -0.282  0.500
   - k =   0.500 -0.300  0.500
   - k =   0.500 -0.318  0.500
   - k =   0.500 -0.336  0.500
   - k =   0.500 -0.355  0.500
   - k =   0.500 -0.373  0.500
   - k =   0.500 -0.391  0.500
   - k =   0.500 -0.409  0.500
   - k =   0.500 -0.427  0.500
   - k =   0.500 -0.445  0.500
   - k =   0.500 -0.464  0.500
   - k =   0.500 -0.482  0.500
   - k =   0.500 -0.500  0.500

  |-> Computing Wannier center evolution at k-point number:     64
  *-> Finished with polarization directive nr.   2
  | Evaluation of the polarization for directive nr.     2
   - Ionic      polarization along rec. latt. vec.    2 is:      -48.961936E-03 C/m^2
   - Berry term: Preliminary Electronic polarization along rec. latt. vec.    2 is:     -723.247793E-03 C/m^2 before branch-mapping
   --> Detailed listing before/after branch mapping in terms of the polarization quantum P0=       -1.007537E+00 C/m^2
     | k-string    1 :       767.573672E-03 /      -232.426328E-03 P0
     | k-string    2 :       761.238536E-03 /      -238.761464E-03 P0
     | k-string    3 :       742.191658E-03 /      -257.808342E-03 P0
     | k-string    4 :       710.100671E-03 /      -289.899329E-03 P0
     | k-string    5 :       710.039242E-03 /      -289.960758E-03 P0
     | k-string    6 :       742.077972E-03 /      -257.922028E-03 P0
     | k-string    7 :       761.163262E-03 /      -238.836738E-03 P0
     | k-string    8 :       767.573672E-03 /      -232.426328E-03 P0
     | k-string    9 :       761.239236E-03 /      -238.760764E-03 P0
     | k-string   10 :       753.891407E-03 /      -246.108593E-03 P0
     | k-string   11 :       733.063163E-03 /      -266.936837E-03 P0
     | k-string   12 :       700.643332E-03 /      -299.356668E-03 P0
     | k-string   13 :       700.276765E-03 /      -299.723235E-03 P0
     | k-string   14 :       733.018113E-03 /      -266.981887E-03 P0
     | k-string   15 :       753.958020E-03 /      -246.041980E-03 P0
     | k-string   16 :       761.239236E-03 /      -238.760764E-03 P0
     | k-string   17 :       742.194113E-03 /      -257.805887E-03 P0
     | k-string   18 :       733.065134E-03 /      -266.934866E-03 P0
     | k-string   19 :       706.634621E-03 /      -293.365379E-03 P0
     | k-string   20 :       669.818886E-03 /      -330.181114E-03 P0
     | k-string   21 :       669.181682E-03 /      -330.818318E-03 P0
     | k-string   22 :       706.671613E-03 /      -293.328387E-03 P0
     | k-string   23 :       733.162212E-03 /      -266.837788E-03 P0
     | k-string   24 :       742.194113E-03 /      -257.805887E-03 P0
     | k-string   25 :       710.108426E-03 /      -289.891574E-03 P0
     | k-string   26 :       700.650058E-03 /      -299.349942E-03 P0
     | k-string   27 :       669.823551E-03 /      -330.176449E-03 P0
     | k-string   28 :       624.344510E-03 /      -375.655490E-03 P0
     | k-string   29 :       623.515854E-03 /      -376.484146E-03 P0
     | k-string   30 :       669.332003E-03 /      -330.667997E-03 P0
     | k-string   31 :       700.453214E-03 /      -299.546786E-03 P0
     | k-string   32 :       710.108426E-03 /      -289.891574E-03 P0
     | k-string   33 :       710.047453E-03 /      -289.952547E-03 P0
     | k-string   34 :       700.284255E-03 /      -299.715745E-03 P0
     | k-string   35 :       669.187024E-03 /      -330.812976E-03 P0
     | k-string   36 :       623.517183E-03 /      -376.482817E-03 P0
     | k-string   37 :       624.462860E-03 /      -375.537140E-03 P0
     | k-string   38 :       670.015337E-03 /      -329.984663E-03 P0
     | k-string   39 :       700.748712E-03 /      -299.251288E-03 P0
     | k-string   40 :       710.047453E-03 /      -289.952547E-03 P0
     | k-string   41 :       742.081208E-03 /      -257.918792E-03 P0
     | k-string   42 :       733.020984E-03 /      -266.979016E-03 P0
     | k-string   43 :       706.672901E-03 /      -293.327099E-03 P0
     | k-string   44 :       669.329413E-03 /      -330.670587E-03 P0
     | k-string   45 :       670.011865E-03 /      -329.988135E-03 P0
     | k-string   46 :       706.820561E-03 /      -293.179439E-03 P0
     | k-string   47 :       733.117074E-03 /      -266.882926E-03 P0
     | k-string   48 :       742.081208E-03 /      -257.918792E-03 P0
     | k-string   49 :       761.164529E-03 /      -238.835471E-03 P0
     | k-string   50 :       753.958567E-03 /      -246.041433E-03 P0
     | k-string   51 :       733.160787E-03 /      -266.839213E-03 P0
     | k-string   52 :       700.446977E-03 /      -299.553023E-03 P0
     | k-string   53 :       700.742227E-03 /      -299.257773E-03 P0
     | k-string   54 :       733.114828E-03 /      -266.885172E-03 P0
     | k-string   55 :       753.875191E-03 /      -246.124809E-03 P0
     | k-string   56 :       761.164529E-03 /      -238.835471E-03 P0
     | k-string   57 :       767.573672E-03 /      -232.426328E-03 P0
     | k-string   58 :       761.238536E-03 /      -238.761464E-03 P0
     | k-string   59 :       742.191658E-03 /      -257.808342E-03 P0
     | k-string   60 :       710.100671E-03 /      -289.899329E-03 P0
     | k-string   61 :       710.039242E-03 /      -289.960758E-03 P0
     | k-string   62 :       742.077972E-03 /      -257.922028E-03 P0
     | k-string   63 :       761.163262E-03 /      -238.836738E-03 P0
     | k-string   64 :       767.573672E-03 /      -232.426328E-03 P0
   - Berry term: Electronic polarization along rec. latt. vec.    2 is:      292.284323E-03 C/m^2 after branch-mapping

   - Dipole term: Preliminary Electronic polarization along rec. latt. vec.    2 is:      -17.692874E-03 C/m^2 before branch-mapping
   --> Detailed listing before/after branch mapping in terms of the polarization quantum P0=       -1.007537E+00 C/m^2
     | k-string    1 :        19.058691E-03 /        19.058691E-03 P0
     | k-string    2 :        20.250478E-03 /        20.250478E-03 P0
     | k-string    3 :        20.067664E-03 /        20.067664E-03 P0
     | k-string    4 :        15.625082E-03 /        15.625082E-03 P0
     | k-string    5 :        15.625082E-03 /        15.625082E-03 P0
     | k-string    6 :        20.067664E-03 /        20.067664E-03 P0
     | k-string    7 :        20.250478E-03 /        20.250478E-03 P0
     | k-string    8 :        19.058691E-03 /        19.058691E-03 P0
     | k-string    9 :        20.250458E-03 /        20.250458E-03 P0
     | k-string   10 :        20.805515E-03 /        20.805515E-03 P0
     | k-string   11 :        19.962283E-03 /        19.962283E-03 P0
     | k-string   12 :        14.991339E-03 /        14.991339E-03 P0
     | k-string   13 :        14.947325E-03 /        14.947325E-03 P0
     | k-string   14 :        20.084084E-03 /        20.084084E-03 P0
     | k-string   15 :        20.922782E-03 /        20.922782E-03 P0
     | k-string   16 :        20.250458E-03 /        20.250458E-03 P0
     | k-string   17 :        20.068319E-03 /        20.068319E-03 P0
     | k-string   18 :        19.962888E-03 /        19.962888E-03 P0
     | k-string   19 :        18.727297E-03 /        18.727297E-03 P0
     | k-string   20 :        14.094779E-03 /        14.094779E-03 P0
     | k-string   21 :        14.002494E-03 /        14.002494E-03 P0
     | k-string   22 :        18.860704E-03 /        18.860704E-03 P0
     | k-string   23 :        20.084631E-03 /        20.084631E-03 P0
     | k-string   24 :        20.068319E-03 /        20.068319E-03 P0
     | k-string   25 :        15.627559E-03 /        15.627559E-03 P0
     | k-string   26 :        14.993716E-03 /        14.993716E-03 P0
     | k-string   27 :        14.096243E-03 /        14.096243E-03 P0
     | k-string   28 :        12.342652E-03 /        12.342652E-03 P0
     | k-string   29 :        12.208243E-03 /        12.208243E-03 P0
     | k-string   30 :        14.003560E-03 /        14.003560E-03 P0
     | k-string   31 :        14.949388E-03 /        14.949388E-03 P0
     | k-string   32 :        15.627559E-03 /        15.627559E-03 P0
     | k-string   33 :        15.627559E-03 /        15.627559E-03 P0
     | k-string   34 :        14.949388E-03 /        14.949388E-03 P0
     | k-string   35 :        14.003560E-03 /        14.003560E-03 P0
     | k-string   36 :        12.208243E-03 /        12.208243E-03 P0
     | k-string   37 :        12.342652E-03 /        12.342652E-03 P0
     | k-string   38 :        14.096243E-03 /        14.096243E-03 P0
     | k-string   39 :        14.993716E-03 /        14.993716E-03 P0
     | k-string   40 :        15.627559E-03 /        15.627559E-03 P0
     | k-string   41 :        20.068319E-03 /        20.068319E-03 P0
     | k-string   42 :        20.084631E-03 /        20.084631E-03 P0
     | k-string   43 :        18.860704E-03 /        18.860704E-03 P0
     | k-string   44 :        14.002494E-03 /        14.002494E-03 P0
     | k-string   45 :        14.094779E-03 /        14.094779E-03 P0
     | k-string   46 :        18.727297E-03 /        18.727297E-03 P0
     | k-string   47 :        19.962888E-03 /        19.962888E-03 P0
     | k-string   48 :        20.068319E-03 /        20.068319E-03 P0
     | k-string   49 :        20.250458E-03 /        20.250458E-03 P0
     | k-string   50 :        20.922782E-03 /        20.922782E-03 P0
     | k-string   51 :        20.084084E-03 /        20.084084E-03 P0
     | k-string   52 :        14.947325E-03 /        14.947325E-03 P0
     | k-string   53 :        14.991339E-03 /        14.991339E-03 P0
     | k-string   54 :        19.962283E-03 /        19.962283E-03 P0
     | k-string   55 :        20.805515E-03 /        20.805515E-03 P0
     | k-string   56 :        20.250458E-03 /        20.250458E-03 P0
     | k-string   57 :        19.058691E-03 /        19.058691E-03 P0
     | k-string   58 :        20.250478E-03 /        20.250478E-03 P0
     | k-string   59 :        20.067664E-03 /        20.067664E-03 P0
     | k-string   60 :        15.625082E-03 /        15.625082E-03 P0
     | k-string   61 :        15.625082E-03 /        15.625082E-03 P0
     | k-string   62 :        20.067664E-03 /        20.067664E-03 P0
     | k-string   63 :        20.250478E-03 /        20.250478E-03 P0
     | k-string   64 :        19.058691E-03 /        19.058691E-03 P0
   - Dipole term: Electronic polarization along rec. latt. vec.    2 is:      -17.332063E-03 C/m^2 after branch-mapping



  Wannier center evolution                                :  max(cpu_time) wall_clock(cpu1)
  | Total Time                                            :         19.374           19.375
------------------------------------------------------------
   |-> Using LAPACK for polarization directive   3 of   3 directives

  -------------------------------------------------------------------
  Computing Wannier centers of charge         (LAPACK version):
  -------------------------------------------------------------------


  Integrating Hamiltonian matrix: batch-based integration.
  Time summed over all CPUs for integration: real work       80.241 s, elapsed       85.613 s

  Number of k-points for which the Wannier centers of charge are calculated for:    64
  Number of k-points used at each of this k-points to obtain the Wannier center of charge:    56
  Wannier center evolution is sampled along the reciprocal lattice vector  3 in    64 steps.
  - The Wannier center evoulution is computed along the following     64 strings in k_space:
    Band     1 from k_start = -0.500 -0.500  0.500 to k_end = -0.500 -0.500 -0.500
    Band     2 from k_start = -0.500 -0.357  0.500 to k_end = -0.500 -0.357 -0.500
    Band     3 from k_start = -0.500 -0.214  0.500 to k_end = -0.500 -0.214 -0.500
    Band     4 from k_start = -0.500 -0.071  0.500 to k_end = -0.500 -0.071 -0.500
    Band     5 from k_start = -0.500  0.071  0.500 to k_end = -0.500  0.071 -0.500
    Band     6 from k_start = -0.500  0.214  0.500 to k_end = -0.500  0.214 -0.500
    Band     7 from k_start = -0.500  0.357  0.500 to k_end = -0.500  0.357 -0.500
    Band     8 from k_start = -0.500  0.500  0.500 to k_end = -0.500  0.500 -0.500
    Band     9 from k_start = -0.357 -0.500  0.500 to k_end = -0.357 -0.500 -0.500
    Band    10 from k_start = -0.357 -0.357  0.500 to k_end = -0.357 -0.357 -0.500
    Band    11 from k_start = -0.357 -0.214  0.500 to k_end = -0.357 -0.214 -0.500
    Band    12 from k_start = -0.357 -0.071  0.500 to k_end = -0.357 -0.071 -0.500
    Band    13 from k_start = -0.357  0.071  0.500 to k_end = -0.357  0.071 -0.500
    Band    14 from k_start = -0.357  0.214  0.500 to k_end = -0.357  0.214 -0.500
    Band    15 from k_start = -0.357  0.357  0.500 to k_end = -0.357  0.357 -0.500
    Band    16 from k_start = -0.357  0.500  0.500 to k_end = -0.357  0.500 -0.500
    Band    17 from k_start = -0.214 -0.500  0.500 to k_end = -0.214 -0.500 -0.500
    Band    18 from k_start = -0.214 -0.357  0.500 to k_end = -0.214 -0.357 -0.500
    Band    19 from k_start = -0.214 -0.214  0.500 to k_end = -0.214 -0.214 -0.500
    Band    20 from k_start = -0.214 -0.071  0.500 to k_end = -0.214 -0.071 -0.500
    Band    21 from k_start = -0.214  0.071  0.500 to k_end = -0.214  0.071 -0.500
    Band    22 from k_start = -0.214  0.214  0.500 to k_end = -0.214  0.214 -0.500
    Band    23 from k_start = -0.214  0.357  0.500 to k_end = -0.214  0.357 -0.500
    Band    24 from k_start = -0.214  0.500  0.500 to k_end = -0.214  0.500 -0.500
    Band    25 from k_start = -0.071 -0.500  0.500 to k_end = -0.071 -0.500 -0.500
    Band    26 from k_start = -0.071 -0.357  0.500 to k_end = -0.071 -0.357 -0.500
    Band    27 from k_start = -0.071 -0.214  0.500 to k_end = -0.071 -0.214 -0.500
    Band    28 from k_start = -0.071 -0.071  0.500 to k_end = -0.071 -0.071 -0.500
    Band    29 from k_start = -0.071  0.071  0.500 to k_end = -0.071  0.071 -0.500
    Band    30 from k_start = -0.071  0.214  0.500 to k_end = -0.071  0.214 -0.500
    Band    31 from k_start = -0.071  0.357  0.500 to k_end = -0.071  0.357 -0.500
    Band    32 from k_start = -0.071  0.500  0.500 to k_end = -0.071  0.500 -0.500
    Band    33 from k_start =  0.071 -0.500  0.500 to k_end =  0.071 -0.500 -0.500
    Band    34 from k_start =  0.071 -0.357  0.500 to k_end =  0.071 -0.357 -0.500
    Band    35 from k_start =  0.071 -0.214  0.500 to k_end =  0.071 -0.214 -0.500
    Band    36 from k_start =  0.071 -0.071  0.500 to k_end =  0.071 -0.071 -0.500
    Band    37 from k_start =  0.071  0.071  0.500 to k_end =  0.071  0.071 -0.500
    Band    38 from k_start =  0.071  0.214  0.500 to k_end =  0.071  0.214 -0.500
    Band    39 from k_start =  0.071  0.357  0.500 to k_end =  0.071  0.357 -0.500
    Band    40 from k_start =  0.071  0.500  0.500 to k_end =  0.071  0.500 -0.500
    Band    41 from k_start =  0.214 -0.500  0.500 to k_end =  0.214 -0.500 -0.500
    Band    42 from k_start =  0.214 -0.357  0.500 to k_end =  0.214 -0.357 -0.500
    Band    43 from k_start =  0.214 -0.214  0.500 to k_end =  0.214 -0.214 -0.500
    Band    44 from k_start =  0.214 -0.071  0.500 to k_end =  0.214 -0.071 -0.500
    Band    45 from k_start =  0.214  0.071  0.500 to k_end =  0.214  0.071 -0.500
    Band    46 from k_start =  0.214  0.214  0.500 to k_end =  0.214  0.214 -0.500
    Band    47 from k_start =  0.214  0.357  0.500 to k_end =  0.214  0.357 -0.500
    Band    48 from k_start =  0.214  0.500  0.500 to k_end =  0.214  0.500 -0.500
    Band    49 from k_start =  0.357 -0.500  0.500 to k_end =  0.357 -0.500 -0.500
    Band    50 from k_start =  0.357 -0.357  0.500 to k_end =  0.357 -0.357 -0.500
    Band    51 from k_start =  0.357 -0.214  0.500 to k_end =  0.357 -0.214 -0.500
    Band    52 from k_start =  0.357 -0.071  0.500 to k_end =  0.357 -0.071 -0.500
    Band    53 from k_start =  0.357  0.071  0.500 to k_end =  0.357  0.071 -0.500
    Band    54 from k_start =  0.357  0.214  0.500 to k_end =  0.357  0.214 -0.500
    Band    55 from k_start =  0.357  0.357  0.500 to k_end =  0.357  0.357 -0.500
    Band    56 from k_start =  0.357  0.500  0.500 to k_end =  0.357  0.500 -0.500
    Band    57 from k_start =  0.500 -0.500  0.500 to k_end =  0.500 -0.500 -0.500
    Band    58 from k_start =  0.500 -0.357  0.500 to k_end =  0.500 -0.357 -0.500
    Band    59 from k_start =  0.500 -0.214  0.500 to k_end =  0.500 -0.214 -0.500
    Band    60 from k_start =  0.500 -0.071  0.500 to k_end =  0.500 -0.071 -0.500
    Band    61 from k_start =  0.500  0.071  0.500 to k_end =  0.500  0.071 -0.500
    Band    62 from k_start =  0.500  0.214  0.500 to k_end =  0.500  0.214 -0.500
    Band    63 from k_start =  0.500  0.357  0.500 to k_end =  0.500  0.357 -0.500
    Band    64 from k_start =  0.500  0.500  0.500 to k_end =  0.500  0.500 -0.500


  Treating all   56 k-points in band plot segment #   1:
   Sampling over :
   - k =  -0.500 -0.500  0.500
   - k =  -0.500 -0.500  0.482
   - k =  -0.500 -0.500  0.464
   - k =  -0.500 -0.500  0.445
   - k =  -0.500 -0.500  0.427
   - k =  -0.500 -0.500  0.409
   - k =  -0.500 -0.500  0.391
   - k =  -0.500 -0.500  0.373
   - k =  -0.500 -0.500  0.355
   - k =  -0.500 -0.500  0.336
   - k =  -0.500 -0.500  0.318
   - k =  -0.500 -0.500  0.300
   - k =  -0.500 -0.500  0.282
   - k =  -0.500 -0.500  0.264
   - k =  -0.500 -0.500  0.245
   - k =  -0.500 -0.500  0.227
   - k =  -0.500 -0.500  0.209
   - k =  -0.500 -0.500  0.191
   - k =  -0.500 -0.500  0.173
   - k =  -0.500 -0.500  0.155
   - k =  -0.500 -0.500  0.136
   - k =  -0.500 -0.500  0.118
   - k =  -0.500 -0.500  0.100
   - k =  -0.500 -0.500  0.082
   - k =  -0.500 -0.500  0.064
   - k =  -0.500 -0.500  0.045
   - k =  -0.500 -0.500  0.027
   - k =  -0.500 -0.500  0.009
   - k =  -0.500 -0.500 -0.009
   - k =  -0.500 -0.500 -0.027
   - k =  -0.500 -0.500 -0.045
   - k =  -0.500 -0.500 -0.064
   - k =  -0.500 -0.500 -0.082
   - k =  -0.500 -0.500 -0.100
   - k =  -0.500 -0.500 -0.118
   - k =  -0.500 -0.500 -0.136
   - k =  -0.500 -0.500 -0.155
   - k =  -0.500 -0.500 -0.173
   - k =  -0.500 -0.500 -0.191
   - k =  -0.500 -0.500 -0.209
   - k =  -0.500 -0.500 -0.227
   - k =  -0.500 -0.500 -0.245
   - k =  -0.500 -0.500 -0.264
   - k =  -0.500 -0.500 -0.282
   - k =  -0.500 -0.500 -0.300
   - k =  -0.500 -0.500 -0.318
   - k =  -0.500 -0.500 -0.336
   - k =  -0.500 -0.500 -0.355
   - k =  -0.500 -0.500 -0.373
   - k =  -0.500 -0.500 -0.391
   - k =  -0.500 -0.500 -0.409
   - k =  -0.500 -0.500 -0.427
   - k =  -0.500 -0.500 -0.445
   - k =  -0.500 -0.500 -0.464
   - k =  -0.500 -0.500 -0.482
   - k =  -0.500 -0.500 -0.500

  |-> Computing Wannier center evolution at k-point number:      1
 Calculating dipole matrix along reciprocal lattice vector 3:    -0.001    -0.001     0.834
  Integrating momentum matrix.
  Time summed over all CPUs for integration: real work      135.547 s, elapsed      144.102 s

  Treating all   56 k-points in band plot segment #   2:
   Sampling over :
   - k =  -0.500 -0.357  0.500
   - k =  -0.500 -0.357  0.482
   - k =  -0.500 -0.357  0.464
   - k =  -0.500 -0.357  0.445
   - k =  -0.500 -0.357  0.427
   - k =  -0.500 -0.357  0.409
   - k =  -0.500 -0.357  0.391
   - k =  -0.500 -0.357  0.373
   - k =  -0.500 -0.357  0.355
   - k =  -0.500 -0.357  0.336
   - k =  -0.500 -0.357  0.318
   - k =  -0.500 -0.357  0.300
   - k =  -0.500 -0.357  0.282
   - k =  -0.500 -0.357  0.264
   - k =  -0.500 -0.357  0.245
   - k =  -0.500 -0.357  0.227
   - k =  -0.500 -0.357  0.209
   - k =  -0.500 -0.357  0.191
   - k =  -0.500 -0.357  0.173
   - k =  -0.500 -0.357  0.155
   - k =  -0.500 -0.357  0.136
   - k =  -0.500 -0.357  0.118
   - k =  -0.500 -0.357  0.100
   - k =  -0.500 -0.357  0.082
   - k =  -0.500 -0.357  0.064
   - k =  -0.500 -0.357  0.045
   - k =  -0.500 -0.357  0.027
   - k =  -0.500 -0.357  0.009
   - k =  -0.500 -0.357 -0.009
   - k =  -0.500 -0.357 -0.027
   - k =  -0.500 -0.357 -0.045
   - k =  -0.500 -0.357 -0.064
   - k =  -0.500 -0.357 -0.082
   - k =  -0.500 -0.357 -0.100
   - k =  -0.500 -0.357 -0.118
   - k =  -0.500 -0.357 -0.136
   - k =  -0.500 -0.357 -0.155
   - k =  -0.500 -0.357 -0.173
   - k =  -0.500 -0.357 -0.191
   - k =  -0.500 -0.357 -0.209
   - k =  -0.500 -0.357 -0.227
   - k =  -0.500 -0.357 -0.245
   - k =  -0.500 -0.357 -0.264
   - k =  -0.500 -0.357 -0.282
   - k =  -0.500 -0.357 -0.300
   - k =  -0.500 -0.357 -0.318
   - k =  -0.500 -0.357 -0.336
   - k =  -0.500 -0.357 -0.355
   - k =  -0.500 -0.357 -0.373
   - k =  -0.500 -0.357 -0.391
   - k =  -0.500 -0.357 -0.409
   - k =  -0.500 -0.357 -0.427
   - k =  -0.500 -0.357 -0.445
   - k =  -0.500 -0.357 -0.464
   - k =  -0.500 -0.357 -0.482
   - k =  -0.500 -0.357 -0.500

  |-> Computing Wannier center evolution at k-point number:      2

  Treating all   56 k-points in band plot segment #   3:
   Sampling over :
   - k =  -0.500 -0.214  0.500
   - k =  -0.500 -0.214  0.482
   - k =  -0.500 -0.214  0.464
   - k =  -0.500 -0.214  0.445
   - k =  -0.500 -0.214  0.427
   - k =  -0.500 -0.214  0.409
   - k =  -0.500 -0.214  0.391
   - k =  -0.500 -0.214  0.373
   - k =  -0.500 -0.214  0.355
   - k =  -0.500 -0.214  0.336
   - k =  -0.500 -0.214  0.318
   - k =  -0.500 -0.214  0.300
   - k =  -0.500 -0.214  0.282
   - k =  -0.500 -0.214  0.264
   - k =  -0.500 -0.214  0.245
   - k =  -0.500 -0.214  0.227
   - k =  -0.500 -0.214  0.209
   - k =  -0.500 -0.214  0.191
   - k =  -0.500 -0.214  0.173
   - k =  -0.500 -0.214  0.155
   - k =  -0.500 -0.214  0.136
   - k =  -0.500 -0.214  0.118
   - k =  -0.500 -0.214  0.100
   - k =  -0.500 -0.214  0.082
   - k =  -0.500 -0.214  0.064
   - k =  -0.500 -0.214  0.045
   - k =  -0.500 -0.214  0.027
   - k =  -0.500 -0.214  0.009
   - k =  -0.500 -0.214 -0.009
   - k =  -0.500 -0.214 -0.027
   - k =  -0.500 -0.214 -0.045
   - k =  -0.500 -0.214 -0.064
   - k =  -0.500 -0.214 -0.082
   - k =  -0.500 -0.214 -0.100
   - k =  -0.500 -0.214 -0.118
   - k =  -0.500 -0.214 -0.136
   - k =  -0.500 -0.214 -0.155
   - k =  -0.500 -0.214 -0.173
   - k =  -0.500 -0.214 -0.191
   - k =  -0.500 -0.214 -0.209
   - k =  -0.500 -0.214 -0.227
   - k =  -0.500 -0.214 -0.245
   - k =  -0.500 -0.214 -0.264
   - k =  -0.500 -0.214 -0.282
   - k =  -0.500 -0.214 -0.300
   - k =  -0.500 -0.214 -0.318
   - k =  -0.500 -0.214 -0.336
   - k =  -0.500 -0.214 -0.355
   - k =  -0.500 -0.214 -0.373
   - k =  -0.500 -0.214 -0.391
   - k =  -0.500 -0.214 -0.409
   - k =  -0.500 -0.214 -0.427
   - k =  -0.500 -0.214 -0.445
   - k =  -0.500 -0.214 -0.464
   - k =  -0.500 -0.214 -0.482
   - k =  -0.500 -0.214 -0.500

  |-> Computing Wannier center evolution at k-point number:      3

  Treating all   56 k-points in band plot segment #   4:
   Sampling over :
   - k =  -0.500 -0.071  0.500
   - k =  -0.500 -0.071  0.482
   - k =  -0.500 -0.071  0.464
   - k =  -0.500 -0.071  0.445
   - k =  -0.500 -0.071  0.427
   - k =  -0.500 -0.071  0.409
   - k =  -0.500 -0.071  0.391
   - k =  -0.500 -0.071  0.373
   - k =  -0.500 -0.071  0.355
   - k =  -0.500 -0.071  0.336
   - k =  -0.500 -0.071  0.318
   - k =  -0.500 -0.071  0.300
   - k =  -0.500 -0.071  0.282
   - k =  -0.500 -0.071  0.264
   - k =  -0.500 -0.071  0.245
   - k =  -0.500 -0.071  0.227
   - k =  -0.500 -0.071  0.209
   - k =  -0.500 -0.071  0.191
   - k =  -0.500 -0.071  0.173
   - k =  -0.500 -0.071  0.155
   - k =  -0.500 -0.071  0.136
   - k =  -0.500 -0.071  0.118
   - k =  -0.500 -0.071  0.100
   - k =  -0.500 -0.071  0.082
   - k =  -0.500 -0.071  0.064
   - k =  -0.500 -0.071  0.045
   - k =  -0.500 -0.071  0.027
   - k =  -0.500 -0.071  0.009
   - k =  -0.500 -0.071 -0.009
   - k =  -0.500 -0.071 -0.027
   - k =  -0.500 -0.071 -0.045
   - k =  -0.500 -0.071 -0.064
   - k =  -0.500 -0.071 -0.082
   - k =  -0.500 -0.071 -0.100
   - k =  -0.500 -0.071 -0.118
   - k =  -0.500 -0.071 -0.136
   - k =  -0.500 -0.071 -0.155
   - k =  -0.500 -0.071 -0.173
   - k =  -0.500 -0.071 -0.191
   - k =  -0.500 -0.071 -0.209
   - k =  -0.500 -0.071 -0.227
   - k =  -0.500 -0.071 -0.245
   - k =  -0.500 -0.071 -0.264
   - k =  -0.500 -0.071 -0.282
   - k =  -0.500 -0.071 -0.300
   - k =  -0.500 -0.071 -0.318
   - k =  -0.500 -0.071 -0.336
   - k =  -0.500 -0.071 -0.355
   - k =  -0.500 -0.071 -0.373
   - k =  -0.500 -0.071 -0.391
   - k =  -0.500 -0.071 -0.409
   - k =  -0.500 -0.071 -0.427
   - k =  -0.500 -0.071 -0.445
   - k =  -0.500 -0.071 -0.464
   - k =  -0.500 -0.071 -0.482
   - k =  -0.500 -0.071 -0.500

  |-> Computing Wannier center evolution at k-point number:      4

  Treating all   56 k-points in band plot segment #   5:
   Sampling over :
   - k =  -0.500  0.071  0.500
   - k =  -0.500  0.071  0.482
   - k =  -0.500  0.071  0.464
   - k =  -0.500  0.071  0.445
   - k =  -0.500  0.071  0.427
   - k =  -0.500  0.071  0.409
   - k =  -0.500  0.071  0.391
   - k =  -0.500  0.071  0.373
   - k =  -0.500  0.071  0.355
   - k =  -0.500  0.071  0.336
   - k =  -0.500  0.071  0.318
   - k =  -0.500  0.071  0.300
   - k =  -0.500  0.071  0.282
   - k =  -0.500  0.071  0.264
   - k =  -0.500  0.071  0.245
   - k =  -0.500  0.071  0.227
   - k =  -0.500  0.071  0.209
   - k =  -0.500  0.071  0.191
   - k =  -0.500  0.071  0.173
   - k =  -0.500  0.071  0.155
   - k =  -0.500  0.071  0.136
   - k =  -0.500  0.071  0.118
   - k =  -0.500  0.071  0.100
   - k =  -0.500  0.071  0.082
   - k =  -0.500  0.071  0.064
   - k =  -0.500  0.071  0.045
   - k =  -0.500  0.071  0.027
   - k =  -0.500  0.071  0.009
   - k =  -0.500  0.071 -0.009
   - k =  -0.500  0.071 -0.027
   - k =  -0.500  0.071 -0.045
   - k =  -0.500  0.071 -0.064
   - k =  -0.500  0.071 -0.082
   - k =  -0.500  0.071 -0.100
   - k =  -0.500  0.071 -0.118
   - k =  -0.500  0.071 -0.136
   - k =  -0.500  0.071 -0.155
   - k =  -0.500  0.071 -0.173
   - k =  -0.500  0.071 -0.191
   - k =  -0.500  0.071 -0.209
   - k =  -0.500  0.071 -0.227
   - k =  -0.500  0.071 -0.245
   - k =  -0.500  0.071 -0.264
   - k =  -0.500  0.071 -0.282
   - k =  -0.500  0.071 -0.300
   - k =  -0.500  0.071 -0.318
   - k =  -0.500  0.071 -0.336
   - k =  -0.500  0.071 -0.355
   - k =  -0.500  0.071 -0.373
   - k =  -0.500  0.071 -0.391
   - k =  -0.500  0.071 -0.409
   - k =  -0.500  0.071 -0.427
   - k =  -0.500  0.071 -0.445
   - k =  -0.500  0.071 -0.464
   - k =  -0.500  0.071 -0.482
   - k =  -0.500  0.071 -0.500

  |-> Computing Wannier center evolution at k-point number:      5

  Treating all   56 k-points in band plot segment #   6:
   Sampling over :
   - k =  -0.500  0.214  0.500
   - k =  -0.500  0.214  0.482
   - k =  -0.500  0.214  0.464
   - k =  -0.500  0.214  0.445
   - k =  -0.500  0.214  0.427
   - k =  -0.500  0.214  0.409
   - k =  -0.500  0.214  0.391
   - k =  -0.500  0.214  0.373
   - k =  -0.500  0.214  0.355
   - k =  -0.500  0.214  0.336
   - k =  -0.500  0.214  0.318
   - k =  -0.500  0.214  0.300
   - k =  -0.500  0.214  0.282
   - k =  -0.500  0.214  0.264
   - k =  -0.500  0.214  0.245
   - k =  -0.500  0.214  0.227
   - k =  -0.500  0.214  0.209
   - k =  -0.500  0.214  0.191
   - k =  -0.500  0.214  0.173
   - k =  -0.500  0.214  0.155
   - k =  -0.500  0.214  0.136
   - k =  -0.500  0.214  0.118
   - k =  -0.500  0.214  0.100
   - k =  -0.500  0.214  0.082
   - k =  -0.500  0.214  0.064
   - k =  -0.500  0.214  0.045
   - k =  -0.500  0.214  0.027
   - k =  -0.500  0.214  0.009
   - k =  -0.500  0.214 -0.009
   - k =  -0.500  0.214 -0.027
   - k =  -0.500  0.214 -0.045
   - k =  -0.500  0.214 -0.064
   - k =  -0.500  0.214 -0.082
   - k =  -0.500  0.214 -0.100
   - k =  -0.500  0.214 -0.118
   - k =  -0.500  0.214 -0.136
   - k =  -0.500  0.214 -0.155
   - k =  -0.500  0.214 -0.173
   - k =  -0.500  0.214 -0.191
   - k =  -0.500  0.214 -0.209
   - k =  -0.500  0.214 -0.227
   - k =  -0.500  0.214 -0.245
   - k =  -0.500  0.214 -0.264
   - k =  -0.500  0.214 -0.282
   - k =  -0.500  0.214 -0.300
   - k =  -0.500  0.214 -0.318
   - k =  -0.500  0.214 -0.336
   - k =  -0.500  0.214 -0.355
   - k =  -0.500  0.214 -0.373
   - k =  -0.500  0.214 -0.391
   - k =  -0.500  0.214 -0.409
   - k =  -0.500  0.214 -0.427
   - k =  -0.500  0.214 -0.445
   - k =  -0.500  0.214 -0.464
   - k =  -0.500  0.214 -0.482
   - k =  -0.500  0.214 -0.500

  |-> Computing Wannier center evolution at k-point number:      6

  Treating all   56 k-points in band plot segment #   7:
   Sampling over :
   - k =  -0.500  0.357  0.500
   - k =  -0.500  0.357  0.482
   - k =  -0.500  0.357  0.464
   - k =  -0.500  0.357  0.445
   - k =  -0.500  0.357  0.427
   - k =  -0.500  0.357  0.409
   - k =  -0.500  0.357  0.391
   - k =  -0.500  0.357  0.373
   - k =  -0.500  0.357  0.355
   - k =  -0.500  0.357  0.336
   - k =  -0.500  0.357  0.318
   - k =  -0.500  0.357  0.300
   - k =  -0.500  0.357  0.282
   - k =  -0.500  0.357  0.264
   - k =  -0.500  0.357  0.245
   - k =  -0.500  0.357  0.227
   - k =  -0.500  0.357  0.209
   - k =  -0.500  0.357  0.191
   - k =  -0.500  0.357  0.173
   - k =  -0.500  0.357  0.155
   - k =  -0.500  0.357  0.136
   - k =  -0.500  0.357  0.118
   - k =  -0.500  0.357  0.100
   - k =  -0.500  0.357  0.082
   - k =  -0.500  0.357  0.064
   - k =  -0.500  0.357  0.045
   - k =  -0.500  0.357  0.027
   - k =  -0.500  0.357  0.009
   - k =  -0.500  0.357 -0.009
   - k =  -0.500  0.357 -0.027
   - k =  -0.500  0.357 -0.045
   - k =  -0.500  0.357 -0.064
   - k =  -0.500  0.357 -0.082
   - k =  -0.500  0.357 -0.100
   - k =  -0.500  0.357 -0.118
   - k =  -0.500  0.357 -0.136
   - k =  -0.500  0.357 -0.155
   - k =  -0.500  0.357 -0.173
   - k =  -0.500  0.357 -0.191
   - k =  -0.500  0.357 -0.209
   - k =  -0.500  0.357 -0.227
   - k =  -0.500  0.357 -0.245
   - k =  -0.500  0.357 -0.264
   - k =  -0.500  0.357 -0.282
   - k =  -0.500  0.357 -0.300
   - k =  -0.500  0.357 -0.318
   - k =  -0.500  0.357 -0.336
   - k =  -0.500  0.357 -0.355
   - k =  -0.500  0.357 -0.373
   - k =  -0.500  0.357 -0.391
   - k =  -0.500  0.357 -0.409
   - k =  -0.500  0.357 -0.427
   - k =  -0.500  0.357 -0.445
   - k =  -0.500  0.357 -0.464
   - k =  -0.500  0.357 -0.482
   - k =  -0.500  0.357 -0.500

  |-> Computing Wannier center evolution at k-point number:      7

  Treating all   56 k-points in band plot segment #   8:
   Sampling over :
   - k =  -0.500  0.500  0.500
   - k =  -0.500  0.500  0.482
   - k =  -0.500  0.500  0.464
   - k =  -0.500  0.500  0.445
   - k =  -0.500  0.500  0.427
   - k =  -0.500  0.500  0.409
   - k =  -0.500  0.500  0.391
   - k =  -0.500  0.500  0.373
   - k =  -0.500  0.500  0.355
   - k =  -0.500  0.500  0.336
   - k =  -0.500  0.500  0.318
   - k =  -0.500  0.500  0.300
   - k =  -0.500  0.500  0.282
   - k =  -0.500  0.500  0.264
   - k =  -0.500  0.500  0.245
   - k =  -0.500  0.500  0.227
   - k =  -0.500  0.500  0.209
   - k =  -0.500  0.500  0.191
   - k =  -0.500  0.500  0.173
   - k =  -0.500  0.500  0.155
   - k =  -0.500  0.500  0.136
   - k =  -0.500  0.500  0.118
   - k =  -0.500  0.500  0.100
   - k =  -0.500  0.500  0.082
   - k =  -0.500  0.500  0.064
   - k =  -0.500  0.500  0.045
   - k =  -0.500  0.500  0.027
   - k =  -0.500  0.500  0.009
   - k =  -0.500  0.500 -0.009
   - k =  -0.500  0.500 -0.027
   - k =  -0.500  0.500 -0.045
   - k =  -0.500  0.500 -0.064
   - k =  -0.500  0.500 -0.082
   - k =  -0.500  0.500 -0.100
   - k =  -0.500  0.500 -0.118
   - k =  -0.500  0.500 -0.136
   - k =  -0.500  0.500 -0.155
   - k =  -0.500  0.500 -0.173
   - k =  -0.500  0.500 -0.191
   - k =  -0.500  0.500 -0.209
   - k =  -0.500  0.500 -0.227
   - k =  -0.500  0.500 -0.245
   - k =  -0.500  0.500 -0.264
   - k =  -0.500  0.500 -0.282
   - k =  -0.500  0.500 -0.300
   - k =  -0.500  0.500 -0.318
   - k =  -0.500  0.500 -0.336
   - k =  -0.500  0.500 -0.355
   - k =  -0.500  0.500 -0.373
   - k =  -0.500  0.500 -0.391
   - k =  -0.500  0.500 -0.409
   - k =  -0.500  0.500 -0.427
   - k =  -0.500  0.500 -0.445
   - k =  -0.500  0.500 -0.464
   - k =  -0.500  0.500 -0.482
   - k =  -0.500  0.500 -0.500

  |-> Computing Wannier center evolution at k-point number:      8

  Treating all   56 k-points in band plot segment #   9:
   Sampling over :
   - k =  -0.357 -0.500  0.500
   - k =  -0.357 -0.500  0.482
   - k =  -0.357 -0.500  0.464
   - k =  -0.357 -0.500  0.445
   - k =  -0.357 -0.500  0.427
   - k =  -0.357 -0.500  0.409
   - k =  -0.357 -0.500  0.391
   - k =  -0.357 -0.500  0.373
   - k =  -0.357 -0.500  0.355
   - k =  -0.357 -0.500  0.336
   - k =  -0.357 -0.500  0.318
   - k =  -0.357 -0.500  0.300
   - k =  -0.357 -0.500  0.282
   - k =  -0.357 -0.500  0.264
   - k =  -0.357 -0.500  0.245
   - k =  -0.357 -0.500  0.227
   - k =  -0.357 -0.500  0.209
   - k =  -0.357 -0.500  0.191
   - k =  -0.357 -0.500  0.173
   - k =  -0.357 -0.500  0.155
   - k =  -0.357 -0.500  0.136
   - k =  -0.357 -0.500  0.118
   - k =  -0.357 -0.500  0.100
   - k =  -0.357 -0.500  0.082
   - k =  -0.357 -0.500  0.064
   - k =  -0.357 -0.500  0.045
   - k =  -0.357 -0.500  0.027
   - k =  -0.357 -0.500  0.009
   - k =  -0.357 -0.500 -0.009
   - k =  -0.357 -0.500 -0.027
   - k =  -0.357 -0.500 -0.045
   - k =  -0.357 -0.500 -0.064
   - k =  -0.357 -0.500 -0.082
   - k =  -0.357 -0.500 -0.100
   - k =  -0.357 -0.500 -0.118
   - k =  -0.357 -0.500 -0.136
   - k =  -0.357 -0.500 -0.155
   - k =  -0.357 -0.500 -0.173
   - k =  -0.357 -0.500 -0.191
   - k =  -0.357 -0.500 -0.209
   - k =  -0.357 -0.500 -0.227
   - k =  -0.357 -0.500 -0.245
   - k =  -0.357 -0.500 -0.264
   - k =  -0.357 -0.500 -0.282
   - k =  -0.357 -0.500 -0.300
   - k =  -0.357 -0.500 -0.318
   - k =  -0.357 -0.500 -0.336
   - k =  -0.357 -0.500 -0.355
   - k =  -0.357 -0.500 -0.373
   - k =  -0.357 -0.500 -0.391
   - k =  -0.357 -0.500 -0.409
   - k =  -0.357 -0.500 -0.427
   - k =  -0.357 -0.500 -0.445
   - k =  -0.357 -0.500 -0.464
   - k =  -0.357 -0.500 -0.482
   - k =  -0.357 -0.500 -0.500

  |-> Computing Wannier center evolution at k-point number:      9

  Treating all   56 k-points in band plot segment #  10:
   Sampling over :
   - k =  -0.357 -0.357  0.500
   - k =  -0.357 -0.357  0.482
   - k =  -0.357 -0.357  0.464
   - k =  -0.357 -0.357  0.445
   - k =  -0.357 -0.357  0.427
   - k =  -0.357 -0.357  0.409
   - k =  -0.357 -0.357  0.391
   - k =  -0.357 -0.357  0.373
   - k =  -0.357 -0.357  0.355
   - k =  -0.357 -0.357  0.336
   - k =  -0.357 -0.357  0.318
   - k =  -0.357 -0.357  0.300
   - k =  -0.357 -0.357  0.282
   - k =  -0.357 -0.357  0.264
   - k =  -0.357 -0.357  0.245
   - k =  -0.357 -0.357  0.227
   - k =  -0.357 -0.357  0.209
   - k =  -0.357 -0.357  0.191
   - k =  -0.357 -0.357  0.173
   - k =  -0.357 -0.357  0.155
   - k =  -0.357 -0.357  0.136
   - k =  -0.357 -0.357  0.118
   - k =  -0.357 -0.357  0.100
   - k =  -0.357 -0.357  0.082
   - k =  -0.357 -0.357  0.064
   - k =  -0.357 -0.357  0.045
   - k =  -0.357 -0.357  0.027
   - k =  -0.357 -0.357  0.009
   - k =  -0.357 -0.357 -0.009
   - k =  -0.357 -0.357 -0.027
   - k =  -0.357 -0.357 -0.045
   - k =  -0.357 -0.357 -0.064
   - k =  -0.357 -0.357 -0.082
   - k =  -0.357 -0.357 -0.100
   - k =  -0.357 -0.357 -0.118
   - k =  -0.357 -0.357 -0.136
   - k =  -0.357 -0.357 -0.155
   - k =  -0.357 -0.357 -0.173
   - k =  -0.357 -0.357 -0.191
   - k =  -0.357 -0.357 -0.209
   - k =  -0.357 -0.357 -0.227
   - k =  -0.357 -0.357 -0.245
   - k =  -0.357 -0.357 -0.264
   - k =  -0.357 -0.357 -0.282
   - k =  -0.357 -0.357 -0.300
   - k =  -0.357 -0.357 -0.318
   - k =  -0.357 -0.357 -0.336
   - k =  -0.357 -0.357 -0.355
   - k =  -0.357 -0.357 -0.373
   - k =  -0.357 -0.357 -0.391
   - k =  -0.357 -0.357 -0.409
   - k =  -0.357 -0.357 -0.427
   - k =  -0.357 -0.357 -0.445
   - k =  -0.357 -0.357 -0.464
   - k =  -0.357 -0.357 -0.482
   - k =  -0.357 -0.357 -0.500

  |-> Computing Wannier center evolution at k-point number:     10

  Treating all   56 k-points in band plot segment #  11:
   Sampling over :
   - k =  -0.357 -0.214  0.500
   - k =  -0.357 -0.214  0.482
   - k =  -0.357 -0.214  0.464
   - k =  -0.357 -0.214  0.445
   - k =  -0.357 -0.214  0.427
   - k =  -0.357 -0.214  0.409
   - k =  -0.357 -0.214  0.391
   - k =  -0.357 -0.214  0.373
   - k =  -0.357 -0.214  0.355
   - k =  -0.357 -0.214  0.336
   - k =  -0.357 -0.214  0.318
   - k =  -0.357 -0.214  0.300
   - k =  -0.357 -0.214  0.282
   - k =  -0.357 -0.214  0.264
   - k =  -0.357 -0.214  0.245
   - k =  -0.357 -0.214  0.227
   - k =  -0.357 -0.214  0.209
   - k =  -0.357 -0.214  0.191
   - k =  -0.357 -0.214  0.173
   - k =  -0.357 -0.214  0.155
   - k =  -0.357 -0.214  0.136
   - k =  -0.357 -0.214  0.118
   - k =  -0.357 -0.214  0.100
   - k =  -0.357 -0.214  0.082
   - k =  -0.357 -0.214  0.064
   - k =  -0.357 -0.214  0.045
   - k =  -0.357 -0.214  0.027
   - k =  -0.357 -0.214  0.009
   - k =  -0.357 -0.214 -0.009
   - k =  -0.357 -0.214 -0.027
   - k =  -0.357 -0.214 -0.045
   - k =  -0.357 -0.214 -0.064
   - k =  -0.357 -0.214 -0.082
   - k =  -0.357 -0.214 -0.100
   - k =  -0.357 -0.214 -0.118
   - k =  -0.357 -0.214 -0.136
   - k =  -0.357 -0.214 -0.155
   - k =  -0.357 -0.214 -0.173
   - k =  -0.357 -0.214 -0.191
   - k =  -0.357 -0.214 -0.209
   - k =  -0.357 -0.214 -0.227
   - k =  -0.357 -0.214 -0.245
   - k =  -0.357 -0.214 -0.264
   - k =  -0.357 -0.214 -0.282
   - k =  -0.357 -0.214 -0.300
   - k =  -0.357 -0.214 -0.318
   - k =  -0.357 -0.214 -0.336
   - k =  -0.357 -0.214 -0.355
   - k =  -0.357 -0.214 -0.373
   - k =  -0.357 -0.214 -0.391
   - k =  -0.357 -0.214 -0.409
   - k =  -0.357 -0.214 -0.427
   - k =  -0.357 -0.214 -0.445
   - k =  -0.357 -0.214 -0.464
   - k =  -0.357 -0.214 -0.482
   - k =  -0.357 -0.214 -0.500

  |-> Computing Wannier center evolution at k-point number:     11

  Treating all   56 k-points in band plot segment #  12:
   Sampling over :
   - k =  -0.357 -0.071  0.500
   - k =  -0.357 -0.071  0.482
   - k =  -0.357 -0.071  0.464
   - k =  -0.357 -0.071  0.445
   - k =  -0.357 -0.071  0.427
   - k =  -0.357 -0.071  0.409
   - k =  -0.357 -0.071  0.391
   - k =  -0.357 -0.071  0.373
   - k =  -0.357 -0.071  0.355
   - k =  -0.357 -0.071  0.336
   - k =  -0.357 -0.071  0.318
   - k =  -0.357 -0.071  0.300
   - k =  -0.357 -0.071  0.282
   - k =  -0.357 -0.071  0.264
   - k =  -0.357 -0.071  0.245
   - k =  -0.357 -0.071  0.227
   - k =  -0.357 -0.071  0.209
   - k =  -0.357 -0.071  0.191
   - k =  -0.357 -0.071  0.173
   - k =  -0.357 -0.071  0.155
   - k =  -0.357 -0.071  0.136
   - k =  -0.357 -0.071  0.118
   - k =  -0.357 -0.071  0.100
   - k =  -0.357 -0.071  0.082
   - k =  -0.357 -0.071  0.064
   - k =  -0.357 -0.071  0.045
   - k =  -0.357 -0.071  0.027
   - k =  -0.357 -0.071  0.009
   - k =  -0.357 -0.071 -0.009
   - k =  -0.357 -0.071 -0.027
   - k =  -0.357 -0.071 -0.045
   - k =  -0.357 -0.071 -0.064
   - k =  -0.357 -0.071 -0.082
   - k =  -0.357 -0.071 -0.100
   - k =  -0.357 -0.071 -0.118
   - k =  -0.357 -0.071 -0.136
   - k =  -0.357 -0.071 -0.155
   - k =  -0.357 -0.071 -0.173
   - k =  -0.357 -0.071 -0.191
   - k =  -0.357 -0.071 -0.209
   - k =  -0.357 -0.071 -0.227
   - k =  -0.357 -0.071 -0.245
   - k =  -0.357 -0.071 -0.264
   - k =  -0.357 -0.071 -0.282
   - k =  -0.357 -0.071 -0.300
   - k =  -0.357 -0.071 -0.318
   - k =  -0.357 -0.071 -0.336
   - k =  -0.357 -0.071 -0.355
   - k =  -0.357 -0.071 -0.373
   - k =  -0.357 -0.071 -0.391
   - k =  -0.357 -0.071 -0.409
   - k =  -0.357 -0.071 -0.427
   - k =  -0.357 -0.071 -0.445
   - k =  -0.357 -0.071 -0.464
   - k =  -0.357 -0.071 -0.482
   - k =  -0.357 -0.071 -0.500

  |-> Computing Wannier center evolution at k-point number:     12

  Treating all   56 k-points in band plot segment #  13:
   Sampling over :
   - k =  -0.357  0.071  0.500
   - k =  -0.357  0.071  0.482
   - k =  -0.357  0.071  0.464
   - k =  -0.357  0.071  0.445
   - k =  -0.357  0.071  0.427
   - k =  -0.357  0.071  0.409
   - k =  -0.357  0.071  0.391
   - k =  -0.357  0.071  0.373
   - k =  -0.357  0.071  0.355
   - k =  -0.357  0.071  0.336
   - k =  -0.357  0.071  0.318
   - k =  -0.357  0.071  0.300
   - k =  -0.357  0.071  0.282
   - k =  -0.357  0.071  0.264
   - k =  -0.357  0.071  0.245
   - k =  -0.357  0.071  0.227
   - k =  -0.357  0.071  0.209
   - k =  -0.357  0.071  0.191
   - k =  -0.357  0.071  0.173
   - k =  -0.357  0.071  0.155
   - k =  -0.357  0.071  0.136
   - k =  -0.357  0.071  0.118
   - k =  -0.357  0.071  0.100
   - k =  -0.357  0.071  0.082
   - k =  -0.357  0.071  0.064
   - k =  -0.357  0.071  0.045
   - k =  -0.357  0.071  0.027
   - k =  -0.357  0.071  0.009
   - k =  -0.357  0.071 -0.009
   - k =  -0.357  0.071 -0.027
   - k =  -0.357  0.071 -0.045
   - k =  -0.357  0.071 -0.064
   - k =  -0.357  0.071 -0.082
   - k =  -0.357  0.071 -0.100
   - k =  -0.357  0.071 -0.118
   - k =  -0.357  0.071 -0.136
   - k =  -0.357  0.071 -0.155
   - k =  -0.357  0.071 -0.173
   - k =  -0.357  0.071 -0.191
   - k =  -0.357  0.071 -0.209
   - k =  -0.357  0.071 -0.227
   - k =  -0.357  0.071 -0.245
   - k =  -0.357  0.071 -0.264
   - k =  -0.357  0.071 -0.282
   - k =  -0.357  0.071 -0.300
   - k =  -0.357  0.071 -0.318
   - k =  -0.357  0.071 -0.336
   - k =  -0.357  0.071 -0.355
   - k =  -0.357  0.071 -0.373
   - k =  -0.357  0.071 -0.391
   - k =  -0.357  0.071 -0.409
   - k =  -0.357  0.071 -0.427
   - k =  -0.357  0.071 -0.445
   - k =  -0.357  0.071 -0.464
   - k =  -0.357  0.071 -0.482
   - k =  -0.357  0.071 -0.500

  |-> Computing Wannier center evolution at k-point number:     13

  Treating all   56 k-points in band plot segment #  14:
   Sampling over :
   - k =  -0.357  0.214  0.500
   - k =  -0.357  0.214  0.482
   - k =  -0.357  0.214  0.464
   - k =  -0.357  0.214  0.445
   - k =  -0.357  0.214  0.427
   - k =  -0.357  0.214  0.409
   - k =  -0.357  0.214  0.391
   - k =  -0.357  0.214  0.373
   - k =  -0.357  0.214  0.355
   - k =  -0.357  0.214  0.336
   - k =  -0.357  0.214  0.318
   - k =  -0.357  0.214  0.300
   - k =  -0.357  0.214  0.282
   - k =  -0.357  0.214  0.264
   - k =  -0.357  0.214  0.245
   - k =  -0.357  0.214  0.227
   - k =  -0.357  0.214  0.209
   - k =  -0.357  0.214  0.191
   - k =  -0.357  0.214  0.173
   - k =  -0.357  0.214  0.155
   - k =  -0.357  0.214  0.136
   - k =  -0.357  0.214  0.118
   - k =  -0.357  0.214  0.100
   - k =  -0.357  0.214  0.082
   - k =  -0.357  0.214  0.064
   - k =  -0.357  0.214  0.045
   - k =  -0.357  0.214  0.027
   - k =  -0.357  0.214  0.009
   - k =  -0.357  0.214 -0.009
   - k =  -0.357  0.214 -0.027
   - k =  -0.357  0.214 -0.045
   - k =  -0.357  0.214 -0.064
   - k =  -0.357  0.214 -0.082
   - k =  -0.357  0.214 -0.100
   - k =  -0.357  0.214 -0.118
   - k =  -0.357  0.214 -0.136
   - k =  -0.357  0.214 -0.155
   - k =  -0.357  0.214 -0.173
   - k =  -0.357  0.214 -0.191
   - k =  -0.357  0.214 -0.209
   - k =  -0.357  0.214 -0.227
   - k =  -0.357  0.214 -0.245
   - k =  -0.357  0.214 -0.264
   - k =  -0.357  0.214 -0.282
   - k =  -0.357  0.214 -0.300
   - k =  -0.357  0.214 -0.318
   - k =  -0.357  0.214 -0.336
   - k =  -0.357  0.214 -0.355
   - k =  -0.357  0.214 -0.373
   - k =  -0.357  0.214 -0.391
   - k =  -0.357  0.214 -0.409
   - k =  -0.357  0.214 -0.427
   - k =  -0.357  0.214 -0.445
   - k =  -0.357  0.214 -0.464
   - k =  -0.357  0.214 -0.482
   - k =  -0.357  0.214 -0.500

  |-> Computing Wannier center evolution at k-point number:     14

  Treating all   56 k-points in band plot segment #  15:
   Sampling over :
   - k =  -0.357  0.357  0.500
   - k =  -0.357  0.357  0.482
   - k =  -0.357  0.357  0.464
   - k =  -0.357  0.357  0.445
   - k =  -0.357  0.357  0.427
   - k =  -0.357  0.357  0.409
   - k =  -0.357  0.357  0.391
   - k =  -0.357  0.357  0.373
   - k =  -0.357  0.357  0.355
   - k =  -0.357  0.357  0.336
   - k =  -0.357  0.357  0.318
   - k =  -0.357  0.357  0.300
   - k =  -0.357  0.357  0.282
   - k =  -0.357  0.357  0.264
   - k =  -0.357  0.357  0.245
   - k =  -0.357  0.357  0.227
   - k =  -0.357  0.357  0.209
   - k =  -0.357  0.357  0.191
   - k =  -0.357  0.357  0.173
   - k =  -0.357  0.357  0.155
   - k =  -0.357  0.357  0.136
   - k =  -0.357  0.357  0.118
   - k =  -0.357  0.357  0.100
   - k =  -0.357  0.357  0.082
   - k =  -0.357  0.357  0.064
   - k =  -0.357  0.357  0.045
   - k =  -0.357  0.357  0.027
   - k =  -0.357  0.357  0.009
   - k =  -0.357  0.357 -0.009
   - k =  -0.357  0.357 -0.027
   - k =  -0.357  0.357 -0.045
   - k =  -0.357  0.357 -0.064
   - k =  -0.357  0.357 -0.082
   - k =  -0.357  0.357 -0.100
   - k =  -0.357  0.357 -0.118
   - k =  -0.357  0.357 -0.136
   - k =  -0.357  0.357 -0.155
   - k =  -0.357  0.357 -0.173
   - k =  -0.357  0.357 -0.191
   - k =  -0.357  0.357 -0.209
   - k =  -0.357  0.357 -0.227
   - k =  -0.357  0.357 -0.245
   - k =  -0.357  0.357 -0.264
   - k =  -0.357  0.357 -0.282
   - k =  -0.357  0.357 -0.300
   - k =  -0.357  0.357 -0.318
   - k =  -0.357  0.357 -0.336
   - k =  -0.357  0.357 -0.355
   - k =  -0.357  0.357 -0.373
   - k =  -0.357  0.357 -0.391
   - k =  -0.357  0.357 -0.409
   - k =  -0.357  0.357 -0.427
   - k =  -0.357  0.357 -0.445
   - k =  -0.357  0.357 -0.464
   - k =  -0.357  0.357 -0.482
   - k =  -0.357  0.357 -0.500

  |-> Computing Wannier center evolution at k-point number:     15

  Treating all   56 k-points in band plot segment #  16:
   Sampling over :
   - k =  -0.357  0.500  0.500
   - k =  -0.357  0.500  0.482
   - k =  -0.357  0.500  0.464
   - k =  -0.357  0.500  0.445
   - k =  -0.357  0.500  0.427
   - k =  -0.357  0.500  0.409
   - k =  -0.357  0.500  0.391
   - k =  -0.357  0.500  0.373
   - k =  -0.357  0.500  0.355
   - k =  -0.357  0.500  0.336
   - k =  -0.357  0.500  0.318
   - k =  -0.357  0.500  0.300
   - k =  -0.357  0.500  0.282
   - k =  -0.357  0.500  0.264
   - k =  -0.357  0.500  0.245
   - k =  -0.357  0.500  0.227
   - k =  -0.357  0.500  0.209
   - k =  -0.357  0.500  0.191
   - k =  -0.357  0.500  0.173
   - k =  -0.357  0.500  0.155
   - k =  -0.357  0.500  0.136
   - k =  -0.357  0.500  0.118
   - k =  -0.357  0.500  0.100
   - k =  -0.357  0.500  0.082
   - k =  -0.357  0.500  0.064
   - k =  -0.357  0.500  0.045
   - k =  -0.357  0.500  0.027
   - k =  -0.357  0.500  0.009
   - k =  -0.357  0.500 -0.009
   - k =  -0.357  0.500 -0.027
   - k =  -0.357  0.500 -0.045
   - k =  -0.357  0.500 -0.064
   - k =  -0.357  0.500 -0.082
   - k =  -0.357  0.500 -0.100
   - k =  -0.357  0.500 -0.118
   - k =  -0.357  0.500 -0.136
   - k =  -0.357  0.500 -0.155
   - k =  -0.357  0.500 -0.173
   - k =  -0.357  0.500 -0.191
   - k =  -0.357  0.500 -0.209
   - k =  -0.357  0.500 -0.227
   - k =  -0.357  0.500 -0.245
   - k =  -0.357  0.500 -0.264
   - k =  -0.357  0.500 -0.282
   - k =  -0.357  0.500 -0.300
   - k =  -0.357  0.500 -0.318
   - k =  -0.357  0.500 -0.336
   - k =  -0.357  0.500 -0.355
   - k =  -0.357  0.500 -0.373
   - k =  -0.357  0.500 -0.391
   - k =  -0.357  0.500 -0.409
   - k =  -0.357  0.500 -0.427
   - k =  -0.357  0.500 -0.445
   - k =  -0.357  0.500 -0.464
   - k =  -0.357  0.500 -0.482
   - k =  -0.357  0.500 -0.500

  |-> Computing Wannier center evolution at k-point number:     16

  Treating all   56 k-points in band plot segment #  17:
   Sampling over :
   - k =  -0.214 -0.500  0.500
   - k =  -0.214 -0.500  0.482
   - k =  -0.214 -0.500  0.464
   - k =  -0.214 -0.500  0.445
   - k =  -0.214 -0.500  0.427
   - k =  -0.214 -0.500  0.409
   - k =  -0.214 -0.500  0.391
   - k =  -0.214 -0.500  0.373
   - k =  -0.214 -0.500  0.355
   - k =  -0.214 -0.500  0.336
   - k =  -0.214 -0.500  0.318
   - k =  -0.214 -0.500  0.300
   - k =  -0.214 -0.500  0.282
   - k =  -0.214 -0.500  0.264
   - k =  -0.214 -0.500  0.245
   - k =  -0.214 -0.500  0.227
   - k =  -0.214 -0.500  0.209
   - k =  -0.214 -0.500  0.191
   - k =  -0.214 -0.500  0.173
   - k =  -0.214 -0.500  0.155
   - k =  -0.214 -0.500  0.136
   - k =  -0.214 -0.500  0.118
   - k =  -0.214 -0.500  0.100
   - k =  -0.214 -0.500  0.082
   - k =  -0.214 -0.500  0.064
   - k =  -0.214 -0.500  0.045
   - k =  -0.214 -0.500  0.027
   - k =  -0.214 -0.500  0.009
   - k =  -0.214 -0.500 -0.009
   - k =  -0.214 -0.500 -0.027
   - k =  -0.214 -0.500 -0.045
   - k =  -0.214 -0.500 -0.064
   - k =  -0.214 -0.500 -0.082
   - k =  -0.214 -0.500 -0.100
   - k =  -0.214 -0.500 -0.118
   - k =  -0.214 -0.500 -0.136
   - k =  -0.214 -0.500 -0.155
   - k =  -0.214 -0.500 -0.173
   - k =  -0.214 -0.500 -0.191
   - k =  -0.214 -0.500 -0.209
   - k =  -0.214 -0.500 -0.227
   - k =  -0.214 -0.500 -0.245
   - k =  -0.214 -0.500 -0.264
   - k =  -0.214 -0.500 -0.282
   - k =  -0.214 -0.500 -0.300
   - k =  -0.214 -0.500 -0.318
   - k =  -0.214 -0.500 -0.336
   - k =  -0.214 -0.500 -0.355
   - k =  -0.214 -0.500 -0.373
   - k =  -0.214 -0.500 -0.391
   - k =  -0.214 -0.500 -0.409
   - k =  -0.214 -0.500 -0.427
   - k =  -0.214 -0.500 -0.445
   - k =  -0.214 -0.500 -0.464
   - k =  -0.214 -0.500 -0.482
   - k =  -0.214 -0.500 -0.500

  |-> Computing Wannier center evolution at k-point number:     17

  Treating all   56 k-points in band plot segment #  18:
   Sampling over :
   - k =  -0.214 -0.357  0.500
   - k =  -0.214 -0.357  0.482
   - k =  -0.214 -0.357  0.464
   - k =  -0.214 -0.357  0.445
   - k =  -0.214 -0.357  0.427
   - k =  -0.214 -0.357  0.409
   - k =  -0.214 -0.357  0.391
   - k =  -0.214 -0.357  0.373
   - k =  -0.214 -0.357  0.355
   - k =  -0.214 -0.357  0.336
   - k =  -0.214 -0.357  0.318
   - k =  -0.214 -0.357  0.300
   - k =  -0.214 -0.357  0.282
   - k =  -0.214 -0.357  0.264
   - k =  -0.214 -0.357  0.245
   - k =  -0.214 -0.357  0.227
   - k =  -0.214 -0.357  0.209
   - k =  -0.214 -0.357  0.191
   - k =  -0.214 -0.357  0.173
   - k =  -0.214 -0.357  0.155
   - k =  -0.214 -0.357  0.136
   - k =  -0.214 -0.357  0.118
   - k =  -0.214 -0.357  0.100
   - k =  -0.214 -0.357  0.082
   - k =  -0.214 -0.357  0.064
   - k =  -0.214 -0.357  0.045
   - k =  -0.214 -0.357  0.027
   - k =  -0.214 -0.357  0.009
   - k =  -0.214 -0.357 -0.009
   - k =  -0.214 -0.357 -0.027
   - k =  -0.214 -0.357 -0.045
   - k =  -0.214 -0.357 -0.064
   - k =  -0.214 -0.357 -0.082
   - k =  -0.214 -0.357 -0.100
   - k =  -0.214 -0.357 -0.118
   - k =  -0.214 -0.357 -0.136
   - k =  -0.214 -0.357 -0.155
   - k =  -0.214 -0.357 -0.173
   - k =  -0.214 -0.357 -0.191
   - k =  -0.214 -0.357 -0.209
   - k =  -0.214 -0.357 -0.227
   - k =  -0.214 -0.357 -0.245
   - k =  -0.214 -0.357 -0.264
   - k =  -0.214 -0.357 -0.282
   - k =  -0.214 -0.357 -0.300
   - k =  -0.214 -0.357 -0.318
   - k =  -0.214 -0.357 -0.336
   - k =  -0.214 -0.357 -0.355
   - k =  -0.214 -0.357 -0.373
   - k =  -0.214 -0.357 -0.391
   - k =  -0.214 -0.357 -0.409
   - k =  -0.214 -0.357 -0.427
   - k =  -0.214 -0.357 -0.445
   - k =  -0.214 -0.357 -0.464
   - k =  -0.214 -0.357 -0.482
   - k =  -0.214 -0.357 -0.500

  |-> Computing Wannier center evolution at k-point number:     18

  Treating all   56 k-points in band plot segment #  19:
   Sampling over :
   - k =  -0.214 -0.214  0.500
   - k =  -0.214 -0.214  0.482
   - k =  -0.214 -0.214  0.464
   - k =  -0.214 -0.214  0.445
   - k =  -0.214 -0.214  0.427
   - k =  -0.214 -0.214  0.409
   - k =  -0.214 -0.214  0.391
   - k =  -0.214 -0.214  0.373
   - k =  -0.214 -0.214  0.355
   - k =  -0.214 -0.214  0.336
   - k =  -0.214 -0.214  0.318
   - k =  -0.214 -0.214  0.300
   - k =  -0.214 -0.214  0.282
   - k =  -0.214 -0.214  0.264
   - k =  -0.214 -0.214  0.245
   - k =  -0.214 -0.214  0.227
   - k =  -0.214 -0.214  0.209
   - k =  -0.214 -0.214  0.191
   - k =  -0.214 -0.214  0.173
   - k =  -0.214 -0.214  0.155
   - k =  -0.214 -0.214  0.136
   - k =  -0.214 -0.214  0.118
   - k =  -0.214 -0.214  0.100
   - k =  -0.214 -0.214  0.082
   - k =  -0.214 -0.214  0.064
   - k =  -0.214 -0.214  0.045
   - k =  -0.214 -0.214  0.027
   - k =  -0.214 -0.214  0.009
   - k =  -0.214 -0.214 -0.009
   - k =  -0.214 -0.214 -0.027
   - k =  -0.214 -0.214 -0.045
   - k =  -0.214 -0.214 -0.064
   - k =  -0.214 -0.214 -0.082
   - k =  -0.214 -0.214 -0.100
   - k =  -0.214 -0.214 -0.118
   - k =  -0.214 -0.214 -0.136
   - k =  -0.214 -0.214 -0.155
   - k =  -0.214 -0.214 -0.173
   - k =  -0.214 -0.214 -0.191
   - k =  -0.214 -0.214 -0.209
   - k =  -0.214 -0.214 -0.227
   - k =  -0.214 -0.214 -0.245
   - k =  -0.214 -0.214 -0.264
   - k =  -0.214 -0.214 -0.282
   - k =  -0.214 -0.214 -0.300
   - k =  -0.214 -0.214 -0.318
   - k =  -0.214 -0.214 -0.336
   - k =  -0.214 -0.214 -0.355
   - k =  -0.214 -0.214 -0.373
   - k =  -0.214 -0.214 -0.391
   - k =  -0.214 -0.214 -0.409
   - k =  -0.214 -0.214 -0.427
   - k =  -0.214 -0.214 -0.445
   - k =  -0.214 -0.214 -0.464
   - k =  -0.214 -0.214 -0.482
   - k =  -0.214 -0.214 -0.500

  |-> Computing Wannier center evolution at k-point number:     19

  Treating all   56 k-points in band plot segment #  20:
   Sampling over :
   - k =  -0.214 -0.071  0.500
   - k =  -0.214 -0.071  0.482
   - k =  -0.214 -0.071  0.464
   - k =  -0.214 -0.071  0.445
   - k =  -0.214 -0.071  0.427
   - k =  -0.214 -0.071  0.409
   - k =  -0.214 -0.071  0.391
   - k =  -0.214 -0.071  0.373
   - k =  -0.214 -0.071  0.355
   - k =  -0.214 -0.071  0.336
   - k =  -0.214 -0.071  0.318
   - k =  -0.214 -0.071  0.300
   - k =  -0.214 -0.071  0.282
   - k =  -0.214 -0.071  0.264
   - k =  -0.214 -0.071  0.245
   - k =  -0.214 -0.071  0.227
   - k =  -0.214 -0.071  0.209
   - k =  -0.214 -0.071  0.191
   - k =  -0.214 -0.071  0.173
   - k =  -0.214 -0.071  0.155
   - k =  -0.214 -0.071  0.136
   - k =  -0.214 -0.071  0.118
   - k =  -0.214 -0.071  0.100
   - k =  -0.214 -0.071  0.082
   - k =  -0.214 -0.071  0.064
   - k =  -0.214 -0.071  0.045
   - k =  -0.214 -0.071  0.027
   - k =  -0.214 -0.071  0.009
   - k =  -0.214 -0.071 -0.009
   - k =  -0.214 -0.071 -0.027
   - k =  -0.214 -0.071 -0.045
   - k =  -0.214 -0.071 -0.064
   - k =  -0.214 -0.071 -0.082
   - k =  -0.214 -0.071 -0.100
   - k =  -0.214 -0.071 -0.118
   - k =  -0.214 -0.071 -0.136
   - k =  -0.214 -0.071 -0.155
   - k =  -0.214 -0.071 -0.173
   - k =  -0.214 -0.071 -0.191
   - k =  -0.214 -0.071 -0.209
   - k =  -0.214 -0.071 -0.227
   - k =  -0.214 -0.071 -0.245
   - k =  -0.214 -0.071 -0.264
   - k =  -0.214 -0.071 -0.282
   - k =  -0.214 -0.071 -0.300
   - k =  -0.214 -0.071 -0.318
   - k =  -0.214 -0.071 -0.336
   - k =  -0.214 -0.071 -0.355
   - k =  -0.214 -0.071 -0.373
   - k =  -0.214 -0.071 -0.391
   - k =  -0.214 -0.071 -0.409
   - k =  -0.214 -0.071 -0.427
   - k =  -0.214 -0.071 -0.445
   - k =  -0.214 -0.071 -0.464
   - k =  -0.214 -0.071 -0.482
   - k =  -0.214 -0.071 -0.500

  |-> Computing Wannier center evolution at k-point number:     20

  Treating all   56 k-points in band plot segment #  21:
   Sampling over :
   - k =  -0.214  0.071  0.500
   - k =  -0.214  0.071  0.482
   - k =  -0.214  0.071  0.464
   - k =  -0.214  0.071  0.445
   - k =  -0.214  0.071  0.427
   - k =  -0.214  0.071  0.409
   - k =  -0.214  0.071  0.391
   - k =  -0.214  0.071  0.373
   - k =  -0.214  0.071  0.355
   - k =  -0.214  0.071  0.336
   - k =  -0.214  0.071  0.318
   - k =  -0.214  0.071  0.300
   - k =  -0.214  0.071  0.282
   - k =  -0.214  0.071  0.264
   - k =  -0.214  0.071  0.245
   - k =  -0.214  0.071  0.227
   - k =  -0.214  0.071  0.209
   - k =  -0.214  0.071  0.191
   - k =  -0.214  0.071  0.173
   - k =  -0.214  0.071  0.155
   - k =  -0.214  0.071  0.136
   - k =  -0.214  0.071  0.118
   - k =  -0.214  0.071  0.100
   - k =  -0.214  0.071  0.082
   - k =  -0.214  0.071  0.064
   - k =  -0.214  0.071  0.045
   - k =  -0.214  0.071  0.027
   - k =  -0.214  0.071  0.009
   - k =  -0.214  0.071 -0.009
   - k =  -0.214  0.071 -0.027
   - k =  -0.214  0.071 -0.045
   - k =  -0.214  0.071 -0.064
   - k =  -0.214  0.071 -0.082
   - k =  -0.214  0.071 -0.100
   - k =  -0.214  0.071 -0.118
   - k =  -0.214  0.071 -0.136
   - k =  -0.214  0.071 -0.155
   - k =  -0.214  0.071 -0.173
   - k =  -0.214  0.071 -0.191
   - k =  -0.214  0.071 -0.209
   - k =  -0.214  0.071 -0.227
   - k =  -0.214  0.071 -0.245
   - k =  -0.214  0.071 -0.264
   - k =  -0.214  0.071 -0.282
   - k =  -0.214  0.071 -0.300
   - k =  -0.214  0.071 -0.318
   - k =  -0.214  0.071 -0.336
   - k =  -0.214  0.071 -0.355
   - k =  -0.214  0.071 -0.373
   - k =  -0.214  0.071 -0.391
   - k =  -0.214  0.071 -0.409
   - k =  -0.214  0.071 -0.427
   - k =  -0.214  0.071 -0.445
   - k =  -0.214  0.071 -0.464
   - k =  -0.214  0.071 -0.482
   - k =  -0.214  0.071 -0.500

  |-> Computing Wannier center evolution at k-point number:     21

  Treating all   56 k-points in band plot segment #  22:
   Sampling over :
   - k =  -0.214  0.214  0.500
   - k =  -0.214  0.214  0.482
   - k =  -0.214  0.214  0.464
   - k =  -0.214  0.214  0.445
   - k =  -0.214  0.214  0.427
   - k =  -0.214  0.214  0.409
   - k =  -0.214  0.214  0.391
   - k =  -0.214  0.214  0.373
   - k =  -0.214  0.214  0.355
   - k =  -0.214  0.214  0.336
   - k =  -0.214  0.214  0.318
   - k =  -0.214  0.214  0.300
   - k =  -0.214  0.214  0.282
   - k =  -0.214  0.214  0.264
   - k =  -0.214  0.214  0.245
   - k =  -0.214  0.214  0.227
   - k =  -0.214  0.214  0.209
   - k =  -0.214  0.214  0.191
   - k =  -0.214  0.214  0.173
   - k =  -0.214  0.214  0.155
   - k =  -0.214  0.214  0.136
   - k =  -0.214  0.214  0.118
   - k =  -0.214  0.214  0.100
   - k =  -0.214  0.214  0.082
   - k =  -0.214  0.214  0.064
   - k =  -0.214  0.214  0.045
   - k =  -0.214  0.214  0.027
   - k =  -0.214  0.214  0.009
   - k =  -0.214  0.214 -0.009
   - k =  -0.214  0.214 -0.027
   - k =  -0.214  0.214 -0.045
   - k =  -0.214  0.214 -0.064
   - k =  -0.214  0.214 -0.082
   - k =  -0.214  0.214 -0.100
   - k =  -0.214  0.214 -0.118
   - k =  -0.214  0.214 -0.136
   - k =  -0.214  0.214 -0.155
   - k =  -0.214  0.214 -0.173
   - k =  -0.214  0.214 -0.191
   - k =  -0.214  0.214 -0.209
   - k =  -0.214  0.214 -0.227
   - k =  -0.214  0.214 -0.245
   - k =  -0.214  0.214 -0.264
   - k =  -0.214  0.214 -0.282
   - k =  -0.214  0.214 -0.300
   - k =  -0.214  0.214 -0.318
   - k =  -0.214  0.214 -0.336
   - k =  -0.214  0.214 -0.355
   - k =  -0.214  0.214 -0.373
   - k =  -0.214  0.214 -0.391
   - k =  -0.214  0.214 -0.409
   - k =  -0.214  0.214 -0.427
   - k =  -0.214  0.214 -0.445
   - k =  -0.214  0.214 -0.464
   - k =  -0.214  0.214 -0.482
   - k =  -0.214  0.214 -0.500

  |-> Computing Wannier center evolution at k-point number:     22

  Treating all   56 k-points in band plot segment #  23:
   Sampling over :
   - k =  -0.214  0.357  0.500
   - k =  -0.214  0.357  0.482
   - k =  -0.214  0.357  0.464
   - k =  -0.214  0.357  0.445
   - k =  -0.214  0.357  0.427
   - k =  -0.214  0.357  0.409
   - k =  -0.214  0.357  0.391
   - k =  -0.214  0.357  0.373
   - k =  -0.214  0.357  0.355
   - k =  -0.214  0.357  0.336
   - k =  -0.214  0.357  0.318
   - k =  -0.214  0.357  0.300
   - k =  -0.214  0.357  0.282
   - k =  -0.214  0.357  0.264
   - k =  -0.214  0.357  0.245
   - k =  -0.214  0.357  0.227
   - k =  -0.214  0.357  0.209
   - k =  -0.214  0.357  0.191
   - k =  -0.214  0.357  0.173
   - k =  -0.214  0.357  0.155
   - k =  -0.214  0.357  0.136
   - k =  -0.214  0.357  0.118
   - k =  -0.214  0.357  0.100
   - k =  -0.214  0.357  0.082
   - k =  -0.214  0.357  0.064
   - k =  -0.214  0.357  0.045
   - k =  -0.214  0.357  0.027
   - k =  -0.214  0.357  0.009
   - k =  -0.214  0.357 -0.009
   - k =  -0.214  0.357 -0.027
   - k =  -0.214  0.357 -0.045
   - k =  -0.214  0.357 -0.064
   - k =  -0.214  0.357 -0.082
   - k =  -0.214  0.357 -0.100
   - k =  -0.214  0.357 -0.118
   - k =  -0.214  0.357 -0.136
   - k =  -0.214  0.357 -0.155
   - k =  -0.214  0.357 -0.173
   - k =  -0.214  0.357 -0.191
   - k =  -0.214  0.357 -0.209
   - k =  -0.214  0.357 -0.227
   - k =  -0.214  0.357 -0.245
   - k =  -0.214  0.357 -0.264
   - k =  -0.214  0.357 -0.282
   - k =  -0.214  0.357 -0.300
   - k =  -0.214  0.357 -0.318
   - k =  -0.214  0.357 -0.336
   - k =  -0.214  0.357 -0.355
   - k =  -0.214  0.357 -0.373
   - k =  -0.214  0.357 -0.391
   - k =  -0.214  0.357 -0.409
   - k =  -0.214  0.357 -0.427
   - k =  -0.214  0.357 -0.445
   - k =  -0.214  0.357 -0.464
   - k =  -0.214  0.357 -0.482
   - k =  -0.214  0.357 -0.500

  |-> Computing Wannier center evolution at k-point number:     23

  Treating all   56 k-points in band plot segment #  24:
   Sampling over :
   - k =  -0.214  0.500  0.500
   - k =  -0.214  0.500  0.482
   - k =  -0.214  0.500  0.464
   - k =  -0.214  0.500  0.445
   - k =  -0.214  0.500  0.427
   - k =  -0.214  0.500  0.409
   - k =  -0.214  0.500  0.391
   - k =  -0.214  0.500  0.373
   - k =  -0.214  0.500  0.355
   - k =  -0.214  0.500  0.336
   - k =  -0.214  0.500  0.318
   - k =  -0.214  0.500  0.300
   - k =  -0.214  0.500  0.282
   - k =  -0.214  0.500  0.264
   - k =  -0.214  0.500  0.245
   - k =  -0.214  0.500  0.227
   - k =  -0.214  0.500  0.209
   - k =  -0.214  0.500  0.191
   - k =  -0.214  0.500  0.173
   - k =  -0.214  0.500  0.155
   - k =  -0.214  0.500  0.136
   - k =  -0.214  0.500  0.118
   - k =  -0.214  0.500  0.100
   - k =  -0.214  0.500  0.082
   - k =  -0.214  0.500  0.064
   - k =  -0.214  0.500  0.045
   - k =  -0.214  0.500  0.027
   - k =  -0.214  0.500  0.009
   - k =  -0.214  0.500 -0.009
   - k =  -0.214  0.500 -0.027
   - k =  -0.214  0.500 -0.045
   - k =  -0.214  0.500 -0.064
   - k =  -0.214  0.500 -0.082
   - k =  -0.214  0.500 -0.100
   - k =  -0.214  0.500 -0.118
   - k =  -0.214  0.500 -0.136
   - k =  -0.214  0.500 -0.155
   - k =  -0.214  0.500 -0.173
   - k =  -0.214  0.500 -0.191
   - k =  -0.214  0.500 -0.209
   - k =  -0.214  0.500 -0.227
   - k =  -0.214  0.500 -0.245
   - k =  -0.214  0.500 -0.264
   - k =  -0.214  0.500 -0.282
   - k =  -0.214  0.500 -0.300
   - k =  -0.214  0.500 -0.318
   - k =  -0.214  0.500 -0.336
   - k =  -0.214  0.500 -0.355
   - k =  -0.214  0.500 -0.373
   - k =  -0.214  0.500 -0.391
   - k =  -0.214  0.500 -0.409
   - k =  -0.214  0.500 -0.427
   - k =  -0.214  0.500 -0.445
   - k =  -0.214  0.500 -0.464
   - k =  -0.214  0.500 -0.482
   - k =  -0.214  0.500 -0.500

  |-> Computing Wannier center evolution at k-point number:     24

  Treating all   56 k-points in band plot segment #  25:
   Sampling over :
   - k =  -0.071 -0.500  0.500
   - k =  -0.071 -0.500  0.482
   - k =  -0.071 -0.500  0.464
   - k =  -0.071 -0.500  0.445
   - k =  -0.071 -0.500  0.427
   - k =  -0.071 -0.500  0.409
   - k =  -0.071 -0.500  0.391
   - k =  -0.071 -0.500  0.373
   - k =  -0.071 -0.500  0.355
   - k =  -0.071 -0.500  0.336
   - k =  -0.071 -0.500  0.318
   - k =  -0.071 -0.500  0.300
   - k =  -0.071 -0.500  0.282
   - k =  -0.071 -0.500  0.264
   - k =  -0.071 -0.500  0.245
   - k =  -0.071 -0.500  0.227
   - k =  -0.071 -0.500  0.209
   - k =  -0.071 -0.500  0.191
   - k =  -0.071 -0.500  0.173
   - k =  -0.071 -0.500  0.155
   - k =  -0.071 -0.500  0.136
   - k =  -0.071 -0.500  0.118
   - k =  -0.071 -0.500  0.100
   - k =  -0.071 -0.500  0.082
   - k =  -0.071 -0.500  0.064
   - k =  -0.071 -0.500  0.045
   - k =  -0.071 -0.500  0.027
   - k =  -0.071 -0.500  0.009
   - k =  -0.071 -0.500 -0.009
   - k =  -0.071 -0.500 -0.027
   - k =  -0.071 -0.500 -0.045
   - k =  -0.071 -0.500 -0.064
   - k =  -0.071 -0.500 -0.082
   - k =  -0.071 -0.500 -0.100
   - k =  -0.071 -0.500 -0.118
   - k =  -0.071 -0.500 -0.136
   - k =  -0.071 -0.500 -0.155
   - k =  -0.071 -0.500 -0.173
   - k =  -0.071 -0.500 -0.191
   - k =  -0.071 -0.500 -0.209
   - k =  -0.071 -0.500 -0.227
   - k =  -0.071 -0.500 -0.245
   - k =  -0.071 -0.500 -0.264
   - k =  -0.071 -0.500 -0.282
   - k =  -0.071 -0.500 -0.300
   - k =  -0.071 -0.500 -0.318
   - k =  -0.071 -0.500 -0.336
   - k =  -0.071 -0.500 -0.355
   - k =  -0.071 -0.500 -0.373
   - k =  -0.071 -0.500 -0.391
   - k =  -0.071 -0.500 -0.409
   - k =  -0.071 -0.500 -0.427
   - k =  -0.071 -0.500 -0.445
   - k =  -0.071 -0.500 -0.464
   - k =  -0.071 -0.500 -0.482
   - k =  -0.071 -0.500 -0.500

  |-> Computing Wannier center evolution at k-point number:     25

  Treating all   56 k-points in band plot segment #  26:
   Sampling over :
   - k =  -0.071 -0.357  0.500
   - k =  -0.071 -0.357  0.482
   - k =  -0.071 -0.357  0.464
   - k =  -0.071 -0.357  0.445
   - k =  -0.071 -0.357  0.427
   - k =  -0.071 -0.357  0.409
   - k =  -0.071 -0.357  0.391
   - k =  -0.071 -0.357  0.373
   - k =  -0.071 -0.357  0.355
   - k =  -0.071 -0.357  0.336
   - k =  -0.071 -0.357  0.318
   - k =  -0.071 -0.357  0.300
   - k =  -0.071 -0.357  0.282
   - k =  -0.071 -0.357  0.264
   - k =  -0.071 -0.357  0.245
   - k =  -0.071 -0.357  0.227
   - k =  -0.071 -0.357  0.209
   - k =  -0.071 -0.357  0.191
   - k =  -0.071 -0.357  0.173
   - k =  -0.071 -0.357  0.155
   - k =  -0.071 -0.357  0.136
   - k =  -0.071 -0.357  0.118
   - k =  -0.071 -0.357  0.100
   - k =  -0.071 -0.357  0.082
   - k =  -0.071 -0.357  0.064
   - k =  -0.071 -0.357  0.045
   - k =  -0.071 -0.357  0.027
   - k =  -0.071 -0.357  0.009
   - k =  -0.071 -0.357 -0.009
   - k =  -0.071 -0.357 -0.027
   - k =  -0.071 -0.357 -0.045
   - k =  -0.071 -0.357 -0.064
   - k =  -0.071 -0.357 -0.082
   - k =  -0.071 -0.357 -0.100
   - k =  -0.071 -0.357 -0.118
   - k =  -0.071 -0.357 -0.136
   - k =  -0.071 -0.357 -0.155
   - k =  -0.071 -0.357 -0.173
   - k =  -0.071 -0.357 -0.191
   - k =  -0.071 -0.357 -0.209
   - k =  -0.071 -0.357 -0.227
   - k =  -0.071 -0.357 -0.245
   - k =  -0.071 -0.357 -0.264
   - k =  -0.071 -0.357 -0.282
   - k =  -0.071 -0.357 -0.300
   - k =  -0.071 -0.357 -0.318
   - k =  -0.071 -0.357 -0.336
   - k =  -0.071 -0.357 -0.355
   - k =  -0.071 -0.357 -0.373
   - k =  -0.071 -0.357 -0.391
   - k =  -0.071 -0.357 -0.409
   - k =  -0.071 -0.357 -0.427
   - k =  -0.071 -0.357 -0.445
   - k =  -0.071 -0.357 -0.464
   - k =  -0.071 -0.357 -0.482
   - k =  -0.071 -0.357 -0.500

  |-> Computing Wannier center evolution at k-point number:     26

  Treating all   56 k-points in band plot segment #  27:
   Sampling over :
   - k =  -0.071 -0.214  0.500
   - k =  -0.071 -0.214  0.482
   - k =  -0.071 -0.214  0.464
   - k =  -0.071 -0.214  0.445
   - k =  -0.071 -0.214  0.427
   - k =  -0.071 -0.214  0.409
   - k =  -0.071 -0.214  0.391
   - k =  -0.071 -0.214  0.373
   - k =  -0.071 -0.214  0.355
   - k =  -0.071 -0.214  0.336
   - k =  -0.071 -0.214  0.318
   - k =  -0.071 -0.214  0.300
   - k =  -0.071 -0.214  0.282
   - k =  -0.071 -0.214  0.264
   - k =  -0.071 -0.214  0.245
   - k =  -0.071 -0.214  0.227
   - k =  -0.071 -0.214  0.209
   - k =  -0.071 -0.214  0.191
   - k =  -0.071 -0.214  0.173
   - k =  -0.071 -0.214  0.155
   - k =  -0.071 -0.214  0.136
   - k =  -0.071 -0.214  0.118
   - k =  -0.071 -0.214  0.100
   - k =  -0.071 -0.214  0.082
   - k =  -0.071 -0.214  0.064
   - k =  -0.071 -0.214  0.045
   - k =  -0.071 -0.214  0.027
   - k =  -0.071 -0.214  0.009
   - k =  -0.071 -0.214 -0.009
   - k =  -0.071 -0.214 -0.027
   - k =  -0.071 -0.214 -0.045
   - k =  -0.071 -0.214 -0.064
   - k =  -0.071 -0.214 -0.082
   - k =  -0.071 -0.214 -0.100
   - k =  -0.071 -0.214 -0.118
   - k =  -0.071 -0.214 -0.136
   - k =  -0.071 -0.214 -0.155
   - k =  -0.071 -0.214 -0.173
   - k =  -0.071 -0.214 -0.191
   - k =  -0.071 -0.214 -0.209
   - k =  -0.071 -0.214 -0.227
   - k =  -0.071 -0.214 -0.245
   - k =  -0.071 -0.214 -0.264
   - k =  -0.071 -0.214 -0.282
   - k =  -0.071 -0.214 -0.300
   - k =  -0.071 -0.214 -0.318
   - k =  -0.071 -0.214 -0.336
   - k =  -0.071 -0.214 -0.355
   - k =  -0.071 -0.214 -0.373
   - k =  -0.071 -0.214 -0.391
   - k =  -0.071 -0.214 -0.409
   - k =  -0.071 -0.214 -0.427
   - k =  -0.071 -0.214 -0.445
   - k =  -0.071 -0.214 -0.464
   - k =  -0.071 -0.214 -0.482
   - k =  -0.071 -0.214 -0.500

  |-> Computing Wannier center evolution at k-point number:     27

  Treating all   56 k-points in band plot segment #  28:
   Sampling over :
   - k =  -0.071 -0.071  0.500
   - k =  -0.071 -0.071  0.482
   - k =  -0.071 -0.071  0.464
   - k =  -0.071 -0.071  0.445
   - k =  -0.071 -0.071  0.427
   - k =  -0.071 -0.071  0.409
   - k =  -0.071 -0.071  0.391
   - k =  -0.071 -0.071  0.373
   - k =  -0.071 -0.071  0.355
   - k =  -0.071 -0.071  0.336
   - k =  -0.071 -0.071  0.318
   - k =  -0.071 -0.071  0.300
   - k =  -0.071 -0.071  0.282
   - k =  -0.071 -0.071  0.264
   - k =  -0.071 -0.071  0.245
   - k =  -0.071 -0.071  0.227
   - k =  -0.071 -0.071  0.209
   - k =  -0.071 -0.071  0.191
   - k =  -0.071 -0.071  0.173
   - k =  -0.071 -0.071  0.155
   - k =  -0.071 -0.071  0.136
   - k =  -0.071 -0.071  0.118
   - k =  -0.071 -0.071  0.100
   - k =  -0.071 -0.071  0.082
   - k =  -0.071 -0.071  0.064
   - k =  -0.071 -0.071  0.045
   - k =  -0.071 -0.071  0.027
   - k =  -0.071 -0.071  0.009
   - k =  -0.071 -0.071 -0.009
   - k =  -0.071 -0.071 -0.027
   - k =  -0.071 -0.071 -0.045
   - k =  -0.071 -0.071 -0.064
   - k =  -0.071 -0.071 -0.082
   - k =  -0.071 -0.071 -0.100
   - k =  -0.071 -0.071 -0.118
   - k =  -0.071 -0.071 -0.136
   - k =  -0.071 -0.071 -0.155
   - k =  -0.071 -0.071 -0.173
   - k =  -0.071 -0.071 -0.191
   - k =  -0.071 -0.071 -0.209
   - k =  -0.071 -0.071 -0.227
   - k =  -0.071 -0.071 -0.245
   - k =  -0.071 -0.071 -0.264
   - k =  -0.071 -0.071 -0.282
   - k =  -0.071 -0.071 -0.300
   - k =  -0.071 -0.071 -0.318
   - k =  -0.071 -0.071 -0.336
   - k =  -0.071 -0.071 -0.355
   - k =  -0.071 -0.071 -0.373
   - k =  -0.071 -0.071 -0.391
   - k =  -0.071 -0.071 -0.409
   - k =  -0.071 -0.071 -0.427
   - k =  -0.071 -0.071 -0.445
   - k =  -0.071 -0.071 -0.464
   - k =  -0.071 -0.071 -0.482
   - k =  -0.071 -0.071 -0.500

  |-> Computing Wannier center evolution at k-point number:     28

  Treating all   56 k-points in band plot segment #  29:
   Sampling over :
   - k =  -0.071  0.071  0.500
   - k =  -0.071  0.071  0.482
   - k =  -0.071  0.071  0.464
   - k =  -0.071  0.071  0.445
   - k =  -0.071  0.071  0.427
   - k =  -0.071  0.071  0.409
   - k =  -0.071  0.071  0.391
   - k =  -0.071  0.071  0.373
   - k =  -0.071  0.071  0.355
   - k =  -0.071  0.071  0.336
   - k =  -0.071  0.071  0.318
   - k =  -0.071  0.071  0.300
   - k =  -0.071  0.071  0.282
   - k =  -0.071  0.071  0.264
   - k =  -0.071  0.071  0.245
   - k =  -0.071  0.071  0.227
   - k =  -0.071  0.071  0.209
   - k =  -0.071  0.071  0.191
   - k =  -0.071  0.071  0.173
   - k =  -0.071  0.071  0.155
   - k =  -0.071  0.071  0.136
   - k =  -0.071  0.071  0.118
   - k =  -0.071  0.071  0.100
   - k =  -0.071  0.071  0.082
   - k =  -0.071  0.071  0.064
   - k =  -0.071  0.071  0.045
   - k =  -0.071  0.071  0.027
   - k =  -0.071  0.071  0.009
   - k =  -0.071  0.071 -0.009
   - k =  -0.071  0.071 -0.027
   - k =  -0.071  0.071 -0.045
   - k =  -0.071  0.071 -0.064
   - k =  -0.071  0.071 -0.082
   - k =  -0.071  0.071 -0.100
   - k =  -0.071  0.071 -0.118
   - k =  -0.071  0.071 -0.136
   - k =  -0.071  0.071 -0.155
   - k =  -0.071  0.071 -0.173
   - k =  -0.071  0.071 -0.191
   - k =  -0.071  0.071 -0.209
   - k =  -0.071  0.071 -0.227
   - k =  -0.071  0.071 -0.245
   - k =  -0.071  0.071 -0.264
   - k =  -0.071  0.071 -0.282
   - k =  -0.071  0.071 -0.300
   - k =  -0.071  0.071 -0.318
   - k =  -0.071  0.071 -0.336
   - k =  -0.071  0.071 -0.355
   - k =  -0.071  0.071 -0.373
   - k =  -0.071  0.071 -0.391
   - k =  -0.071  0.071 -0.409
   - k =  -0.071  0.071 -0.427
   - k =  -0.071  0.071 -0.445
   - k =  -0.071  0.071 -0.464
   - k =  -0.071  0.071 -0.482
   - k =  -0.071  0.071 -0.500

  |-> Computing Wannier center evolution at k-point number:     29

  Treating all   56 k-points in band plot segment #  30:
   Sampling over :
   - k =  -0.071  0.214  0.500
   - k =  -0.071  0.214  0.482
   - k =  -0.071  0.214  0.464
   - k =  -0.071  0.214  0.445
   - k =  -0.071  0.214  0.427
   - k =  -0.071  0.214  0.409
   - k =  -0.071  0.214  0.391
   - k =  -0.071  0.214  0.373
   - k =  -0.071  0.214  0.355
   - k =  -0.071  0.214  0.336
   - k =  -0.071  0.214  0.318
   - k =  -0.071  0.214  0.300
   - k =  -0.071  0.214  0.282
   - k =  -0.071  0.214  0.264
   - k =  -0.071  0.214  0.245
   - k =  -0.071  0.214  0.227
   - k =  -0.071  0.214  0.209
   - k =  -0.071  0.214  0.191
   - k =  -0.071  0.214  0.173
   - k =  -0.071  0.214  0.155
   - k =  -0.071  0.214  0.136
   - k =  -0.071  0.214  0.118
   - k =  -0.071  0.214  0.100
   - k =  -0.071  0.214  0.082
   - k =  -0.071  0.214  0.064
   - k =  -0.071  0.214  0.045
   - k =  -0.071  0.214  0.027
   - k =  -0.071  0.214  0.009
   - k =  -0.071  0.214 -0.009
   - k =  -0.071  0.214 -0.027
   - k =  -0.071  0.214 -0.045
   - k =  -0.071  0.214 -0.064
   - k =  -0.071  0.214 -0.082
   - k =  -0.071  0.214 -0.100
   - k =  -0.071  0.214 -0.118
   - k =  -0.071  0.214 -0.136
   - k =  -0.071  0.214 -0.155
   - k =  -0.071  0.214 -0.173
   - k =  -0.071  0.214 -0.191
   - k =  -0.071  0.214 -0.209
   - k =  -0.071  0.214 -0.227
   - k =  -0.071  0.214 -0.245
   - k =  -0.071  0.214 -0.264
   - k =  -0.071  0.214 -0.282
   - k =  -0.071  0.214 -0.300
   - k =  -0.071  0.214 -0.318
   - k =  -0.071  0.214 -0.336
   - k =  -0.071  0.214 -0.355
   - k =  -0.071  0.214 -0.373
   - k =  -0.071  0.214 -0.391
   - k =  -0.071  0.214 -0.409
   - k =  -0.071  0.214 -0.427
   - k =  -0.071  0.214 -0.445
   - k =  -0.071  0.214 -0.464
   - k =  -0.071  0.214 -0.482
   - k =  -0.071  0.214 -0.500

  |-> Computing Wannier center evolution at k-point number:     30

  Treating all   56 k-points in band plot segment #  31:
   Sampling over :
   - k =  -0.071  0.357  0.500
   - k =  -0.071  0.357  0.482
   - k =  -0.071  0.357  0.464
   - k =  -0.071  0.357  0.445
   - k =  -0.071  0.357  0.427
   - k =  -0.071  0.357  0.409
   - k =  -0.071  0.357  0.391
   - k =  -0.071  0.357  0.373
   - k =  -0.071  0.357  0.355
   - k =  -0.071  0.357  0.336
   - k =  -0.071  0.357  0.318
   - k =  -0.071  0.357  0.300
   - k =  -0.071  0.357  0.282
   - k =  -0.071  0.357  0.264
   - k =  -0.071  0.357  0.245
   - k =  -0.071  0.357  0.227
   - k =  -0.071  0.357  0.209
   - k =  -0.071  0.357  0.191
   - k =  -0.071  0.357  0.173
   - k =  -0.071  0.357  0.155
   - k =  -0.071  0.357  0.136
   - k =  -0.071  0.357  0.118
   - k =  -0.071  0.357  0.100
   - k =  -0.071  0.357  0.082
   - k =  -0.071  0.357  0.064
   - k =  -0.071  0.357  0.045
   - k =  -0.071  0.357  0.027
   - k =  -0.071  0.357  0.009
   - k =  -0.071  0.357 -0.009
   - k =  -0.071  0.357 -0.027
   - k =  -0.071  0.357 -0.045
   - k =  -0.071  0.357 -0.064
   - k =  -0.071  0.357 -0.082
   - k =  -0.071  0.357 -0.100
   - k =  -0.071  0.357 -0.118
   - k =  -0.071  0.357 -0.136
   - k =  -0.071  0.357 -0.155
   - k =  -0.071  0.357 -0.173
   - k =  -0.071  0.357 -0.191
   - k =  -0.071  0.357 -0.209
   - k =  -0.071  0.357 -0.227
   - k =  -0.071  0.357 -0.245
   - k =  -0.071  0.357 -0.264
   - k =  -0.071  0.357 -0.282
   - k =  -0.071  0.357 -0.300
   - k =  -0.071  0.357 -0.318
   - k =  -0.071  0.357 -0.336
   - k =  -0.071  0.357 -0.355
   - k =  -0.071  0.357 -0.373
   - k =  -0.071  0.357 -0.391
   - k =  -0.071  0.357 -0.409
   - k =  -0.071  0.357 -0.427
   - k =  -0.071  0.357 -0.445
   - k =  -0.071  0.357 -0.464
   - k =  -0.071  0.357 -0.482
   - k =  -0.071  0.357 -0.500

  |-> Computing Wannier center evolution at k-point number:     31

  Treating all   56 k-points in band plot segment #  32:
   Sampling over :
   - k =  -0.071  0.500  0.500
   - k =  -0.071  0.500  0.482
   - k =  -0.071  0.500  0.464
   - k =  -0.071  0.500  0.445
   - k =  -0.071  0.500  0.427
   - k =  -0.071  0.500  0.409
   - k =  -0.071  0.500  0.391
   - k =  -0.071  0.500  0.373
   - k =  -0.071  0.500  0.355
   - k =  -0.071  0.500  0.336
   - k =  -0.071  0.500  0.318
   - k =  -0.071  0.500  0.300
   - k =  -0.071  0.500  0.282
   - k =  -0.071  0.500  0.264
   - k =  -0.071  0.500  0.245
   - k =  -0.071  0.500  0.227
   - k =  -0.071  0.500  0.209
   - k =  -0.071  0.500  0.191
   - k =  -0.071  0.500  0.173
   - k =  -0.071  0.500  0.155
   - k =  -0.071  0.500  0.136
   - k =  -0.071  0.500  0.118
   - k =  -0.071  0.500  0.100
   - k =  -0.071  0.500  0.082
   - k =  -0.071  0.500  0.064
   - k =  -0.071  0.500  0.045
   - k =  -0.071  0.500  0.027
   - k =  -0.071  0.500  0.009
   - k =  -0.071  0.500 -0.009
   - k =  -0.071  0.500 -0.027
   - k =  -0.071  0.500 -0.045
   - k =  -0.071  0.500 -0.064
   - k =  -0.071  0.500 -0.082
   - k =  -0.071  0.500 -0.100
   - k =  -0.071  0.500 -0.118
   - k =  -0.071  0.500 -0.136
   - k =  -0.071  0.500 -0.155
   - k =  -0.071  0.500 -0.173
   - k =  -0.071  0.500 -0.191
   - k =  -0.071  0.500 -0.209
   - k =  -0.071  0.500 -0.227
   - k =  -0.071  0.500 -0.245
   - k =  -0.071  0.500 -0.264
   - k =  -0.071  0.500 -0.282
   - k =  -0.071  0.500 -0.300
   - k =  -0.071  0.500 -0.318
   - k =  -0.071  0.500 -0.336
   - k =  -0.071  0.500 -0.355
   - k =  -0.071  0.500 -0.373
   - k =  -0.071  0.500 -0.391
   - k =  -0.071  0.500 -0.409
   - k =  -0.071  0.500 -0.427
   - k =  -0.071  0.500 -0.445
   - k =  -0.071  0.500 -0.464
   - k =  -0.071  0.500 -0.482
   - k =  -0.071  0.500 -0.500

  |-> Computing Wannier center evolution at k-point number:     32

  Treating all   56 k-points in band plot segment #  33:
   Sampling over :
   - k =   0.071 -0.500  0.500
   - k =   0.071 -0.500  0.482
   - k =   0.071 -0.500  0.464
   - k =   0.071 -0.500  0.445
   - k =   0.071 -0.500  0.427
   - k =   0.071 -0.500  0.409
   - k =   0.071 -0.500  0.391
   - k =   0.071 -0.500  0.373
   - k =   0.071 -0.500  0.355
   - k =   0.071 -0.500  0.336
   - k =   0.071 -0.500  0.318
   - k =   0.071 -0.500  0.300
   - k =   0.071 -0.500  0.282
   - k =   0.071 -0.500  0.264
   - k =   0.071 -0.500  0.245
   - k =   0.071 -0.500  0.227
   - k =   0.071 -0.500  0.209
   - k =   0.071 -0.500  0.191
   - k =   0.071 -0.500  0.173
   - k =   0.071 -0.500  0.155
   - k =   0.071 -0.500  0.136
   - k =   0.071 -0.500  0.118
   - k =   0.071 -0.500  0.100
   - k =   0.071 -0.500  0.082
   - k =   0.071 -0.500  0.064
   - k =   0.071 -0.500  0.045
   - k =   0.071 -0.500  0.027
   - k =   0.071 -0.500  0.009
   - k =   0.071 -0.500 -0.009
   - k =   0.071 -0.500 -0.027
   - k =   0.071 -0.500 -0.045
   - k =   0.071 -0.500 -0.064
   - k =   0.071 -0.500 -0.082
   - k =   0.071 -0.500 -0.100
   - k =   0.071 -0.500 -0.118
   - k =   0.071 -0.500 -0.136
   - k =   0.071 -0.500 -0.155
   - k =   0.071 -0.500 -0.173
   - k =   0.071 -0.500 -0.191
   - k =   0.071 -0.500 -0.209
   - k =   0.071 -0.500 -0.227
   - k =   0.071 -0.500 -0.245
   - k =   0.071 -0.500 -0.264
   - k =   0.071 -0.500 -0.282
   - k =   0.071 -0.500 -0.300
   - k =   0.071 -0.500 -0.318
   - k =   0.071 -0.500 -0.336
   - k =   0.071 -0.500 -0.355
   - k =   0.071 -0.500 -0.373
   - k =   0.071 -0.500 -0.391
   - k =   0.071 -0.500 -0.409
   - k =   0.071 -0.500 -0.427
   - k =   0.071 -0.500 -0.445
   - k =   0.071 -0.500 -0.464
   - k =   0.071 -0.500 -0.482
   - k =   0.071 -0.500 -0.500

  |-> Computing Wannier center evolution at k-point number:     33

  Treating all   56 k-points in band plot segment #  34:
   Sampling over :
   - k =   0.071 -0.357  0.500
   - k =   0.071 -0.357  0.482
   - k =   0.071 -0.357  0.464
   - k =   0.071 -0.357  0.445
   - k =   0.071 -0.357  0.427
   - k =   0.071 -0.357  0.409
   - k =   0.071 -0.357  0.391
   - k =   0.071 -0.357  0.373
   - k =   0.071 -0.357  0.355
   - k =   0.071 -0.357  0.336
   - k =   0.071 -0.357  0.318
   - k =   0.071 -0.357  0.300
   - k =   0.071 -0.357  0.282
   - k =   0.071 -0.357  0.264
   - k =   0.071 -0.357  0.245
   - k =   0.071 -0.357  0.227
   - k =   0.071 -0.357  0.209
   - k =   0.071 -0.357  0.191
   - k =   0.071 -0.357  0.173
   - k =   0.071 -0.357  0.155
   - k =   0.071 -0.357  0.136
   - k =   0.071 -0.357  0.118
   - k =   0.071 -0.357  0.100
   - k =   0.071 -0.357  0.082
   - k =   0.071 -0.357  0.064
   - k =   0.071 -0.357  0.045
   - k =   0.071 -0.357  0.027
   - k =   0.071 -0.357  0.009
   - k =   0.071 -0.357 -0.009
   - k =   0.071 -0.357 -0.027
   - k =   0.071 -0.357 -0.045
   - k =   0.071 -0.357 -0.064
   - k =   0.071 -0.357 -0.082
   - k =   0.071 -0.357 -0.100
   - k =   0.071 -0.357 -0.118
   - k =   0.071 -0.357 -0.136
   - k =   0.071 -0.357 -0.155
   - k =   0.071 -0.357 -0.173
   - k =   0.071 -0.357 -0.191
   - k =   0.071 -0.357 -0.209
   - k =   0.071 -0.357 -0.227
   - k =   0.071 -0.357 -0.245
   - k =   0.071 -0.357 -0.264
   - k =   0.071 -0.357 -0.282
   - k =   0.071 -0.357 -0.300
   - k =   0.071 -0.357 -0.318
   - k =   0.071 -0.357 -0.336
   - k =   0.071 -0.357 -0.355
   - k =   0.071 -0.357 -0.373
   - k =   0.071 -0.357 -0.391
   - k =   0.071 -0.357 -0.409
   - k =   0.071 -0.357 -0.427
   - k =   0.071 -0.357 -0.445
   - k =   0.071 -0.357 -0.464
   - k =   0.071 -0.357 -0.482
   - k =   0.071 -0.357 -0.500

  |-> Computing Wannier center evolution at k-point number:     34

  Treating all   56 k-points in band plot segment #  35:
   Sampling over :
   - k =   0.071 -0.214  0.500
   - k =   0.071 -0.214  0.482
   - k =   0.071 -0.214  0.464
   - k =   0.071 -0.214  0.445
   - k =   0.071 -0.214  0.427
   - k =   0.071 -0.214  0.409
   - k =   0.071 -0.214  0.391
   - k =   0.071 -0.214  0.373
   - k =   0.071 -0.214  0.355
   - k =   0.071 -0.214  0.336
   - k =   0.071 -0.214  0.318
   - k =   0.071 -0.214  0.300
   - k =   0.071 -0.214  0.282
   - k =   0.071 -0.214  0.264
   - k =   0.071 -0.214  0.245
   - k =   0.071 -0.214  0.227
   - k =   0.071 -0.214  0.209
   - k =   0.071 -0.214  0.191
   - k =   0.071 -0.214  0.173
   - k =   0.071 -0.214  0.155
   - k =   0.071 -0.214  0.136
   - k =   0.071 -0.214  0.118
   - k =   0.071 -0.214  0.100
   - k =   0.071 -0.214  0.082
   - k =   0.071 -0.214  0.064
   - k =   0.071 -0.214  0.045
   - k =   0.071 -0.214  0.027
   - k =   0.071 -0.214  0.009
   - k =   0.071 -0.214 -0.009
   - k =   0.071 -0.214 -0.027
   - k =   0.071 -0.214 -0.045
   - k =   0.071 -0.214 -0.064
   - k =   0.071 -0.214 -0.082
   - k =   0.071 -0.214 -0.100
   - k =   0.071 -0.214 -0.118
   - k =   0.071 -0.214 -0.136
   - k =   0.071 -0.214 -0.155
   - k =   0.071 -0.214 -0.173
   - k =   0.071 -0.214 -0.191
   - k =   0.071 -0.214 -0.209
   - k =   0.071 -0.214 -0.227
   - k =   0.071 -0.214 -0.245
   - k =   0.071 -0.214 -0.264
   - k =   0.071 -0.214 -0.282
   - k =   0.071 -0.214 -0.300
   - k =   0.071 -0.214 -0.318
   - k =   0.071 -0.214 -0.336
   - k =   0.071 -0.214 -0.355
   - k =   0.071 -0.214 -0.373
   - k =   0.071 -0.214 -0.391
   - k =   0.071 -0.214 -0.409
   - k =   0.071 -0.214 -0.427
   - k =   0.071 -0.214 -0.445
   - k =   0.071 -0.214 -0.464
   - k =   0.071 -0.214 -0.482
   - k =   0.071 -0.214 -0.500

  |-> Computing Wannier center evolution at k-point number:     35

  Treating all   56 k-points in band plot segment #  36:
   Sampling over :
   - k =   0.071 -0.071  0.500
   - k =   0.071 -0.071  0.482
   - k =   0.071 -0.071  0.464
   - k =   0.071 -0.071  0.445
   - k =   0.071 -0.071  0.427
   - k =   0.071 -0.071  0.409
   - k =   0.071 -0.071  0.391
   - k =   0.071 -0.071  0.373
   - k =   0.071 -0.071  0.355
   - k =   0.071 -0.071  0.336
   - k =   0.071 -0.071  0.318
   - k =   0.071 -0.071  0.300
   - k =   0.071 -0.071  0.282
   - k =   0.071 -0.071  0.264
   - k =   0.071 -0.071  0.245
   - k =   0.071 -0.071  0.227
   - k =   0.071 -0.071  0.209
   - k =   0.071 -0.071  0.191
   - k =   0.071 -0.071  0.173
   - k =   0.071 -0.071  0.155
   - k =   0.071 -0.071  0.136
   - k =   0.071 -0.071  0.118
   - k =   0.071 -0.071  0.100
   - k =   0.071 -0.071  0.082
   - k =   0.071 -0.071  0.064
   - k =   0.071 -0.071  0.045
   - k =   0.071 -0.071  0.027
   - k =   0.071 -0.071  0.009
   - k =   0.071 -0.071 -0.009
   - k =   0.071 -0.071 -0.027
   - k =   0.071 -0.071 -0.045
   - k =   0.071 -0.071 -0.064
   - k =   0.071 -0.071 -0.082
   - k =   0.071 -0.071 -0.100
   - k =   0.071 -0.071 -0.118
   - k =   0.071 -0.071 -0.136
   - k =   0.071 -0.071 -0.155
   - k =   0.071 -0.071 -0.173
   - k =   0.071 -0.071 -0.191
   - k =   0.071 -0.071 -0.209
   - k =   0.071 -0.071 -0.227
   - k =   0.071 -0.071 -0.245
   - k =   0.071 -0.071 -0.264
   - k =   0.071 -0.071 -0.282
   - k =   0.071 -0.071 -0.300
   - k =   0.071 -0.071 -0.318
   - k =   0.071 -0.071 -0.336
   - k =   0.071 -0.071 -0.355
   - k =   0.071 -0.071 -0.373
   - k =   0.071 -0.071 -0.391
   - k =   0.071 -0.071 -0.409
   - k =   0.071 -0.071 -0.427
   - k =   0.071 -0.071 -0.445
   - k =   0.071 -0.071 -0.464
   - k =   0.071 -0.071 -0.482
   - k =   0.071 -0.071 -0.500

  |-> Computing Wannier center evolution at k-point number:     36

  Treating all   56 k-points in band plot segment #  37:
   Sampling over :
   - k =   0.071  0.071  0.500
   - k =   0.071  0.071  0.482
   - k =   0.071  0.071  0.464
   - k =   0.071  0.071  0.445
   - k =   0.071  0.071  0.427
   - k =   0.071  0.071  0.409
   - k =   0.071  0.071  0.391
   - k =   0.071  0.071  0.373
   - k =   0.071  0.071  0.355
   - k =   0.071  0.071  0.336
   - k =   0.071  0.071  0.318
   - k =   0.071  0.071  0.300
   - k =   0.071  0.071  0.282
   - k =   0.071  0.071  0.264
   - k =   0.071  0.071  0.245
   - k =   0.071  0.071  0.227
   - k =   0.071  0.071  0.209
   - k =   0.071  0.071  0.191
   - k =   0.071  0.071  0.173
   - k =   0.071  0.071  0.155
   - k =   0.071  0.071  0.136
   - k =   0.071  0.071  0.118
   - k =   0.071  0.071  0.100
   - k =   0.071  0.071  0.082
   - k =   0.071  0.071  0.064
   - k =   0.071  0.071  0.045
   - k =   0.071  0.071  0.027
   - k =   0.071  0.071  0.009
   - k =   0.071  0.071 -0.009
   - k =   0.071  0.071 -0.027
   - k =   0.071  0.071 -0.045
   - k =   0.071  0.071 -0.064
   - k =   0.071  0.071 -0.082
   - k =   0.071  0.071 -0.100
   - k =   0.071  0.071 -0.118
   - k =   0.071  0.071 -0.136
   - k =   0.071  0.071 -0.155
   - k =   0.071  0.071 -0.173
   - k =   0.071  0.071 -0.191
   - k =   0.071  0.071 -0.209
   - k =   0.071  0.071 -0.227
   - k =   0.071  0.071 -0.245
   - k =   0.071  0.071 -0.264
   - k =   0.071  0.071 -0.282
   - k =   0.071  0.071 -0.300
   - k =   0.071  0.071 -0.318
   - k =   0.071  0.071 -0.336
   - k =   0.071  0.071 -0.355
   - k =   0.071  0.071 -0.373
   - k =   0.071  0.071 -0.391
   - k =   0.071  0.071 -0.409
   - k =   0.071  0.071 -0.427
   - k =   0.071  0.071 -0.445
   - k =   0.071  0.071 -0.464
   - k =   0.071  0.071 -0.482
   - k =   0.071  0.071 -0.500

  |-> Computing Wannier center evolution at k-point number:     37

  Treating all   56 k-points in band plot segment #  38:
   Sampling over :
   - k =   0.071  0.214  0.500
   - k =   0.071  0.214  0.482
   - k =   0.071  0.214  0.464
   - k =   0.071  0.214  0.445
   - k =   0.071  0.214  0.427
   - k =   0.071  0.214  0.409
   - k =   0.071  0.214  0.391
   - k =   0.071  0.214  0.373
   - k =   0.071  0.214  0.355
   - k =   0.071  0.214  0.336
   - k =   0.071  0.214  0.318
   - k =   0.071  0.214  0.300
   - k =   0.071  0.214  0.282
   - k =   0.071  0.214  0.264
   - k =   0.071  0.214  0.245
   - k =   0.071  0.214  0.227
   - k =   0.071  0.214  0.209
   - k =   0.071  0.214  0.191
   - k =   0.071  0.214  0.173
   - k =   0.071  0.214  0.155
   - k =   0.071  0.214  0.136
   - k =   0.071  0.214  0.118
   - k =   0.071  0.214  0.100
   - k =   0.071  0.214  0.082
   - k =   0.071  0.214  0.064
   - k =   0.071  0.214  0.045
   - k =   0.071  0.214  0.027
   - k =   0.071  0.214  0.009
   - k =   0.071  0.214 -0.009
   - k =   0.071  0.214 -0.027
   - k =   0.071  0.214 -0.045
   - k =   0.071  0.214 -0.064
   - k =   0.071  0.214 -0.082
   - k =   0.071  0.214 -0.100
   - k =   0.071  0.214 -0.118
   - k =   0.071  0.214 -0.136
   - k =   0.071  0.214 -0.155
   - k =   0.071  0.214 -0.173
   - k =   0.071  0.214 -0.191
   - k =   0.071  0.214 -0.209
   - k =   0.071  0.214 -0.227
   - k =   0.071  0.214 -0.245
   - k =   0.071  0.214 -0.264
   - k =   0.071  0.214 -0.282
   - k =   0.071  0.214 -0.300
   - k =   0.071  0.214 -0.318
   - k =   0.071  0.214 -0.336
   - k =   0.071  0.214 -0.355
   - k =   0.071  0.214 -0.373
   - k =   0.071  0.214 -0.391
   - k =   0.071  0.214 -0.409
   - k =   0.071  0.214 -0.427
   - k =   0.071  0.214 -0.445
   - k =   0.071  0.214 -0.464
   - k =   0.071  0.214 -0.482
   - k =   0.071  0.214 -0.500

  |-> Computing Wannier center evolution at k-point number:     38

  Treating all   56 k-points in band plot segment #  39:
   Sampling over :
   - k =   0.071  0.357  0.500
   - k =   0.071  0.357  0.482
   - k =   0.071  0.357  0.464
   - k =   0.071  0.357  0.445
   - k =   0.071  0.357  0.427
   - k =   0.071  0.357  0.409
   - k =   0.071  0.357  0.391
   - k =   0.071  0.357  0.373
   - k =   0.071  0.357  0.355
   - k =   0.071  0.357  0.336
   - k =   0.071  0.357  0.318
   - k =   0.071  0.357  0.300
   - k =   0.071  0.357  0.282
   - k =   0.071  0.357  0.264
   - k =   0.071  0.357  0.245
   - k =   0.071  0.357  0.227
   - k =   0.071  0.357  0.209
   - k =   0.071  0.357  0.191
   - k =   0.071  0.357  0.173
   - k =   0.071  0.357  0.155
   - k =   0.071  0.357  0.136
   - k =   0.071  0.357  0.118
   - k =   0.071  0.357  0.100
   - k =   0.071  0.357  0.082
   - k =   0.071  0.357  0.064
   - k =   0.071  0.357  0.045
   - k =   0.071  0.357  0.027
   - k =   0.071  0.357  0.009
   - k =   0.071  0.357 -0.009
   - k =   0.071  0.357 -0.027
   - k =   0.071  0.357 -0.045
   - k =   0.071  0.357 -0.064
   - k =   0.071  0.357 -0.082
   - k =   0.071  0.357 -0.100
   - k =   0.071  0.357 -0.118
   - k =   0.071  0.357 -0.136
   - k =   0.071  0.357 -0.155
   - k =   0.071  0.357 -0.173
   - k =   0.071  0.357 -0.191
   - k =   0.071  0.357 -0.209
   - k =   0.071  0.357 -0.227
   - k =   0.071  0.357 -0.245
   - k =   0.071  0.357 -0.264
   - k =   0.071  0.357 -0.282
   - k =   0.071  0.357 -0.300
   - k =   0.071  0.357 -0.318
   - k =   0.071  0.357 -0.336
   - k =   0.071  0.357 -0.355
   - k =   0.071  0.357 -0.373
   - k =   0.071  0.357 -0.391
   - k =   0.071  0.357 -0.409
   - k =   0.071  0.357 -0.427
   - k =   0.071  0.357 -0.445
   - k =   0.071  0.357 -0.464
   - k =   0.071  0.357 -0.482
   - k =   0.071  0.357 -0.500

  |-> Computing Wannier center evolution at k-point number:     39

  Treating all   56 k-points in band plot segment #  40:
   Sampling over :
   - k =   0.071  0.500  0.500
   - k =   0.071  0.500  0.482
   - k =   0.071  0.500  0.464
   - k =   0.071  0.500  0.445
   - k =   0.071  0.500  0.427
   - k =   0.071  0.500  0.409
   - k =   0.071  0.500  0.391
   - k =   0.071  0.500  0.373
   - k =   0.071  0.500  0.355
   - k =   0.071  0.500  0.336
   - k =   0.071  0.500  0.318
   - k =   0.071  0.500  0.300
   - k =   0.071  0.500  0.282
   - k =   0.071  0.500  0.264
   - k =   0.071  0.500  0.245
   - k =   0.071  0.500  0.227
   - k =   0.071  0.500  0.209
   - k =   0.071  0.500  0.191
   - k =   0.071  0.500  0.173
   - k =   0.071  0.500  0.155
   - k =   0.071  0.500  0.136
   - k =   0.071  0.500  0.118
   - k =   0.071  0.500  0.100
   - k =   0.071  0.500  0.082
   - k =   0.071  0.500  0.064
   - k =   0.071  0.500  0.045
   - k =   0.071  0.500  0.027
   - k =   0.071  0.500  0.009
   - k =   0.071  0.500 -0.009
   - k =   0.071  0.500 -0.027
   - k =   0.071  0.500 -0.045
   - k =   0.071  0.500 -0.064
   - k =   0.071  0.500 -0.082
   - k =   0.071  0.500 -0.100
   - k =   0.071  0.500 -0.118
   - k =   0.071  0.500 -0.136
   - k =   0.071  0.500 -0.155
   - k =   0.071  0.500 -0.173
   - k =   0.071  0.500 -0.191
   - k =   0.071  0.500 -0.209
   - k =   0.071  0.500 -0.227
   - k =   0.071  0.500 -0.245
   - k =   0.071  0.500 -0.264
   - k =   0.071  0.500 -0.282
   - k =   0.071  0.500 -0.300
   - k =   0.071  0.500 -0.318
   - k =   0.071  0.500 -0.336
   - k =   0.071  0.500 -0.355
   - k =   0.071  0.500 -0.373
   - k =   0.071  0.500 -0.391
   - k =   0.071  0.500 -0.409
   - k =   0.071  0.500 -0.427
   - k =   0.071  0.500 -0.445
   - k =   0.071  0.500 -0.464
   - k =   0.071  0.500 -0.482
   - k =   0.071  0.500 -0.500

  |-> Computing Wannier center evolution at k-point number:     40

  Treating all   56 k-points in band plot segment #  41:
   Sampling over :
   - k =   0.214 -0.500  0.500
   - k =   0.214 -0.500  0.482
   - k =   0.214 -0.500  0.464
   - k =   0.214 -0.500  0.445
   - k =   0.214 -0.500  0.427
   - k =   0.214 -0.500  0.409
   - k =   0.214 -0.500  0.391
   - k =   0.214 -0.500  0.373
   - k =   0.214 -0.500  0.355
   - k =   0.214 -0.500  0.336
   - k =   0.214 -0.500  0.318
   - k =   0.214 -0.500  0.300
   - k =   0.214 -0.500  0.282
   - k =   0.214 -0.500  0.264
   - k =   0.214 -0.500  0.245
   - k =   0.214 -0.500  0.227
   - k =   0.214 -0.500  0.209
   - k =   0.214 -0.500  0.191
   - k =   0.214 -0.500  0.173
   - k =   0.214 -0.500  0.155
   - k =   0.214 -0.500  0.136
   - k =   0.214 -0.500  0.118
   - k =   0.214 -0.500  0.100
   - k =   0.214 -0.500  0.082
   - k =   0.214 -0.500  0.064
   - k =   0.214 -0.500  0.045
   - k =   0.214 -0.500  0.027
   - k =   0.214 -0.500  0.009
   - k =   0.214 -0.500 -0.009
   - k =   0.214 -0.500 -0.027
   - k =   0.214 -0.500 -0.045
   - k =   0.214 -0.500 -0.064
   - k =   0.214 -0.500 -0.082
   - k =   0.214 -0.500 -0.100
   - k =   0.214 -0.500 -0.118
   - k =   0.214 -0.500 -0.136
   - k =   0.214 -0.500 -0.155
   - k =   0.214 -0.500 -0.173
   - k =   0.214 -0.500 -0.191
   - k =   0.214 -0.500 -0.209
   - k =   0.214 -0.500 -0.227
   - k =   0.214 -0.500 -0.245
   - k =   0.214 -0.500 -0.264
   - k =   0.214 -0.500 -0.282
   - k =   0.214 -0.500 -0.300
   - k =   0.214 -0.500 -0.318
   - k =   0.214 -0.500 -0.336
   - k =   0.214 -0.500 -0.355
   - k =   0.214 -0.500 -0.373
   - k =   0.214 -0.500 -0.391
   - k =   0.214 -0.500 -0.409
   - k =   0.214 -0.500 -0.427
   - k =   0.214 -0.500 -0.445
   - k =   0.214 -0.500 -0.464
   - k =   0.214 -0.500 -0.482
   - k =   0.214 -0.500 -0.500

  |-> Computing Wannier center evolution at k-point number:     41

  Treating all   56 k-points in band plot segment #  42:
   Sampling over :
   - k =   0.214 -0.357  0.500
   - k =   0.214 -0.357  0.482
   - k =   0.214 -0.357  0.464
   - k =   0.214 -0.357  0.445
   - k =   0.214 -0.357  0.427
   - k =   0.214 -0.357  0.409
   - k =   0.214 -0.357  0.391
   - k =   0.214 -0.357  0.373
   - k =   0.214 -0.357  0.355
   - k =   0.214 -0.357  0.336
   - k =   0.214 -0.357  0.318
   - k =   0.214 -0.357  0.300
   - k =   0.214 -0.357  0.282
   - k =   0.214 -0.357  0.264
   - k =   0.214 -0.357  0.245
   - k =   0.214 -0.357  0.227
   - k =   0.214 -0.357  0.209
   - k =   0.214 -0.357  0.191
   - k =   0.214 -0.357  0.173
   - k =   0.214 -0.357  0.155
   - k =   0.214 -0.357  0.136
   - k =   0.214 -0.357  0.118
   - k =   0.214 -0.357  0.100
   - k =   0.214 -0.357  0.082
   - k =   0.214 -0.357  0.064
   - k =   0.214 -0.357  0.045
   - k =   0.214 -0.357  0.027
   - k =   0.214 -0.357  0.009
   - k =   0.214 -0.357 -0.009
   - k =   0.214 -0.357 -0.027
   - k =   0.214 -0.357 -0.045
   - k =   0.214 -0.357 -0.064
   - k =   0.214 -0.357 -0.082
   - k =   0.214 -0.357 -0.100
   - k =   0.214 -0.357 -0.118
   - k =   0.214 -0.357 -0.136
   - k =   0.214 -0.357 -0.155
   - k =   0.214 -0.357 -0.173
   - k =   0.214 -0.357 -0.191
   - k =   0.214 -0.357 -0.209
   - k =   0.214 -0.357 -0.227
   - k =   0.214 -0.357 -0.245
   - k =   0.214 -0.357 -0.264
   - k =   0.214 -0.357 -0.282
   - k =   0.214 -0.357 -0.300
   - k =   0.214 -0.357 -0.318
   - k =   0.214 -0.357 -0.336
   - k =   0.214 -0.357 -0.355
   - k =   0.214 -0.357 -0.373
   - k =   0.214 -0.357 -0.391
   - k =   0.214 -0.357 -0.409
   - k =   0.214 -0.357 -0.427
   - k =   0.214 -0.357 -0.445
   - k =   0.214 -0.357 -0.464
   - k =   0.214 -0.357 -0.482
   - k =   0.214 -0.357 -0.500

  |-> Computing Wannier center evolution at k-point number:     42

  Treating all   56 k-points in band plot segment #  43:
   Sampling over :
   - k =   0.214 -0.214  0.500
   - k =   0.214 -0.214  0.482
   - k =   0.214 -0.214  0.464
   - k =   0.214 -0.214  0.445
   - k =   0.214 -0.214  0.427
   - k =   0.214 -0.214  0.409
   - k =   0.214 -0.214  0.391
   - k =   0.214 -0.214  0.373
   - k =   0.214 -0.214  0.355
   - k =   0.214 -0.214  0.336
   - k =   0.214 -0.214  0.318
   - k =   0.214 -0.214  0.300
   - k =   0.214 -0.214  0.282
   - k =   0.214 -0.214  0.264
   - k =   0.214 -0.214  0.245
   - k =   0.214 -0.214  0.227
   - k =   0.214 -0.214  0.209
   - k =   0.214 -0.214  0.191
   - k =   0.214 -0.214  0.173
   - k =   0.214 -0.214  0.155
   - k =   0.214 -0.214  0.136
   - k =   0.214 -0.214  0.118
   - k =   0.214 -0.214  0.100
   - k =   0.214 -0.214  0.082
   - k =   0.214 -0.214  0.064
   - k =   0.214 -0.214  0.045
   - k =   0.214 -0.214  0.027
   - k =   0.214 -0.214  0.009
   - k =   0.214 -0.214 -0.009
   - k =   0.214 -0.214 -0.027
   - k =   0.214 -0.214 -0.045
   - k =   0.214 -0.214 -0.064
   - k =   0.214 -0.214 -0.082
   - k =   0.214 -0.214 -0.100
   - k =   0.214 -0.214 -0.118
   - k =   0.214 -0.214 -0.136
   - k =   0.214 -0.214 -0.155
   - k =   0.214 -0.214 -0.173
   - k =   0.214 -0.214 -0.191
   - k =   0.214 -0.214 -0.209
   - k =   0.214 -0.214 -0.227
   - k =   0.214 -0.214 -0.245
   - k =   0.214 -0.214 -0.264
   - k =   0.214 -0.214 -0.282
   - k =   0.214 -0.214 -0.300
   - k =   0.214 -0.214 -0.318
   - k =   0.214 -0.214 -0.336
   - k =   0.214 -0.214 -0.355
   - k =   0.214 -0.214 -0.373
   - k =   0.214 -0.214 -0.391
   - k =   0.214 -0.214 -0.409
   - k =   0.214 -0.214 -0.427
   - k =   0.214 -0.214 -0.445
   - k =   0.214 -0.214 -0.464
   - k =   0.214 -0.214 -0.482
   - k =   0.214 -0.214 -0.500

  |-> Computing Wannier center evolution at k-point number:     43

  Treating all   56 k-points in band plot segment #  44:
   Sampling over :
   - k =   0.214 -0.071  0.500
   - k =   0.214 -0.071  0.482
   - k =   0.214 -0.071  0.464
   - k =   0.214 -0.071  0.445
   - k =   0.214 -0.071  0.427
   - k =   0.214 -0.071  0.409
   - k =   0.214 -0.071  0.391
   - k =   0.214 -0.071  0.373
   - k =   0.214 -0.071  0.355
   - k =   0.214 -0.071  0.336
   - k =   0.214 -0.071  0.318
   - k =   0.214 -0.071  0.300
   - k =   0.214 -0.071  0.282
   - k =   0.214 -0.071  0.264
   - k =   0.214 -0.071  0.245
   - k =   0.214 -0.071  0.227
   - k =   0.214 -0.071  0.209
   - k =   0.214 -0.071  0.191
   - k =   0.214 -0.071  0.173
   - k =   0.214 -0.071  0.155
   - k =   0.214 -0.071  0.136
   - k =   0.214 -0.071  0.118
   - k =   0.214 -0.071  0.100
   - k =   0.214 -0.071  0.082
   - k =   0.214 -0.071  0.064
   - k =   0.214 -0.071  0.045
   - k =   0.214 -0.071  0.027
   - k =   0.214 -0.071  0.009
   - k =   0.214 -0.071 -0.009
   - k =   0.214 -0.071 -0.027
   - k =   0.214 -0.071 -0.045
   - k =   0.214 -0.071 -0.064
   - k =   0.214 -0.071 -0.082
   - k =   0.214 -0.071 -0.100
   - k =   0.214 -0.071 -0.118
   - k =   0.214 -0.071 -0.136
   - k =   0.214 -0.071 -0.155
   - k =   0.214 -0.071 -0.173
   - k =   0.214 -0.071 -0.191
   - k =   0.214 -0.071 -0.209
   - k =   0.214 -0.071 -0.227
   - k =   0.214 -0.071 -0.245
   - k =   0.214 -0.071 -0.264
   - k =   0.214 -0.071 -0.282
   - k =   0.214 -0.071 -0.300
   - k =   0.214 -0.071 -0.318
   - k =   0.214 -0.071 -0.336
   - k =   0.214 -0.071 -0.355
   - k =   0.214 -0.071 -0.373
   - k =   0.214 -0.071 -0.391
   - k =   0.214 -0.071 -0.409
   - k =   0.214 -0.071 -0.427
   - k =   0.214 -0.071 -0.445
   - k =   0.214 -0.071 -0.464
   - k =   0.214 -0.071 -0.482
   - k =   0.214 -0.071 -0.500

  |-> Computing Wannier center evolution at k-point number:     44

  Treating all   56 k-points in band plot segment #  45:
   Sampling over :
   - k =   0.214  0.071  0.500
   - k =   0.214  0.071  0.482
   - k =   0.214  0.071  0.464
   - k =   0.214  0.071  0.445
   - k =   0.214  0.071  0.427
   - k =   0.214  0.071  0.409
   - k =   0.214  0.071  0.391
   - k =   0.214  0.071  0.373
   - k =   0.214  0.071  0.355
   - k =   0.214  0.071  0.336
   - k =   0.214  0.071  0.318
   - k =   0.214  0.071  0.300
   - k =   0.214  0.071  0.282
   - k =   0.214  0.071  0.264
   - k =   0.214  0.071  0.245
   - k =   0.214  0.071  0.227
   - k =   0.214  0.071  0.209
   - k =   0.214  0.071  0.191
   - k =   0.214  0.071  0.173
   - k =   0.214  0.071  0.155
   - k =   0.214  0.071  0.136
   - k =   0.214  0.071  0.118
   - k =   0.214  0.071  0.100
   - k =   0.214  0.071  0.082
   - k =   0.214  0.071  0.064
   - k =   0.214  0.071  0.045
   - k =   0.214  0.071  0.027
   - k =   0.214  0.071  0.009
   - k =   0.214  0.071 -0.009
   - k =   0.214  0.071 -0.027
   - k =   0.214  0.071 -0.045
   - k =   0.214  0.071 -0.064
   - k =   0.214  0.071 -0.082
   - k =   0.214  0.071 -0.100
   - k =   0.214  0.071 -0.118
   - k =   0.214  0.071 -0.136
   - k =   0.214  0.071 -0.155
   - k =   0.214  0.071 -0.173
   - k =   0.214  0.071 -0.191
   - k =   0.214  0.071 -0.209
   - k =   0.214  0.071 -0.227
   - k =   0.214  0.071 -0.245
   - k =   0.214  0.071 -0.264
   - k =   0.214  0.071 -0.282
   - k =   0.214  0.071 -0.300
   - k =   0.214  0.071 -0.318
   - k =   0.214  0.071 -0.336
   - k =   0.214  0.071 -0.355
   - k =   0.214  0.071 -0.373
   - k =   0.214  0.071 -0.391
   - k =   0.214  0.071 -0.409
   - k =   0.214  0.071 -0.427
   - k =   0.214  0.071 -0.445
   - k =   0.214  0.071 -0.464
   - k =   0.214  0.071 -0.482
   - k =   0.214  0.071 -0.500

  |-> Computing Wannier center evolution at k-point number:     45

  Treating all   56 k-points in band plot segment #  46:
   Sampling over :
   - k =   0.214  0.214  0.500
   - k =   0.214  0.214  0.482
   - k =   0.214  0.214  0.464
   - k =   0.214  0.214  0.445
   - k =   0.214  0.214  0.427
   - k =   0.214  0.214  0.409
   - k =   0.214  0.214  0.391
   - k =   0.214  0.214  0.373
   - k =   0.214  0.214  0.355
   - k =   0.214  0.214  0.336
   - k =   0.214  0.214  0.318
   - k =   0.214  0.214  0.300
   - k =   0.214  0.214  0.282
   - k =   0.214  0.214  0.264
   - k =   0.214  0.214  0.245
   - k =   0.214  0.214  0.227
   - k =   0.214  0.214  0.209
   - k =   0.214  0.214  0.191
   - k =   0.214  0.214  0.173
   - k =   0.214  0.214  0.155
   - k =   0.214  0.214  0.136
   - k =   0.214  0.214  0.118
   - k =   0.214  0.214  0.100
   - k =   0.214  0.214  0.082
   - k =   0.214  0.214  0.064
   - k =   0.214  0.214  0.045
   - k =   0.214  0.214  0.027
   - k =   0.214  0.214  0.009
   - k =   0.214  0.214 -0.009
   - k =   0.214  0.214 -0.027
   - k =   0.214  0.214 -0.045
   - k =   0.214  0.214 -0.064
   - k =   0.214  0.214 -0.082
   - k =   0.214  0.214 -0.100
   - k =   0.214  0.214 -0.118
   - k =   0.214  0.214 -0.136
   - k =   0.214  0.214 -0.155
   - k =   0.214  0.214 -0.173
   - k =   0.214  0.214 -0.191
   - k =   0.214  0.214 -0.209
   - k =   0.214  0.214 -0.227
   - k =   0.214  0.214 -0.245
   - k =   0.214  0.214 -0.264
   - k =   0.214  0.214 -0.282
   - k =   0.214  0.214 -0.300
   - k =   0.214  0.214 -0.318
   - k =   0.214  0.214 -0.336
   - k =   0.214  0.214 -0.355
   - k =   0.214  0.214 -0.373
   - k =   0.214  0.214 -0.391
   - k =   0.214  0.214 -0.409
   - k =   0.214  0.214 -0.427
   - k =   0.214  0.214 -0.445
   - k =   0.214  0.214 -0.464
   - k =   0.214  0.214 -0.482
   - k =   0.214  0.214 -0.500

  |-> Computing Wannier center evolution at k-point number:     46

  Treating all   56 k-points in band plot segment #  47:
   Sampling over :
   - k =   0.214  0.357  0.500
   - k =   0.214  0.357  0.482
   - k =   0.214  0.357  0.464
   - k =   0.214  0.357  0.445
   - k =   0.214  0.357  0.427
   - k =   0.214  0.357  0.409
   - k =   0.214  0.357  0.391
   - k =   0.214  0.357  0.373
   - k =   0.214  0.357  0.355
   - k =   0.214  0.357  0.336
   - k =   0.214  0.357  0.318
   - k =   0.214  0.357  0.300
   - k =   0.214  0.357  0.282
   - k =   0.214  0.357  0.264
   - k =   0.214  0.357  0.245
   - k =   0.214  0.357  0.227
   - k =   0.214  0.357  0.209
   - k =   0.214  0.357  0.191
   - k =   0.214  0.357  0.173
   - k =   0.214  0.357  0.155
   - k =   0.214  0.357  0.136
   - k =   0.214  0.357  0.118
   - k =   0.214  0.357  0.100
   - k =   0.214  0.357  0.082
   - k =   0.214  0.357  0.064
   - k =   0.214  0.357  0.045
   - k =   0.214  0.357  0.027
   - k =   0.214  0.357  0.009
   - k =   0.214  0.357 -0.009
   - k =   0.214  0.357 -0.027
   - k =   0.214  0.357 -0.045
   - k =   0.214  0.357 -0.064
   - k =   0.214  0.357 -0.082
   - k =   0.214  0.357 -0.100
   - k =   0.214  0.357 -0.118
   - k =   0.214  0.357 -0.136
   - k =   0.214  0.357 -0.155
   - k =   0.214  0.357 -0.173
   - k =   0.214  0.357 -0.191
   - k =   0.214  0.357 -0.209
   - k =   0.214  0.357 -0.227
   - k =   0.214  0.357 -0.245
   - k =   0.214  0.357 -0.264
   - k =   0.214  0.357 -0.282
   - k =   0.214  0.357 -0.300
   - k =   0.214  0.357 -0.318
   - k =   0.214  0.357 -0.336
   - k =   0.214  0.357 -0.355
   - k =   0.214  0.357 -0.373
   - k =   0.214  0.357 -0.391
   - k =   0.214  0.357 -0.409
   - k =   0.214  0.357 -0.427
   - k =   0.214  0.357 -0.445
   - k =   0.214  0.357 -0.464
   - k =   0.214  0.357 -0.482
   - k =   0.214  0.357 -0.500

  |-> Computing Wannier center evolution at k-point number:     47

  Treating all   56 k-points in band plot segment #  48:
   Sampling over :
   - k =   0.214  0.500  0.500
   - k =   0.214  0.500  0.482
   - k =   0.214  0.500  0.464
   - k =   0.214  0.500  0.445
   - k =   0.214  0.500  0.427
   - k =   0.214  0.500  0.409
   - k =   0.214  0.500  0.391
   - k =   0.214  0.500  0.373
   - k =   0.214  0.500  0.355
   - k =   0.214  0.500  0.336
   - k =   0.214  0.500  0.318
   - k =   0.214  0.500  0.300
   - k =   0.214  0.500  0.282
   - k =   0.214  0.500  0.264
   - k =   0.214  0.500  0.245
   - k =   0.214  0.500  0.227
   - k =   0.214  0.500  0.209
   - k =   0.214  0.500  0.191
   - k =   0.214  0.500  0.173
   - k =   0.214  0.500  0.155
   - k =   0.214  0.500  0.136
   - k =   0.214  0.500  0.118
   - k =   0.214  0.500  0.100
   - k =   0.214  0.500  0.082
   - k =   0.214  0.500  0.064
   - k =   0.214  0.500  0.045
   - k =   0.214  0.500  0.027
   - k =   0.214  0.500  0.009
   - k =   0.214  0.500 -0.009
   - k =   0.214  0.500 -0.027
   - k =   0.214  0.500 -0.045
   - k =   0.214  0.500 -0.064
   - k =   0.214  0.500 -0.082
   - k =   0.214  0.500 -0.100
   - k =   0.214  0.500 -0.118
   - k =   0.214  0.500 -0.136
   - k =   0.214  0.500 -0.155
   - k =   0.214  0.500 -0.173
   - k =   0.214  0.500 -0.191
   - k =   0.214  0.500 -0.209
   - k =   0.214  0.500 -0.227
   - k =   0.214  0.500 -0.245
   - k =   0.214  0.500 -0.264
   - k =   0.214  0.500 -0.282
   - k =   0.214  0.500 -0.300
   - k =   0.214  0.500 -0.318
   - k =   0.214  0.500 -0.336
   - k =   0.214  0.500 -0.355
   - k =   0.214  0.500 -0.373
   - k =   0.214  0.500 -0.391
   - k =   0.214  0.500 -0.409
   - k =   0.214  0.500 -0.427
   - k =   0.214  0.500 -0.445
   - k =   0.214  0.500 -0.464
   - k =   0.214  0.500 -0.482
   - k =   0.214  0.500 -0.500

  |-> Computing Wannier center evolution at k-point number:     48

  Treating all   56 k-points in band plot segment #  49:
   Sampling over :
   - k =   0.357 -0.500  0.500
   - k =   0.357 -0.500  0.482
   - k =   0.357 -0.500  0.464
   - k =   0.357 -0.500  0.445
   - k =   0.357 -0.500  0.427
   - k =   0.357 -0.500  0.409
   - k =   0.357 -0.500  0.391
   - k =   0.357 -0.500  0.373
   - k =   0.357 -0.500  0.355
   - k =   0.357 -0.500  0.336
   - k =   0.357 -0.500  0.318
   - k =   0.357 -0.500  0.300
   - k =   0.357 -0.500  0.282
   - k =   0.357 -0.500  0.264
   - k =   0.357 -0.500  0.245
   - k =   0.357 -0.500  0.227
   - k =   0.357 -0.500  0.209
   - k =   0.357 -0.500  0.191
   - k =   0.357 -0.500  0.173
   - k =   0.357 -0.500  0.155
   - k =   0.357 -0.500  0.136
   - k =   0.357 -0.500  0.118
   - k =   0.357 -0.500  0.100
   - k =   0.357 -0.500  0.082
   - k =   0.357 -0.500  0.064
   - k =   0.357 -0.500  0.045
   - k =   0.357 -0.500  0.027
   - k =   0.357 -0.500  0.009
   - k =   0.357 -0.500 -0.009
   - k =   0.357 -0.500 -0.027
   - k =   0.357 -0.500 -0.045
   - k =   0.357 -0.500 -0.064
   - k =   0.357 -0.500 -0.082
   - k =   0.357 -0.500 -0.100
   - k =   0.357 -0.500 -0.118
   - k =   0.357 -0.500 -0.136
   - k =   0.357 -0.500 -0.155
   - k =   0.357 -0.500 -0.173
   - k =   0.357 -0.500 -0.191
   - k =   0.357 -0.500 -0.209
   - k =   0.357 -0.500 -0.227
   - k =   0.357 -0.500 -0.245
   - k =   0.357 -0.500 -0.264
   - k =   0.357 -0.500 -0.282
   - k =   0.357 -0.500 -0.300
   - k =   0.357 -0.500 -0.318
   - k =   0.357 -0.500 -0.336
   - k =   0.357 -0.500 -0.355
   - k =   0.357 -0.500 -0.373
   - k =   0.357 -0.500 -0.391
   - k =   0.357 -0.500 -0.409
   - k =   0.357 -0.500 -0.427
   - k =   0.357 -0.500 -0.445
   - k =   0.357 -0.500 -0.464
   - k =   0.357 -0.500 -0.482
   - k =   0.357 -0.500 -0.500

  |-> Computing Wannier center evolution at k-point number:     49

  Treating all   56 k-points in band plot segment #  50:
   Sampling over :
   - k =   0.357 -0.357  0.500
   - k =   0.357 -0.357  0.482
   - k =   0.357 -0.357  0.464
   - k =   0.357 -0.357  0.445
   - k =   0.357 -0.357  0.427
   - k =   0.357 -0.357  0.409
   - k =   0.357 -0.357  0.391
   - k =   0.357 -0.357  0.373
   - k =   0.357 -0.357  0.355
   - k =   0.357 -0.357  0.336
   - k =   0.357 -0.357  0.318
   - k =   0.357 -0.357  0.300
   - k =   0.357 -0.357  0.282
   - k =   0.357 -0.357  0.264
   - k =   0.357 -0.357  0.245
   - k =   0.357 -0.357  0.227
   - k =   0.357 -0.357  0.209
   - k =   0.357 -0.357  0.191
   - k =   0.357 -0.357  0.173
   - k =   0.357 -0.357  0.155
   - k =   0.357 -0.357  0.136
   - k =   0.357 -0.357  0.118
   - k =   0.357 -0.357  0.100
   - k =   0.357 -0.357  0.082
   - k =   0.357 -0.357  0.064
   - k =   0.357 -0.357  0.045
   - k =   0.357 -0.357  0.027
   - k =   0.357 -0.357  0.009
   - k =   0.357 -0.357 -0.009
   - k =   0.357 -0.357 -0.027
   - k =   0.357 -0.357 -0.045
   - k =   0.357 -0.357 -0.064
   - k =   0.357 -0.357 -0.082
   - k =   0.357 -0.357 -0.100
   - k =   0.357 -0.357 -0.118
   - k =   0.357 -0.357 -0.136
   - k =   0.357 -0.357 -0.155
   - k =   0.357 -0.357 -0.173
   - k =   0.357 -0.357 -0.191
   - k =   0.357 -0.357 -0.209
   - k =   0.357 -0.357 -0.227
   - k =   0.357 -0.357 -0.245
   - k =   0.357 -0.357 -0.264
   - k =   0.357 -0.357 -0.282
   - k =   0.357 -0.357 -0.300
   - k =   0.357 -0.357 -0.318
   - k =   0.357 -0.357 -0.336
   - k =   0.357 -0.357 -0.355
   - k =   0.357 -0.357 -0.373
   - k =   0.357 -0.357 -0.391
   - k =   0.357 -0.357 -0.409
   - k =   0.357 -0.357 -0.427
   - k =   0.357 -0.357 -0.445
   - k =   0.357 -0.357 -0.464
   - k =   0.357 -0.357 -0.482
   - k =   0.357 -0.357 -0.500

  |-> Computing Wannier center evolution at k-point number:     50

  Treating all   56 k-points in band plot segment #  51:
   Sampling over :
   - k =   0.357 -0.214  0.500
   - k =   0.357 -0.214  0.482
   - k =   0.357 -0.214  0.464
   - k =   0.357 -0.214  0.445
   - k =   0.357 -0.214  0.427
   - k =   0.357 -0.214  0.409
   - k =   0.357 -0.214  0.391
   - k =   0.357 -0.214  0.373
   - k =   0.357 -0.214  0.355
   - k =   0.357 -0.214  0.336
   - k =   0.357 -0.214  0.318
   - k =   0.357 -0.214  0.300
   - k =   0.357 -0.214  0.282
   - k =   0.357 -0.214  0.264
   - k =   0.357 -0.214  0.245
   - k =   0.357 -0.214  0.227
   - k =   0.357 -0.214  0.209
   - k =   0.357 -0.214  0.191
   - k =   0.357 -0.214  0.173
   - k =   0.357 -0.214  0.155
   - k =   0.357 -0.214  0.136
   - k =   0.357 -0.214  0.118
   - k =   0.357 -0.214  0.100
   - k =   0.357 -0.214  0.082
   - k =   0.357 -0.214  0.064
   - k =   0.357 -0.214  0.045
   - k =   0.357 -0.214  0.027
   - k =   0.357 -0.214  0.009
   - k =   0.357 -0.214 -0.009
   - k =   0.357 -0.214 -0.027
   - k =   0.357 -0.214 -0.045
   - k =   0.357 -0.214 -0.064
   - k =   0.357 -0.214 -0.082
   - k =   0.357 -0.214 -0.100
   - k =   0.357 -0.214 -0.118
   - k =   0.357 -0.214 -0.136
   - k =   0.357 -0.214 -0.155
   - k =   0.357 -0.214 -0.173
   - k =   0.357 -0.214 -0.191
   - k =   0.357 -0.214 -0.209
   - k =   0.357 -0.214 -0.227
   - k =   0.357 -0.214 -0.245
   - k =   0.357 -0.214 -0.264
   - k =   0.357 -0.214 -0.282
   - k =   0.357 -0.214 -0.300
   - k =   0.357 -0.214 -0.318
   - k =   0.357 -0.214 -0.336
   - k =   0.357 -0.214 -0.355
   - k =   0.357 -0.214 -0.373
   - k =   0.357 -0.214 -0.391
   - k =   0.357 -0.214 -0.409
   - k =   0.357 -0.214 -0.427
   - k =   0.357 -0.214 -0.445
   - k =   0.357 -0.214 -0.464
   - k =   0.357 -0.214 -0.482
   - k =   0.357 -0.214 -0.500

  |-> Computing Wannier center evolution at k-point number:     51

  Treating all   56 k-points in band plot segment #  52:
   Sampling over :
   - k =   0.357 -0.071  0.500
   - k =   0.357 -0.071  0.482
   - k =   0.357 -0.071  0.464
   - k =   0.357 -0.071  0.445
   - k =   0.357 -0.071  0.427
   - k =   0.357 -0.071  0.409
   - k =   0.357 -0.071  0.391
   - k =   0.357 -0.071  0.373
   - k =   0.357 -0.071  0.355
   - k =   0.357 -0.071  0.336
   - k =   0.357 -0.071  0.318
   - k =   0.357 -0.071  0.300
   - k =   0.357 -0.071  0.282
   - k =   0.357 -0.071  0.264
   - k =   0.357 -0.071  0.245
   - k =   0.357 -0.071  0.227
   - k =   0.357 -0.071  0.209
   - k =   0.357 -0.071  0.191
   - k =   0.357 -0.071  0.173
   - k =   0.357 -0.071  0.155
   - k =   0.357 -0.071  0.136
   - k =   0.357 -0.071  0.118
   - k =   0.357 -0.071  0.100
   - k =   0.357 -0.071  0.082
   - k =   0.357 -0.071  0.064
   - k =   0.357 -0.071  0.045
   - k =   0.357 -0.071  0.027
   - k =   0.357 -0.071  0.009
   - k =   0.357 -0.071 -0.009
   - k =   0.357 -0.071 -0.027
   - k =   0.357 -0.071 -0.045
   - k =   0.357 -0.071 -0.064
   - k =   0.357 -0.071 -0.082
   - k =   0.357 -0.071 -0.100
   - k =   0.357 -0.071 -0.118
   - k =   0.357 -0.071 -0.136
   - k =   0.357 -0.071 -0.155
   - k =   0.357 -0.071 -0.173
   - k =   0.357 -0.071 -0.191
   - k =   0.357 -0.071 -0.209
   - k =   0.357 -0.071 -0.227
   - k =   0.357 -0.071 -0.245
   - k =   0.357 -0.071 -0.264
   - k =   0.357 -0.071 -0.282
   - k =   0.357 -0.071 -0.300
   - k =   0.357 -0.071 -0.318
   - k =   0.357 -0.071 -0.336
   - k =   0.357 -0.071 -0.355
   - k =   0.357 -0.071 -0.373
   - k =   0.357 -0.071 -0.391
   - k =   0.357 -0.071 -0.409
   - k =   0.357 -0.071 -0.427
   - k =   0.357 -0.071 -0.445
   - k =   0.357 -0.071 -0.464
   - k =   0.357 -0.071 -0.482
   - k =   0.357 -0.071 -0.500

  |-> Computing Wannier center evolution at k-point number:     52

  Treating all   56 k-points in band plot segment #  53:
   Sampling over :
   - k =   0.357  0.071  0.500
   - k =   0.357  0.071  0.482
   - k =   0.357  0.071  0.464
   - k =   0.357  0.071  0.445
   - k =   0.357  0.071  0.427
   - k =   0.357  0.071  0.409
   - k =   0.357  0.071  0.391
   - k =   0.357  0.071  0.373
   - k =   0.357  0.071  0.355
   - k =   0.357  0.071  0.336
   - k =   0.357  0.071  0.318
   - k =   0.357  0.071  0.300
   - k =   0.357  0.071  0.282
   - k =   0.357  0.071  0.264
   - k =   0.357  0.071  0.245
   - k =   0.357  0.071  0.227
   - k =   0.357  0.071  0.209
   - k =   0.357  0.071  0.191
   - k =   0.357  0.071  0.173
   - k =   0.357  0.071  0.155
   - k =   0.357  0.071  0.136
   - k =   0.357  0.071  0.118
   - k =   0.357  0.071  0.100
   - k =   0.357  0.071  0.082
   - k =   0.357  0.071  0.064
   - k =   0.357  0.071  0.045
   - k =   0.357  0.071  0.027
   - k =   0.357  0.071  0.009
   - k =   0.357  0.071 -0.009
   - k =   0.357  0.071 -0.027
   - k =   0.357  0.071 -0.045
   - k =   0.357  0.071 -0.064
   - k =   0.357  0.071 -0.082
   - k =   0.357  0.071 -0.100
   - k =   0.357  0.071 -0.118
   - k =   0.357  0.071 -0.136
   - k =   0.357  0.071 -0.155
   - k =   0.357  0.071 -0.173
   - k =   0.357  0.071 -0.191
   - k =   0.357  0.071 -0.209
   - k =   0.357  0.071 -0.227
   - k =   0.357  0.071 -0.245
   - k =   0.357  0.071 -0.264
   - k =   0.357  0.071 -0.282
   - k =   0.357  0.071 -0.300
   - k =   0.357  0.071 -0.318
   - k =   0.357  0.071 -0.336
   - k =   0.357  0.071 -0.355
   - k =   0.357  0.071 -0.373
   - k =   0.357  0.071 -0.391
   - k =   0.357  0.071 -0.409
   - k =   0.357  0.071 -0.427
   - k =   0.357  0.071 -0.445
   - k =   0.357  0.071 -0.464
   - k =   0.357  0.071 -0.482
   - k =   0.357  0.071 -0.500

  |-> Computing Wannier center evolution at k-point number:     53

  Treating all   56 k-points in band plot segment #  54:
   Sampling over :
   - k =   0.357  0.214  0.500
   - k =   0.357  0.214  0.482
   - k =   0.357  0.214  0.464
   - k =   0.357  0.214  0.445
   - k =   0.357  0.214  0.427
   - k =   0.357  0.214  0.409
   - k =   0.357  0.214  0.391
   - k =   0.357  0.214  0.373
   - k =   0.357  0.214  0.355
   - k =   0.357  0.214  0.336
   - k =   0.357  0.214  0.318
   - k =   0.357  0.214  0.300
   - k =   0.357  0.214  0.282
   - k =   0.357  0.214  0.264
   - k =   0.357  0.214  0.245
   - k =   0.357  0.214  0.227
   - k =   0.357  0.214  0.209
   - k =   0.357  0.214  0.191
   - k =   0.357  0.214  0.173
   - k =   0.357  0.214  0.155
   - k =   0.357  0.214  0.136
   - k =   0.357  0.214  0.118
   - k =   0.357  0.214  0.100
   - k =   0.357  0.214  0.082
   - k =   0.357  0.214  0.064
   - k =   0.357  0.214  0.045
   - k =   0.357  0.214  0.027
   - k =   0.357  0.214  0.009
   - k =   0.357  0.214 -0.009
   - k =   0.357  0.214 -0.027
   - k =   0.357  0.214 -0.045
   - k =   0.357  0.214 -0.064
   - k =   0.357  0.214 -0.082
   - k =   0.357  0.214 -0.100
   - k =   0.357  0.214 -0.118
   - k =   0.357  0.214 -0.136
   - k =   0.357  0.214 -0.155
   - k =   0.357  0.214 -0.173
   - k =   0.357  0.214 -0.191
   - k =   0.357  0.214 -0.209
   - k =   0.357  0.214 -0.227
   - k =   0.357  0.214 -0.245
   - k =   0.357  0.214 -0.264
   - k =   0.357  0.214 -0.282
   - k =   0.357  0.214 -0.300
   - k =   0.357  0.214 -0.318
   - k =   0.357  0.214 -0.336
   - k =   0.357  0.214 -0.355
   - k =   0.357  0.214 -0.373
   - k =   0.357  0.214 -0.391
   - k =   0.357  0.214 -0.409
   - k =   0.357  0.214 -0.427
   - k =   0.357  0.214 -0.445
   - k =   0.357  0.214 -0.464
   - k =   0.357  0.214 -0.482
   - k =   0.357  0.214 -0.500

  |-> Computing Wannier center evolution at k-point number:     54

  Treating all   56 k-points in band plot segment #  55:
   Sampling over :
   - k =   0.357  0.357  0.500
   - k =   0.357  0.357  0.482
   - k =   0.357  0.357  0.464
   - k =   0.357  0.357  0.445
   - k =   0.357  0.357  0.427
   - k =   0.357  0.357  0.409
   - k =   0.357  0.357  0.391
   - k =   0.357  0.357  0.373
   - k =   0.357  0.357  0.355
   - k =   0.357  0.357  0.336
   - k =   0.357  0.357  0.318
   - k =   0.357  0.357  0.300
   - k =   0.357  0.357  0.282
   - k =   0.357  0.357  0.264
   - k =   0.357  0.357  0.245
   - k =   0.357  0.357  0.227
   - k =   0.357  0.357  0.209
   - k =   0.357  0.357  0.191
   - k =   0.357  0.357  0.173
   - k =   0.357  0.357  0.155
   - k =   0.357  0.357  0.136
   - k =   0.357  0.357  0.118
   - k =   0.357  0.357  0.100
   - k =   0.357  0.357  0.082
   - k =   0.357  0.357  0.064
   - k =   0.357  0.357  0.045
   - k =   0.357  0.357  0.027
   - k =   0.357  0.357  0.009
   - k =   0.357  0.357 -0.009
   - k =   0.357  0.357 -0.027
   - k =   0.357  0.357 -0.045
   - k =   0.357  0.357 -0.064
   - k =   0.357  0.357 -0.082
   - k =   0.357  0.357 -0.100
   - k =   0.357  0.357 -0.118
   - k =   0.357  0.357 -0.136
   - k =   0.357  0.357 -0.155
   - k =   0.357  0.357 -0.173
   - k =   0.357  0.357 -0.191
   - k =   0.357  0.357 -0.209
   - k =   0.357  0.357 -0.227
   - k =   0.357  0.357 -0.245
   - k =   0.357  0.357 -0.264
   - k =   0.357  0.357 -0.282
   - k =   0.357  0.357 -0.300
   - k =   0.357  0.357 -0.318
   - k =   0.357  0.357 -0.336
   - k =   0.357  0.357 -0.355
   - k =   0.357  0.357 -0.373
   - k =   0.357  0.357 -0.391
   - k =   0.357  0.357 -0.409
   - k =   0.357  0.357 -0.427
   - k =   0.357  0.357 -0.445
   - k =   0.357  0.357 -0.464
   - k =   0.357  0.357 -0.482
   - k =   0.357  0.357 -0.500

  |-> Computing Wannier center evolution at k-point number:     55

  Treating all   56 k-points in band plot segment #  56:
   Sampling over :
   - k =   0.357  0.500  0.500
   - k =   0.357  0.500  0.482
   - k =   0.357  0.500  0.464
   - k =   0.357  0.500  0.445
   - k =   0.357  0.500  0.427
   - k =   0.357  0.500  0.409
   - k =   0.357  0.500  0.391
   - k =   0.357  0.500  0.373
   - k =   0.357  0.500  0.355
   - k =   0.357  0.500  0.336
   - k =   0.357  0.500  0.318
   - k =   0.357  0.500  0.300
   - k =   0.357  0.500  0.282
   - k =   0.357  0.500  0.264
   - k =   0.357  0.500  0.245
   - k =   0.357  0.500  0.227
   - k =   0.357  0.500  0.209
   - k =   0.357  0.500  0.191
   - k =   0.357  0.500  0.173
   - k =   0.357  0.500  0.155
   - k =   0.357  0.500  0.136
   - k =   0.357  0.500  0.118
   - k =   0.357  0.500  0.100
   - k =   0.357  0.500  0.082
   - k =   0.357  0.500  0.064
   - k =   0.357  0.500  0.045
   - k =   0.357  0.500  0.027
   - k =   0.357  0.500  0.009
   - k =   0.357  0.500 -0.009
   - k =   0.357  0.500 -0.027
   - k =   0.357  0.500 -0.045
   - k =   0.357  0.500 -0.064
   - k =   0.357  0.500 -0.082
   - k =   0.357  0.500 -0.100
   - k =   0.357  0.500 -0.118
   - k =   0.357  0.500 -0.136
   - k =   0.357  0.500 -0.155
   - k =   0.357  0.500 -0.173
   - k =   0.357  0.500 -0.191
   - k =   0.357  0.500 -0.209
   - k =   0.357  0.500 -0.227
   - k =   0.357  0.500 -0.245
   - k =   0.357  0.500 -0.264
   - k =   0.357  0.500 -0.282
   - k =   0.357  0.500 -0.300
   - k =   0.357  0.500 -0.318
   - k =   0.357  0.500 -0.336
   - k =   0.357  0.500 -0.355
   - k =   0.357  0.500 -0.373
   - k =   0.357  0.500 -0.391
   - k =   0.357  0.500 -0.409
   - k =   0.357  0.500 -0.427
   - k =   0.357  0.500 -0.445
   - k =   0.357  0.500 -0.464
   - k =   0.357  0.500 -0.482
   - k =   0.357  0.500 -0.500

  |-> Computing Wannier center evolution at k-point number:     56

  Treating all   56 k-points in band plot segment #  57:
   Sampling over :
   - k =   0.500 -0.500  0.500
   - k =   0.500 -0.500  0.482
   - k =   0.500 -0.500  0.464
   - k =   0.500 -0.500  0.445
   - k =   0.500 -0.500  0.427
   - k =   0.500 -0.500  0.409
   - k =   0.500 -0.500  0.391
   - k =   0.500 -0.500  0.373
   - k =   0.500 -0.500  0.355
   - k =   0.500 -0.500  0.336
   - k =   0.500 -0.500  0.318
   - k =   0.500 -0.500  0.300
   - k =   0.500 -0.500  0.282
   - k =   0.500 -0.500  0.264
   - k =   0.500 -0.500  0.245
   - k =   0.500 -0.500  0.227
   - k =   0.500 -0.500  0.209
   - k =   0.500 -0.500  0.191
   - k =   0.500 -0.500  0.173
   - k =   0.500 -0.500  0.155
   - k =   0.500 -0.500  0.136
   - k =   0.500 -0.500  0.118
   - k =   0.500 -0.500  0.100
   - k =   0.500 -0.500  0.082
   - k =   0.500 -0.500  0.064
   - k =   0.500 -0.500  0.045
   - k =   0.500 -0.500  0.027
   - k =   0.500 -0.500  0.009
   - k =   0.500 -0.500 -0.009
   - k =   0.500 -0.500 -0.027
   - k =   0.500 -0.500 -0.045
   - k =   0.500 -0.500 -0.064
   - k =   0.500 -0.500 -0.082
   - k =   0.500 -0.500 -0.100
   - k =   0.500 -0.500 -0.118
   - k =   0.500 -0.500 -0.136
   - k =   0.500 -0.500 -0.155
   - k =   0.500 -0.500 -0.173
   - k =   0.500 -0.500 -0.191
   - k =   0.500 -0.500 -0.209
   - k =   0.500 -0.500 -0.227
   - k =   0.500 -0.500 -0.245
   - k =   0.500 -0.500 -0.264
   - k =   0.500 -0.500 -0.282
   - k =   0.500 -0.500 -0.300
   - k =   0.500 -0.500 -0.318
   - k =   0.500 -0.500 -0.336
   - k =   0.500 -0.500 -0.355
   - k =   0.500 -0.500 -0.373
   - k =   0.500 -0.500 -0.391
   - k =   0.500 -0.500 -0.409
   - k =   0.500 -0.500 -0.427
   - k =   0.500 -0.500 -0.445
   - k =   0.500 -0.500 -0.464
   - k =   0.500 -0.500 -0.482
   - k =   0.500 -0.500 -0.500

  |-> Computing Wannier center evolution at k-point number:     57

  Treating all   56 k-points in band plot segment #  58:
   Sampling over :
   - k =   0.500 -0.357  0.500
   - k =   0.500 -0.357  0.482
   - k =   0.500 -0.357  0.464
   - k =   0.500 -0.357  0.445
   - k =   0.500 -0.357  0.427
   - k =   0.500 -0.357  0.409
   - k =   0.500 -0.357  0.391
   - k =   0.500 -0.357  0.373
   - k =   0.500 -0.357  0.355
   - k =   0.500 -0.357  0.336
   - k =   0.500 -0.357  0.318
   - k =   0.500 -0.357  0.300
   - k =   0.500 -0.357  0.282
   - k =   0.500 -0.357  0.264
   - k =   0.500 -0.357  0.245
   - k =   0.500 -0.357  0.227
   - k =   0.500 -0.357  0.209
   - k =   0.500 -0.357  0.191
   - k =   0.500 -0.357  0.173
   - k =   0.500 -0.357  0.155
   - k =   0.500 -0.357  0.136
   - k =   0.500 -0.357  0.118
   - k =   0.500 -0.357  0.100
   - k =   0.500 -0.357  0.082
   - k =   0.500 -0.357  0.064
   - k =   0.500 -0.357  0.045
   - k =   0.500 -0.357  0.027
   - k =   0.500 -0.357  0.009
   - k =   0.500 -0.357 -0.009
   - k =   0.500 -0.357 -0.027
   - k =   0.500 -0.357 -0.045
   - k =   0.500 -0.357 -0.064
   - k =   0.500 -0.357 -0.082
   - k =   0.500 -0.357 -0.100
   - k =   0.500 -0.357 -0.118
   - k =   0.500 -0.357 -0.136
   - k =   0.500 -0.357 -0.155
   - k =   0.500 -0.357 -0.173
   - k =   0.500 -0.357 -0.191
   - k =   0.500 -0.357 -0.209
   - k =   0.500 -0.357 -0.227
   - k =   0.500 -0.357 -0.245
   - k =   0.500 -0.357 -0.264
   - k =   0.500 -0.357 -0.282
   - k =   0.500 -0.357 -0.300
   - k =   0.500 -0.357 -0.318
   - k =   0.500 -0.357 -0.336
   - k =   0.500 -0.357 -0.355
   - k =   0.500 -0.357 -0.373
   - k =   0.500 -0.357 -0.391
   - k =   0.500 -0.357 -0.409
   - k =   0.500 -0.357 -0.427
   - k =   0.500 -0.357 -0.445
   - k =   0.500 -0.357 -0.464
   - k =   0.500 -0.357 -0.482
   - k =   0.500 -0.357 -0.500

  |-> Computing Wannier center evolution at k-point number:     58

  Treating all   56 k-points in band plot segment #  59:
   Sampling over :
   - k =   0.500 -0.214  0.500
   - k =   0.500 -0.214  0.482
   - k =   0.500 -0.214  0.464
   - k =   0.500 -0.214  0.445
   - k =   0.500 -0.214  0.427
   - k =   0.500 -0.214  0.409
   - k =   0.500 -0.214  0.391
   - k =   0.500 -0.214  0.373
   - k =   0.500 -0.214  0.355
   - k =   0.500 -0.214  0.336
   - k =   0.500 -0.214  0.318
   - k =   0.500 -0.214  0.300
   - k =   0.500 -0.214  0.282
   - k =   0.500 -0.214  0.264
   - k =   0.500 -0.214  0.245
   - k =   0.500 -0.214  0.227
   - k =   0.500 -0.214  0.209
   - k =   0.500 -0.214  0.191
   - k =   0.500 -0.214  0.173
   - k =   0.500 -0.214  0.155
   - k =   0.500 -0.214  0.136
   - k =   0.500 -0.214  0.118
   - k =   0.500 -0.214  0.100
   - k =   0.500 -0.214  0.082
   - k =   0.500 -0.214  0.064
   - k =   0.500 -0.214  0.045
   - k =   0.500 -0.214  0.027
   - k =   0.500 -0.214  0.009
   - k =   0.500 -0.214 -0.009
   - k =   0.500 -0.214 -0.027
   - k =   0.500 -0.214 -0.045
   - k =   0.500 -0.214 -0.064
   - k =   0.500 -0.214 -0.082
   - k =   0.500 -0.214 -0.100
   - k =   0.500 -0.214 -0.118
   - k =   0.500 -0.214 -0.136
   - k =   0.500 -0.214 -0.155
   - k =   0.500 -0.214 -0.173
   - k =   0.500 -0.214 -0.191
   - k =   0.500 -0.214 -0.209
   - k =   0.500 -0.214 -0.227
   - k =   0.500 -0.214 -0.245
   - k =   0.500 -0.214 -0.264
   - k =   0.500 -0.214 -0.282
   - k =   0.500 -0.214 -0.300
   - k =   0.500 -0.214 -0.318
   - k =   0.500 -0.214 -0.336
   - k =   0.500 -0.214 -0.355
   - k =   0.500 -0.214 -0.373
   - k =   0.500 -0.214 -0.391
   - k =   0.500 -0.214 -0.409
   - k =   0.500 -0.214 -0.427
   - k =   0.500 -0.214 -0.445
   - k =   0.500 -0.214 -0.464
   - k =   0.500 -0.214 -0.482
   - k =   0.500 -0.214 -0.500

  |-> Computing Wannier center evolution at k-point number:     59

  Treating all   56 k-points in band plot segment #  60:
   Sampling over :
   - k =   0.500 -0.071  0.500
   - k =   0.500 -0.071  0.482
   - k =   0.500 -0.071  0.464
   - k =   0.500 -0.071  0.445
   - k =   0.500 -0.071  0.427
   - k =   0.500 -0.071  0.409
   - k =   0.500 -0.071  0.391
   - k =   0.500 -0.071  0.373
   - k =   0.500 -0.071  0.355
   - k =   0.500 -0.071  0.336
   - k =   0.500 -0.071  0.318
   - k =   0.500 -0.071  0.300
   - k =   0.500 -0.071  0.282
   - k =   0.500 -0.071  0.264
   - k =   0.500 -0.071  0.245
   - k =   0.500 -0.071  0.227
   - k =   0.500 -0.071  0.209
   - k =   0.500 -0.071  0.191
   - k =   0.500 -0.071  0.173
   - k =   0.500 -0.071  0.155
   - k =   0.500 -0.071  0.136
   - k =   0.500 -0.071  0.118
   - k =   0.500 -0.071  0.100
   - k =   0.500 -0.071  0.082
   - k =   0.500 -0.071  0.064
   - k =   0.500 -0.071  0.045
   - k =   0.500 -0.071  0.027
   - k =   0.500 -0.071  0.009
   - k =   0.500 -0.071 -0.009
   - k =   0.500 -0.071 -0.027
   - k =   0.500 -0.071 -0.045
   - k =   0.500 -0.071 -0.064
   - k =   0.500 -0.071 -0.082
   - k =   0.500 -0.071 -0.100
   - k =   0.500 -0.071 -0.118
   - k =   0.500 -0.071 -0.136
   - k =   0.500 -0.071 -0.155
   - k =   0.500 -0.071 -0.173
   - k =   0.500 -0.071 -0.191
   - k =   0.500 -0.071 -0.209
   - k =   0.500 -0.071 -0.227
   - k =   0.500 -0.071 -0.245
   - k =   0.500 -0.071 -0.264
   - k =   0.500 -0.071 -0.282
   - k =   0.500 -0.071 -0.300
   - k =   0.500 -0.071 -0.318
   - k =   0.500 -0.071 -0.336
   - k =   0.500 -0.071 -0.355
   - k =   0.500 -0.071 -0.373
   - k =   0.500 -0.071 -0.391
   - k =   0.500 -0.071 -0.409
   - k =   0.500 -0.071 -0.427
   - k =   0.500 -0.071 -0.445
   - k =   0.500 -0.071 -0.464
   - k =   0.500 -0.071 -0.482
   - k =   0.500 -0.071 -0.500

  |-> Computing Wannier center evolution at k-point number:     60

  Treating all   56 k-points in band plot segment #  61:
   Sampling over :
   - k =   0.500  0.071  0.500
   - k =   0.500  0.071  0.482
   - k =   0.500  0.071  0.464
   - k =   0.500  0.071  0.445
   - k =   0.500  0.071  0.427
   - k =   0.500  0.071  0.409
   - k =   0.500  0.071  0.391
   - k =   0.500  0.071  0.373
   - k =   0.500  0.071  0.355
   - k =   0.500  0.071  0.336
   - k =   0.500  0.071  0.318
   - k =   0.500  0.071  0.300
   - k =   0.500  0.071  0.282
   - k =   0.500  0.071  0.264
   - k =   0.500  0.071  0.245
   - k =   0.500  0.071  0.227
   - k =   0.500  0.071  0.209
   - k =   0.500  0.071  0.191
   - k =   0.500  0.071  0.173
   - k =   0.500  0.071  0.155
   - k =   0.500  0.071  0.136
   - k =   0.500  0.071  0.118
   - k =   0.500  0.071  0.100
   - k =   0.500  0.071  0.082
   - k =   0.500  0.071  0.064
   - k =   0.500  0.071  0.045
   - k =   0.500  0.071  0.027
   - k =   0.500  0.071  0.009
   - k =   0.500  0.071 -0.009
   - k =   0.500  0.071 -0.027
   - k =   0.500  0.071 -0.045
   - k =   0.500  0.071 -0.064
   - k =   0.500  0.071 -0.082
   - k =   0.500  0.071 -0.100
   - k =   0.500  0.071 -0.118
   - k =   0.500  0.071 -0.136
   - k =   0.500  0.071 -0.155
   - k =   0.500  0.071 -0.173
   - k =   0.500  0.071 -0.191
   - k =   0.500  0.071 -0.209
   - k =   0.500  0.071 -0.227
   - k =   0.500  0.071 -0.245
   - k =   0.500  0.071 -0.264
   - k =   0.500  0.071 -0.282
   - k =   0.500  0.071 -0.300
   - k =   0.500  0.071 -0.318
   - k =   0.500  0.071 -0.336
   - k =   0.500  0.071 -0.355
   - k =   0.500  0.071 -0.373
   - k =   0.500  0.071 -0.391
   - k =   0.500  0.071 -0.409
   - k =   0.500  0.071 -0.427
   - k =   0.500  0.071 -0.445
   - k =   0.500  0.071 -0.464
   - k =   0.500  0.071 -0.482
   - k =   0.500  0.071 -0.500

  |-> Computing Wannier center evolution at k-point number:     61

  Treating all   56 k-points in band plot segment #  62:
   Sampling over :
   - k =   0.500  0.214  0.500
   - k =   0.500  0.214  0.482
   - k =   0.500  0.214  0.464
   - k =   0.500  0.214  0.445
   - k =   0.500  0.214  0.427
   - k =   0.500  0.214  0.409
   - k =   0.500  0.214  0.391
   - k =   0.500  0.214  0.373
   - k =   0.500  0.214  0.355
   - k =   0.500  0.214  0.336
   - k =   0.500  0.214  0.318
   - k =   0.500  0.214  0.300
   - k =   0.500  0.214  0.282
   - k =   0.500  0.214  0.264
   - k =   0.500  0.214  0.245
   - k =   0.500  0.214  0.227
   - k =   0.500  0.214  0.209
   - k =   0.500  0.214  0.191
   - k =   0.500  0.214  0.173
   - k =   0.500  0.214  0.155
   - k =   0.500  0.214  0.136
   - k =   0.500  0.214  0.118
   - k =   0.500  0.214  0.100
   - k =   0.500  0.214  0.082
   - k =   0.500  0.214  0.064
   - k =   0.500  0.214  0.045
   - k =   0.500  0.214  0.027
   - k =   0.500  0.214  0.009
   - k =   0.500  0.214 -0.009
   - k =   0.500  0.214 -0.027
   - k =   0.500  0.214 -0.045
   - k =   0.500  0.214 -0.064
   - k =   0.500  0.214 -0.082
   - k =   0.500  0.214 -0.100
   - k =   0.500  0.214 -0.118
   - k =   0.500  0.214 -0.136
   - k =   0.500  0.214 -0.155
   - k =   0.500  0.214 -0.173
   - k =   0.500  0.214 -0.191
   - k =   0.500  0.214 -0.209
   - k =   0.500  0.214 -0.227
   - k =   0.500  0.214 -0.245
   - k =   0.500  0.214 -0.264
   - k =   0.500  0.214 -0.282
   - k =   0.500  0.214 -0.300
   - k =   0.500  0.214 -0.318
   - k =   0.500  0.214 -0.336
   - k =   0.500  0.214 -0.355
   - k =   0.500  0.214 -0.373
   - k =   0.500  0.214 -0.391
   - k =   0.500  0.214 -0.409
   - k =   0.500  0.214 -0.427
   - k =   0.500  0.214 -0.445
   - k =   0.500  0.214 -0.464
   - k =   0.500  0.214 -0.482
   - k =   0.500  0.214 -0.500

  |-> Computing Wannier center evolution at k-point number:     62

  Treating all   56 k-points in band plot segment #  63:
   Sampling over :
   - k =   0.500  0.357  0.500
   - k =   0.500  0.357  0.482
   - k =   0.500  0.357  0.464
   - k =   0.500  0.357  0.445
   - k =   0.500  0.357  0.427
   - k =   0.500  0.357  0.409
   - k =   0.500  0.357  0.391
   - k =   0.500  0.357  0.373
   - k =   0.500  0.357  0.355
   - k =   0.500  0.357  0.336
   - k =   0.500  0.357  0.318
   - k =   0.500  0.357  0.300
   - k =   0.500  0.357  0.282
   - k =   0.500  0.357  0.264
   - k =   0.500  0.357  0.245
   - k =   0.500  0.357  0.227
   - k =   0.500  0.357  0.209
   - k =   0.500  0.357  0.191
   - k =   0.500  0.357  0.173
   - k =   0.500  0.357  0.155
   - k =   0.500  0.357  0.136
   - k =   0.500  0.357  0.118
   - k =   0.500  0.357  0.100
   - k =   0.500  0.357  0.082
   - k =   0.500  0.357  0.064
   - k =   0.500  0.357  0.045
   - k =   0.500  0.357  0.027
   - k =   0.500  0.357  0.009
   - k =   0.500  0.357 -0.009
   - k =   0.500  0.357 -0.027
   - k =   0.500  0.357 -0.045
   - k =   0.500  0.357 -0.064
   - k =   0.500  0.357 -0.082
   - k =   0.500  0.357 -0.100
   - k =   0.500  0.357 -0.118
   - k =   0.500  0.357 -0.136
   - k =   0.500  0.357 -0.155
   - k =   0.500  0.357 -0.173
   - k =   0.500  0.357 -0.191
   - k =   0.500  0.357 -0.209
   - k =   0.500  0.357 -0.227
   - k =   0.500  0.357 -0.245
   - k =   0.500  0.357 -0.264
   - k =   0.500  0.357 -0.282
   - k =   0.500  0.357 -0.300
   - k =   0.500  0.357 -0.318
   - k =   0.500  0.357 -0.336
   - k =   0.500  0.357 -0.355
   - k =   0.500  0.357 -0.373
   - k =   0.500  0.357 -0.391
   - k =   0.500  0.357 -0.409
   - k =   0.500  0.357 -0.427
   - k =   0.500  0.357 -0.445
   - k =   0.500  0.357 -0.464
   - k =   0.500  0.357 -0.482
   - k =   0.500  0.357 -0.500

  |-> Computing Wannier center evolution at k-point number:     63

  Treating all   56 k-points in band plot segment #  64:
   Sampling over :
   - k =   0.500  0.500  0.500
   - k =   0.500  0.500  0.482
   - k =   0.500  0.500  0.464
   - k =   0.500  0.500  0.445
   - k =   0.500  0.500  0.427
   - k =   0.500  0.500  0.409
   - k =   0.500  0.500  0.391
   - k =   0.500  0.500  0.373
   - k =   0.500  0.500  0.355
   - k =   0.500  0.500  0.336
   - k =   0.500  0.500  0.318
   - k =   0.500  0.500  0.300
   - k =   0.500  0.500  0.282
   - k =   0.500  0.500  0.264
   - k =   0.500  0.500  0.245
   - k =   0.500  0.500  0.227
   - k =   0.500  0.500  0.209
   - k =   0.500  0.500  0.191
   - k =   0.500  0.500  0.173
   - k =   0.500  0.500  0.155
   - k =   0.500  0.500  0.136
   - k =   0.500  0.500  0.118
   - k =   0.500  0.500  0.100
   - k =   0.500  0.500  0.082
   - k =   0.500  0.500  0.064
   - k =   0.500  0.500  0.045
   - k =   0.500  0.500  0.027
   - k =   0.500  0.500  0.009
   - k =   0.500  0.500 -0.009
   - k =   0.500  0.500 -0.027
   - k =   0.500  0.500 -0.045
   - k =   0.500  0.500 -0.064
   - k =   0.500  0.500 -0.082
   - k =   0.500  0.500 -0.100
   - k =   0.500  0.500 -0.118
   - k =   0.500  0.500 -0.136
   - k =   0.500  0.500 -0.155
   - k =   0.500  0.500 -0.173
   - k =   0.500  0.500 -0.191
   - k =   0.500  0.500 -0.209
   - k =   0.500  0.500 -0.227
   - k =   0.500  0.500 -0.245
   - k =   0.500  0.500 -0.264
   - k =   0.500  0.500 -0.282
   - k =   0.500  0.500 -0.300
   - k =   0.500  0.500 -0.318
   - k =   0.500  0.500 -0.336
   - k =   0.500  0.500 -0.355
   - k =   0.500  0.500 -0.373
   - k =   0.500  0.500 -0.391
   - k =   0.500  0.500 -0.409
   - k =   0.500  0.500 -0.427
   - k =   0.500  0.500 -0.445
   - k =   0.500  0.500 -0.464
   - k =   0.500  0.500 -0.482
   - k =   0.500  0.500 -0.500

  |-> Computing Wannier center evolution at k-point number:     64
  *-> Finished with polarization directive nr.   3
  | Evaluation of the polarization for directive nr.     3
   - Ionic      polarization along rec. latt. vec.    3 is:      -48.961839E-03 C/m^2
   - Berry term: Preliminary Electronic polarization along rec. latt. vec.    3 is:     -723.245124E-03 C/m^2 before branch-mapping
   --> Detailed listing before/after branch mapping in terms of the polarization quantum P0=       -1.007537E+00 C/m^2
     | k-string    1 :       767.573439E-03 /      -232.426561E-03 P0
     | k-string    2 :       761.237799E-03 /      -238.762201E-03 P0
     | k-string    3 :       742.189441E-03 /      -257.810559E-03 P0
     | k-string    4 :       710.097330E-03 /      -289.902670E-03 P0
     | k-string    5 :       710.035927E-03 /      -289.964073E-03 P0
     | k-string    6 :       742.075789E-03 /      -257.924211E-03 P0
     | k-string    7 :       761.162532E-03 /      -238.837468E-03 P0
     | k-string    8 :       767.573439E-03 /      -232.426561E-03 P0
     | k-string    9 :       761.238492E-03 /      -238.761508E-03 P0
     | k-string   10 :       753.889736E-03 /      -246.110264E-03 P0
     | k-string   11 :       733.059878E-03 /      -266.940122E-03 P0
     | k-string   12 :       700.639285E-03 /      -299.360715E-03 P0
     | k-string   13 :       700.273527E-03 /      -299.726473E-03 P0
     | k-string   14 :       733.016587E-03 /      -266.983413E-03 P0
     | k-string   15 :       753.957491E-03 /      -246.042509E-03 P0
     | k-string   16 :       761.238492E-03 /      -238.761508E-03 P0
     | k-string   17 :       742.191935E-03 /      -257.808065E-03 P0
     | k-string   18 :       733.062114E-03 /      -266.937886E-03 P0
     | k-string   19 :       706.630123E-03 /      -293.369877E-03 P0
     | k-string   20 :       669.813930E-03 /      -330.186070E-03 P0
     | k-string   21 :       669.178053E-03 /      -330.821947E-03 P0
     | k-string   22 :       706.669618E-03 /      -293.330382E-03 P0
     | k-string   23 :       733.160526E-03 /      -266.839474E-03 P0
     | k-string   24 :       742.191935E-03 /      -257.808065E-03 P0
     | k-string   25 :       710.105141E-03 /      -289.894859E-03 P0
     | k-string   26 :       700.646299E-03 /      -299.353701E-03 P0
     | k-string   27 :       669.818880E-03 /      -330.181120E-03 P0
     | k-string   28 :       624.339435E-03 /      -375.660565E-03 P0
     | k-string   29 :       623.511556E-03 /      -376.488444E-03 P0
     | k-string   30 :       669.328594E-03 /      -330.671406E-03 P0
     | k-string   31 :       700.449989E-03 /      -299.550011E-03 P0
     | k-string   32 :       710.105141E-03 /      -289.894859E-03 P0
     | k-string   33 :       710.044121E-03 /      -289.955879E-03 P0
     | k-string   34 :       700.280942E-03 /      -299.719058E-03 P0
     | k-string   35 :       669.183446E-03 /      -330.816554E-03 P0
     | k-string   36 :       623.512767E-03 /      -376.487233E-03 P0
     | k-string   37 :       624.457808E-03 /      -375.542192E-03 P0
     | k-string   38 :       670.010730E-03 /      -329.989270E-03 P0
     | k-string   39 :       700.744939E-03 /      -299.255061E-03 P0
     | k-string   40 :       710.044121E-03 /      -289.955879E-03 P0
     | k-string   41 :       742.078940E-03 /      -257.921060E-03 P0
     | k-string   42 :       733.019138E-03 /      -266.980862E-03 P0
     | k-string   43 :       706.670680E-03 /      -293.329320E-03 P0
     | k-string   44 :       669.325616E-03 /      -330.674384E-03 P0
     | k-string   45 :       670.006872E-03 /      -329.993128E-03 P0
     | k-string   46 :       706.816083E-03 /      -293.183917E-03 P0
     | k-string   47 :       733.114024E-03 /      -266.885976E-03 P0
     | k-string   48 :       742.078940E-03 /      -257.921060E-03 P0
     | k-string   49 :       761.163731E-03 /      -238.836269E-03 P0
     | k-string   50 :       753.957943E-03 /      -246.042057E-03 P0
     | k-string   51 :       733.159127E-03 /      -266.840873E-03 P0
     | k-string   52 :       700.443627E-03 /      -299.556373E-03 P0
     | k-string   53 :       700.738155E-03 /      -299.261845E-03 P0
     | k-string   54 :       733.111556E-03 /      -266.888444E-03 P0
     | k-string   55 :       753.873505E-03 /      -246.126495E-03 P0
     | k-string   56 :       761.163731E-03 /      -238.836269E-03 P0
     | k-string   57 :       767.573439E-03 /      -232.426561E-03 P0
     | k-string   58 :       761.237799E-03 /      -238.762201E-03 P0
     | k-string   59 :       742.189441E-03 /      -257.810559E-03 P0
     | k-string   60 :       710.097330E-03 /      -289.902670E-03 P0
     | k-string   61 :       710.035927E-03 /      -289.964073E-03 P0
     | k-string   62 :       742.075789E-03 /      -257.924211E-03 P0
     | k-string   63 :       761.162532E-03 /      -238.837468E-03 P0
     | k-string   64 :       767.573439E-03 /      -232.426561E-03 P0
   - Berry term: Electronic polarization along rec. latt. vec.    3 is:      292.287277E-03 C/m^2 after branch-mapping

   - Dipole term: Preliminary Electronic polarization along rec. latt. vec.    3 is:      -17.695729E-03 C/m^2 before branch-mapping
   --> Detailed listing before/after branch mapping in terms of the polarization quantum P0=       -1.007537E+00 C/m^2
     | k-string    1 :        19.059116E-03 /        19.059116E-03 P0
     | k-string    2 :        20.251409E-03 /        20.251409E-03 P0
     | k-string    3 :        20.070065E-03 /        20.070065E-03 P0
     | k-string    4 :        15.628607E-03 /        15.628607E-03 P0
     | k-string    5 :        15.628607E-03 /        15.628607E-03 P0
     | k-string    6 :        20.070065E-03 /        20.070065E-03 P0
     | k-string    7 :        20.251409E-03 /        20.251409E-03 P0
     | k-string    8 :        19.059116E-03 /        19.059116E-03 P0
     | k-string    9 :        20.251427E-03 /        20.251427E-03 P0
     | k-string   10 :        20.807400E-03 /        20.807400E-03 P0
     | k-string   11 :        19.965766E-03 /        19.965766E-03 P0
     | k-string   12 :        14.995593E-03 /        14.995593E-03 P0
     | k-string   13 :        14.950805E-03 /        14.950805E-03 P0
     | k-string   14 :        20.085864E-03 /        20.085864E-03 P0
     | k-string   15 :        20.923550E-03 /        20.923550E-03 P0
     | k-string   16 :        20.251427E-03 /        20.251427E-03 P0
     | k-string   17 :        20.070749E-03 /        20.070749E-03 P0
     | k-string   18 :        19.966129E-03 /        19.966129E-03 P0
     | k-string   19 :        18.731975E-03 /        18.731975E-03 P0
     | k-string   20 :        14.099922E-03 /        14.099922E-03 P0
     | k-string   21 :        14.006365E-03 /        14.006365E-03 P0
     | k-string   22 :        18.862983E-03 /        18.862983E-03 P0
     | k-string   23 :        20.086589E-03 /        20.086589E-03 P0
     | k-string   24 :        20.070749E-03 /        20.070749E-03 P0
     | k-string   25 :        15.631065E-03 /        15.631065E-03 P0
     | k-string   26 :        14.997669E-03 /        14.997669E-03 P0
     | k-string   27 :        14.101037E-03 /        14.101037E-03 P0
     | k-string   28 :        12.347832E-03 /        12.347832E-03 P0
     | k-string   29 :        12.212713E-03 /        12.212713E-03 P0
     | k-string   30 :        14.007199E-03 /        14.007199E-03 P0
     | k-string   31 :        14.952839E-03 /        14.952839E-03 P0
     | k-string   32 :        15.631065E-03 /        15.631065E-03 P0
     | k-string   33 :        15.631065E-03 /        15.631065E-03 P0
     | k-string   34 :        14.952839E-03 /        14.952839E-03 P0
     | k-string   35 :        14.007199E-03 /        14.007199E-03 P0
     | k-string   36 :        12.212713E-03 /        12.212713E-03 P0
     | k-string   37 :        12.347832E-03 /        12.347832E-03 P0
     | k-string   38 :        14.101037E-03 /        14.101037E-03 P0
     | k-string   39 :        14.997669E-03 /        14.997669E-03 P0
     | k-string   40 :        15.631065E-03 /        15.631065E-03 P0
     | k-string   41 :        20.070749E-03 /        20.070749E-03 P0
     | k-string   42 :        20.086589E-03 /        20.086589E-03 P0
     | k-string   43 :        18.862983E-03 /        18.862983E-03 P0
     | k-string   44 :        14.006365E-03 /        14.006365E-03 P0
     | k-string   45 :        14.099922E-03 /        14.099922E-03 P0
     | k-string   46 :        18.731975E-03 /        18.731975E-03 P0
     | k-string   47 :        19.966129E-03 /        19.966129E-03 P0
     | k-string   48 :        20.070749E-03 /        20.070749E-03 P0
     | k-string   49 :        20.251427E-03 /        20.251427E-03 P0
     | k-string   50 :        20.923550E-03 /        20.923550E-03 P0
     | k-string   51 :        20.085864E-03 /        20.085864E-03 P0
     | k-string   52 :        14.950805E-03 /        14.950805E-03 P0
     | k-string   53 :        14.995593E-03 /        14.995593E-03 P0
     | k-string   54 :        19.965766E-03 /        19.965766E-03 P0
     | k-string   55 :        20.807400E-03 /        20.807400E-03 P0
     | k-string   56 :        20.251427E-03 /        20.251427E-03 P0
     | k-string   57 :        19.059116E-03 /        19.059116E-03 P0
     | k-string   58 :        20.251409E-03 /        20.251409E-03 P0
     | k-string   59 :        20.070065E-03 /        20.070065E-03 P0
     | k-string   60 :        15.628607E-03 /        15.628607E-03 P0
     | k-string   61 :        15.628607E-03 /        15.628607E-03 P0
     | k-string   62 :        20.070065E-03 /        20.070065E-03 P0
     | k-string   63 :        20.251409E-03 /        20.251409E-03 P0
     | k-string   64 :        19.059116E-03 /        19.059116E-03 P0
   - Dipole term: Electronic polarization along rec. latt. vec.    3 is:      -17.335200E-03 C/m^2 after branch-mapping



  Wannier center evolution                                :  max(cpu_time) wall_clock(cpu1)
  | Total Time                                            :         19.214           19.214
------------------------------------------------------------

  Summary for all Polarization Directives:

  * Ionic Polarization along rec. latt. vecs. is (C/m^2):       -63.119795E-03      -48.961936E-03      -48.961839E-03
  * Electronic Contributions:
    Summarizing all directives:
    - Directive    1 in direction of rec. latt. vec.  1 yields the electronic polarization (Berry term):         305.689240E-03 (C/m^2)
    - Directive    2 in direction of rec. latt. vec.  2 yields the electronic polarization (Berry term):         292.284323E-03 (C/m^2)
    - Directive    3 in direction of rec. latt. vec.  3 yields the electronic polarization (Berry term):         292.287277E-03 (C/m^2)
    - Directive    1 in direction of rec. latt. vec.  1 yields the electronic polarization (Dipole term):        -17.292918E-03 (C/m^2)
    - Directive    2 in direction of rec. latt. vec.  2 yields the electronic polarization (Dipole term):        -17.332063E-03 (C/m^2)
    - Directive    3 in direction of rec. latt. vec.  3 yields the electronic polarization (Dipole term):        -17.335200E-03 (C/m^2)
  * Full Polarizations (Electron + Ions):
    Summarizing all directives:
    - Directive    1 in direction of rec. latt. vec.  1 yields the full polarization      :       225.276527E-03 (C/m^2)
    - Directive    2 in direction of rec. latt. vec.  2 yields the full polarization      :       225.990324E-03 (C/m^2)
    - Directive    3 in direction of rec. latt. vec.  3 yields the full polarization      :       225.990238E-03 (C/m^2)
  | Cartesian Polarization                  226.108213E-03        226.548450E-03        226.275908E-03

------------------------------------------------------------


------------------------------------------------------------------------------
  Final output of selected total energy values:

  The following output summarizes some interesting total energy values
  at the end of a run (AFTER all relaxation, molecular dynamics, etc.).

  | Total energy of the DFT / Hartree-Fock s.c.f. calculation      :        -254466.805079872 eV
  | Final zero-broadening corrected energy (caution - metals only) :        -254466.805079872 eV
  | For reference only, the value of 1 Hartree used in FHI-aims is :             27.211384500 eV
  | For reference only, the overall average (free atom contribution
  | + realspace contribution) of the electrostatic potential after
  | s.c.f. convergence is                                          :            -22.869157961 eV

  Before relying on these values, please be sure to understand exactly which
  total energy value is referred to by a given number. Different objects may
  all carry the same name 'total energy'. Definitions:

  Total energy of the DFT / Hartree-Fock s.c.f. calculation:
  | Note that this energy does not include ANY quantities calculated after the
  | s.c.f. cycle, in particular not ANY RPA, MP2, etc. many-body perturbation terms.

  Final zero-broadening corrected energy:
  | For metallic systems only, a broadening of the occupation numbers at the Fermi
  | level can be extrapolated back to zero broadening by an electron-gas inspired
  | formula. For all systems that are not real metals, this value can be
  | meaningless and should be avoided.

------------------------------------------------------------------------------
  Methods described in the following list of references were used in this FHI-aims run.
  If you publish the results, please make sure to cite these reference if they apply.
  FHI-aims is an academic code, and for our developers (often, Ph.D. students
  and postdocs), scientific credit in the community is essential.
  Thank you for helping us!

  For any use of FHI-aims, please cite:

    Volker Blum, Ralf Gehrke, Felix Hanke, Paula Havu, Ville Havu,
    Xinguo Ren, Karsten Reuter, and Matthias Scheffler
    'Ab initio molecular simulations with numeric atom-centered orbitals'
    Computer Physics Communications 180, 2175-2196 (2009)
    http://doi.org/10.1016/j.cpc.2009.06.022


  The provided symmetry information was generated with SPGlib:

    Atsushi Togo, Yusuke Seto, Dimitar Pashov
    SPGlib 1.7.3 obtained from http://spglib.sourceforge.net
    Licence: New BSD license
    Copyright (C) 2008 Atsushi Togo


  The ELSI infrastructure was used in your run to solve the Kohn-Sham electronic structure.
  Please check out https://wordpress.elsi-interchange.org to learn more.
  If scalability is important for your project, please acknowledge ELSI by citing:

    V. W-z. Yu, F. Corsetti, A. Garcia, W. P. Huhn, M. Jacquelin, W. Jia,
    B. Lange, L. Lin, J. Lu, W. Mi, A. Seifitokaldani, A. Vazquez-Mayagoitia,
    C. Yang, H. Yang, and V. Blum
    'ELSI: A unified software interface for Kohn-Sham electronic structure solvers'
    Computer Physics Communications 222, 267-285 (2018).
    http://doi.org/10.1016/j.cpc.2017.09.007


  For the real-space grid partitioning and parallelization used in this calculation, please cite:

    Ville Havu, Volker Blum, Paula Havu, and Matthias Scheffler,
    'Efficient O(N) integration for all-electron electronic structure calculation'
    'using numerically tabulated basis functions'
    Journal of Computational Physics 228, 8367-8379 (2009).
    http://doi.org/10.1016/j.jcp.2009.08.008

  Of course, there are many other important community references, e.g., those cited in the
  above references. Our list is limited to references that describe implementations in the
  FHI-aims code. The reason is purely practical (length of this list) - please credit others as well.
------------------------------------------------------------
Warnings summary:

At least    0 warnings were raised during execution.

------------------------------------------------------------
          Leaving FHI-aims.
          Date     :  20260926, Time     :  065525.136

          Computational steps:
          | Number of self-consistency cycles          :            7
          | Number of SCF (re)initializations          :            1

          Detailed time accounting                     :  max(cpu_time)    wall_clock(cpu1)
          | Total time                                  :       88.801 s          88.807 s
          | Preparation time                            :        0.568 s           0.568 s
          | Boundary condition initalization            :        0.156 s           0.156 s
          | Grid partitioning                           :        0.070 s           0.066 s
          | Preloading free-atom quantities on grid     :        0.379 s           0.380 s
          | Free-atom superposition energy              :        0.021 s           0.020 s
          | Total time for integrations                 :       11.944 s          11.942 s
          | Total time for solution of K.-S. equations  :        0.743 s           0.744 s
          | Total time for density update               :       16.071 s          16.071 s
          | Total time for mixing                       :        0.004 s           0.003 s
          | Total time for Hartree multipole update     :        0.015 s           0.015 s
          | Total time for Hartree multipole sum        :        0.572 s           0.573 s
          | Total time for total energy evaluation      :        0.004 s           0.004 s
          | Total time for scaled ZORA corrections      :        0.000 s           0.000 s
          | Total time for matrix I/O                   :        0.006 s           0.005 s
          | Total time for Wannier Center Evolution     :       58.023 s          58.024 s

          Partial memory accounting:
          | Residual value for overall tracked memory usage across tasks:     0.000000 MB (should be 0.000000 MB)
          | Peak values for overall tracked memory usage:
          |   Minimum:       88.724 MB (on task 12 after allocating work_ovl)
          |   Maximum:       93.460 MB (on task  9 after allocating work_ovl)
          |   Average:       90.570 MB
          | Largest tracked array allocation:
          |   Minimum:       32.818 MB (hamiltonian_shell on task 12)
          |   Maximum:       37.330 MB (hamiltonian_shell on task  9)
          |   Average:       34.665 MB
          Note:  These values currently only include a subset of arrays which are explicitly tracked.
          The "true" memory usage will be greater.

          Have a nice day.
------------------------------------------------------------
