5
Lattice="3.968195321260241 1.8637281331088327e-32 2.1710867333443976e-33 6.212460093086298e-33 3.968195321260241 -2.5257638115885438e-20 1.3957685635648887e-33 -2.5257638115885438e-20 3.968195321260241" Properties=species:S:1:pos:R:3:forces:R:3 energy=-254466.7939288899 free_energy=-254466.7939288899 stress="-7.435626625036517e-08 -3.9082416837067684e-11 1.0225376145799015e-10 -3.9082416837067684e-11 7.359383809930185e-08 1.2852016657736273e-10 1.0225376145799015e-10 1.2852016657736273e-10 -2.835666280274505e-10" pbc="T T T"
Ba       1.98327906       1.98368836       1.98368836      -0.00000126      -0.00000157      -0.00000165
Ti      -0.00081860      -0.00040930      -0.00040930       0.00000034       0.00000041       0.00000037
O       -0.00081860      -0.00040930       1.98368836       0.00000031       0.00000039       0.00000042
O        1.98327906      -0.00040930      -0.00040930       0.00000031       0.00000039       0.00000043
O       -0.00081860       1.98368836      -0.00040930       0.00000031       0.00000039       0.00000043
