8
Lattice="4.25498988 0.0 0.0 0.0 4.25498988 0.0 0.0 0.0 4.25498988" Properties=species:S:1:pos:R:3:displacements:R:3 energy=-30032.262546196 free_energy=-30032.262546196 polarization="-2.4267247e-14 -2.9621761e-14 -2.4856735e-14" REF_dipole="-1.166826494048278e-13 -1.4242841610820548e-13 -1.1951704679783874e-13" pbc="T T T"
Mg       0.00028679       0.00028679       0.00028679       0.00000000       0.00000000       0.00000000
Mg       2.12778173       2.12778173       0.00028679       0.00000000       0.00000000       0.00000000
Mg       2.12778173       0.00028679       2.12778173       0.00000000       0.00000000       0.00000000
Mg       0.00028679       2.12778173       2.12778173       0.00000000       0.00000000       0.00000000
O        0.00028679       0.00028679       2.12778173       0.00000000       0.00000000       0.00000000
O        2.12778173       0.00028679       0.00028679       0.00000000       0.00000000       0.00000000
O        0.00028679       2.12778173       0.00028679       0.00000000       0.00000000       0.00000000
O        2.12778173       2.12778173       2.12778173       0.00000000       0.00000000       0.00000000
8
Lattice="4.25498988 0.0 0.0 0.0 4.25498988 0.0 0.0 0.0 4.25498988" Properties=species:S:1:pos:R:3:displacements:R:3 energy=-30032.2625419687 free_energy=-30032.2625419687 polarization="0.00041615561 -1.2673987e-14 -1.0758152e-14" REF_dipole="0.0020009743643142645 -6.093951990855596e-14 -5.1727733189506284e-14" pbc="T T T"
Mg       0.00128679       0.00028679       0.00028679       0.00100000       0.00000000       0.00000000
Mg       2.12778173       2.12778173       0.00028679       0.00000000       0.00000000       0.00000000
Mg       2.12778173       0.00028679       2.12778173       0.00000000       0.00000000       0.00000000
Mg       0.00028679       2.12778173       2.12778173       0.00000000       0.00000000       0.00000000
O        0.00028679       0.00028679       2.12778173       0.00000000       0.00000000       0.00000000
O        2.12778173       0.00028679       0.00028679       0.00000000       0.00000000       0.00000000
O        0.00028679       2.12778173       0.00028679       0.00000000       0.00000000       0.00000000
O        2.12778173       2.12778173       2.12778173       0.00000000       0.00000000       0.00000000
8
Lattice="4.25498988 0.0 0.0 0.0 4.25498988 0.0 0.0 0.0 4.25498988" Properties=species:S:1:pos:R:3:displacements:R:3 energy=-30032.2625414218 free_energy=-30032.2625414218 polarization="-0.00041615578 -2.122156e-14 -1.6309162e-14" REF_dipole="-0.002000975181714376 -1.020382676825071e-13 -7.841829902388763e-14" pbc="T T T"
Mg       0.00028679       0.00028679       0.00028679       0.00000000       0.00000000       0.00000000
Mg       2.12778173       2.12778173       0.00028679       0.00000000       0.00000000       0.00000000
Mg       2.12778173       0.00028679       2.12778173       0.00000000       0.00000000       0.00000000
Mg       0.00028679       2.12778173       2.12778173       0.00000000       0.00000000       0.00000000
O        0.00128679       0.00028679       2.12778173       0.00100000       0.00000000       0.00000000
O        2.12778173       0.00028679       0.00028679       0.00000000       0.00000000       0.00000000
O        0.00028679       2.12778173       0.00028679       0.00000000       0.00000000       0.00000000
O        2.12778173       2.12778173       2.12778173       0.00000000       0.00000000       0.00000000
8
Lattice="4.25498988 0.0 0.0 0.0 4.25498988 0.0 0.0 0.0 4.25498988" Properties=species:S:1:pos:R:3:displacements:R:3 energy=-30032.2625419688 free_energy=-30032.2625419688 polarization="-0.00041615561 -4.863274e-15 -3.635175e-15" REF_dipole="-0.0020009743643142645 -2.3383768875868553e-14 -1.7478779115331664e-14" pbc="T T T"
Mg      -0.00071321       0.00028679       0.00028679      -0.00100000       0.00000000       0.00000000
Mg       2.12778173       2.12778173       0.00028679       0.00000000       0.00000000       0.00000000
Mg       2.12778173       0.00028679       2.12778173       0.00000000       0.00000000       0.00000000
Mg       0.00028679       2.12778173       2.12778173       0.00000000       0.00000000       0.00000000
O        0.00028679       0.00028679       2.12778173       0.00000000       0.00000000       0.00000000
O        2.12778173       0.00028679       0.00028679       0.00000000       0.00000000       0.00000000
O        0.00028679       2.12778173       0.00028679       0.00000000       0.00000000       0.00000000
O        2.12778173       2.12778173       2.12778173       0.00000000       0.00000000       0.00000000
8
Lattice="4.25498988 0.0 0.0 0.0 4.25498988 0.0 0.0 0.0 4.25498988" Properties=species:S:1:pos:R:3:displacements:R:3 energy=-30032.2625414218 free_energy=-30032.2625414218 polarization="0.00041615578 -1.3459971e-14 -1.6702154e-14" REF_dipole="0.002000975181714376 -6.47187164325706e-14 -8.030789728589494e-14" pbc="T T T"
Mg       0.00028679       0.00028679       0.00028679       0.00000000       0.00000000       0.00000000
Mg       2.12778173       2.12778173       0.00028679       0.00000000       0.00000000       0.00000000
Mg       2.12778173       0.00028679       2.12778173       0.00000000       0.00000000       0.00000000
Mg       0.00028679       2.12778173       2.12778173       0.00000000       0.00000000       0.00000000
O       -0.00071321       0.00028679       2.12778173      -0.00100000       0.00000000       0.00000000
O        2.12778173       0.00028679       0.00028679       0.00000000       0.00000000       0.00000000
O        0.00028679       2.12778173       0.00028679       0.00000000       0.00000000       0.00000000
O        2.12778173       2.12778173       2.12778173       0.00000000       0.00000000       0.00000000
