8
Lattice="4.25498988332625 -1.94440890832792e-37 7.690713645879955e-33 -1.867229017046866e-37 4.25498988332625 -1.492127811559981e-20 -8.522202794962442e-33 -1.4921278115585322e-20 4.25498988332625" Properties=species:S:1:pos:R:3:forces:R:3:displacements:R:3 energy=-30032.26422752833 free_energy=-30032.26422752833 stress="-1.3123991736725053e-07 -4.768679272124003e-12 3.0522358474319584e-12 -4.768679272124003e-12 8.199817813451008e-08 -2.1271082324482614e-12 3.0522358474319584e-12 -2.1271082324482614e-12 8.19399919888092e-08" pbc="T T T"
Mg       0.00028679       0.00028679       0.00028679      -0.00000000      -0.00000001      -0.00000000       0.00000000       0.00000000       0.00000000
Mg       2.12778173       2.12778173       0.00028679       0.00000000       0.00000000       0.00000001       0.00000000       0.00000000       0.00000000
Mg       2.12778173       0.00028679       2.12778173       0.00000000       0.00000001      -0.00000000       0.00000000       0.00000000       0.00000000
Mg       0.00028679       2.12778173       2.12778173       0.00000001       0.00000000      -0.00000000       0.00000000       0.00000000       0.00000000
O        0.00028679       0.00028679       2.12778173      -0.00000000       0.00000000      -0.00000000       0.00000000       0.00000000       0.00000000
O        2.12778173       0.00028679       0.00028679      -0.00000000      -0.00000000       0.00000000       0.00000000       0.00000000       0.00000000
O        0.00028679       2.12778173       0.00028679      -0.00000000      -0.00000000      -0.00000000       0.00000000       0.00000000       0.00000000
O        2.12778173       2.12778173       2.12778173      -0.00000000      -0.00000000      -0.00000000       0.00000000       0.00000000       0.00000000
8
Lattice="4.25498988332625 -1.94440890832792e-37 7.690713645879955e-33 -1.867229017046866e-37 4.25498988332625 -1.492127811559981e-20 -8.522202794962442e-33 -1.4921278115585322e-20 4.25498988332625" Properties=species:S:1:pos:R:3:forces:R:3:displacements:R:3 energy=-30032.26422752833 free_energy=-30032.26422752833 stress="-1.3123991736725053e-07 -4.768679272124003e-12 3.0522358474319584e-12 -4.768679272124003e-12 8.199817813451008e-08 -2.1271082324482614e-12 3.0522358474319584e-12 -2.1271082324482614e-12 8.19399919888092e-08" pbc="T T T"
Mg       0.00128679       0.00028679       0.00028679      -0.00000000      -0.00000001      -0.00000000       0.00100000       0.00000000       0.00000000
Mg       2.12778173       2.12778173       0.00028679       0.00000000       0.00000000       0.00000001       0.00000000       0.00000000       0.00000000
Mg       2.12778173       0.00028679       2.12778173       0.00000000       0.00000001      -0.00000000       0.00000000       0.00000000       0.00000000
Mg       0.00028679       2.12778173       2.12778173       0.00000001       0.00000000      -0.00000000       0.00000000       0.00000000       0.00000000
O        0.00028679       0.00028679       2.12778173      -0.00000000       0.00000000      -0.00000000       0.00000000       0.00000000       0.00000000
O        2.12778173       0.00028679       0.00028679      -0.00000000      -0.00000000       0.00000000       0.00000000       0.00000000       0.00000000
O        0.00028679       2.12778173       0.00028679      -0.00000000      -0.00000000      -0.00000000       0.00000000       0.00000000       0.00000000
O        2.12778173       2.12778173       2.12778173      -0.00000000      -0.00000000      -0.00000000       0.00000000       0.00000000       0.00000000
8
Lattice="4.25498988332625 -1.94440890832792e-37 7.690713645879955e-33 -1.867229017046866e-37 4.25498988332625 -1.492127811559981e-20 -8.522202794962442e-33 -1.4921278115585322e-20 4.25498988332625" Properties=species:S:1:pos:R:3:forces:R:3:displacements:R:3 energy=-30032.26422752833 free_energy=-30032.26422752833 stress="-1.3123991736725053e-07 -4.768679272124003e-12 3.0522358474319584e-12 -4.768679272124003e-12 8.199817813451008e-08 -2.1271082324482614e-12 3.0522358474319584e-12 -2.1271082324482614e-12 8.19399919888092e-08" pbc="T T T"
Mg       0.00028679       0.00028679       0.00028679      -0.00000000      -0.00000001      -0.00000000       0.00000000       0.00000000       0.00000000
Mg       2.12778173       2.12778173       0.00028679       0.00000000       0.00000000       0.00000001       0.00000000       0.00000000       0.00000000
Mg       2.12778173       0.00028679       2.12778173       0.00000000       0.00000001      -0.00000000       0.00000000       0.00000000       0.00000000
Mg       0.00028679       2.12778173       2.12778173       0.00000001       0.00000000      -0.00000000       0.00000000       0.00000000       0.00000000
O        0.00128679       0.00028679       2.12778173      -0.00000000       0.00000000      -0.00000000       0.00100000       0.00000000       0.00000000
O        2.12778173       0.00028679       0.00028679      -0.00000000      -0.00000000       0.00000000       0.00000000       0.00000000       0.00000000
O        0.00028679       2.12778173       0.00028679      -0.00000000      -0.00000000      -0.00000000       0.00000000       0.00000000       0.00000000
O        2.12778173       2.12778173       2.12778173      -0.00000000      -0.00000000      -0.00000000       0.00000000       0.00000000       0.00000000
8
Lattice="4.25498988332625 -1.94440890832792e-37 7.690713645879955e-33 -1.867229017046866e-37 4.25498988332625 -1.492127811559981e-20 -8.522202794962442e-33 -1.4921278115585322e-20 4.25498988332625" Properties=species:S:1:pos:R:3:forces:R:3:displacements:R:3 energy=-30032.26422752833 free_energy=-30032.26422752833 stress="-1.3123991736725053e-07 -4.768679272124003e-12 3.0522358474319584e-12 -4.768679272124003e-12 8.199817813451008e-08 -2.1271082324482614e-12 3.0522358474319584e-12 -2.1271082324482614e-12 8.19399919888092e-08" pbc="T T T"
Mg      -0.00071321       0.00028679       0.00028679      -0.00000000      -0.00000001      -0.00000000      -0.00100000      -0.00000000      -0.00000000
Mg       2.12778173       2.12778173       0.00028679       0.00000000       0.00000000       0.00000001      -0.00000000      -0.00000000      -0.00000000
Mg       2.12778173       0.00028679       2.12778173       0.00000000       0.00000001      -0.00000000      -0.00000000      -0.00000000      -0.00000000
Mg       0.00028679       2.12778173       2.12778173       0.00000001       0.00000000      -0.00000000      -0.00000000      -0.00000000      -0.00000000
O        0.00028679       0.00028679       2.12778173      -0.00000000       0.00000000      -0.00000000      -0.00000000      -0.00000000      -0.00000000
O        2.12778173       0.00028679       0.00028679      -0.00000000      -0.00000000       0.00000000      -0.00000000      -0.00000000      -0.00000000
O        0.00028679       2.12778173       0.00028679      -0.00000000      -0.00000000      -0.00000000      -0.00000000      -0.00000000      -0.00000000
O        2.12778173       2.12778173       2.12778173      -0.00000000      -0.00000000      -0.00000000      -0.00000000      -0.00000000      -0.00000000
8
Lattice="4.25498988332625 -1.94440890832792e-37 7.690713645879955e-33 -1.867229017046866e-37 4.25498988332625 -1.492127811559981e-20 -8.522202794962442e-33 -1.4921278115585322e-20 4.25498988332625" Properties=species:S:1:pos:R:3:forces:R:3:displacements:R:3 energy=-30032.26422752833 free_energy=-30032.26422752833 stress="-1.3123991736725053e-07 -4.768679272124003e-12 3.0522358474319584e-12 -4.768679272124003e-12 8.199817813451008e-08 -2.1271082324482614e-12 3.0522358474319584e-12 -2.1271082324482614e-12 8.19399919888092e-08" pbc="T T T"
Mg       0.00028679       0.00028679       0.00028679      -0.00000000      -0.00000001      -0.00000000      -0.00000000      -0.00000000      -0.00000000
Mg       2.12778173       2.12778173       0.00028679       0.00000000       0.00000000       0.00000001      -0.00000000      -0.00000000      -0.00000000
Mg       2.12778173       0.00028679       2.12778173       0.00000000       0.00000001      -0.00000000      -0.00000000      -0.00000000      -0.00000000
Mg       0.00028679       2.12778173       2.12778173       0.00000001       0.00000000      -0.00000000      -0.00000000      -0.00000000      -0.00000000
O       -0.00071321       0.00028679       2.12778173      -0.00000000       0.00000000      -0.00000000      -0.00100000      -0.00000000      -0.00000000
O        2.12778173       0.00028679       0.00028679      -0.00000000      -0.00000000       0.00000000      -0.00000000      -0.00000000      -0.00000000
O        0.00028679       2.12778173       0.00028679      -0.00000000      -0.00000000      -0.00000000      -0.00000000      -0.00000000      -0.00000000
O        2.12778173       2.12778173       2.12778173      -0.00000000      -0.00000000      -0.00000000      -0.00000000      -0.00000000      -0.00000000
