5
Lattice="3.98772401 0.00252199 0.00251895 0.00732644 3.98771808 0.00251895 0.00732644 0.00731762 3.98771216" Properties=species:S:1:pos:R:3:REF_BEC:R:9 pbc="T T T"
Ba       0.00154942       0.00154755       0.00154569       2.80820109      -0.01544889      -0.01543031      -0.01544889       2.80823832      -0.01541173      -0.01543031      -0.01541173       2.80827541
Ti       2.04807538       2.04560932       2.04314920       6.30031680      -0.30414262      -0.30377685      -0.30414262       6.30104967      -0.30341107      -0.30377685      -0.30341107       6.30177990
O        1.95851857       1.95616035       3.91890703      -2.00681039      -0.01063276       0.09842845      -0.01063276      -2.00678477       0.09830993       0.22810107       0.22782642      -5.09569191
O        3.92361495       1.95379278       1.95144308      -5.09489712       0.23180868       0.23152990       0.10213615      -2.00720825      -0.01103015       0.10201332      -0.01103015      -2.00718170
O        1.95851857       3.92125815       1.95144308      -2.00681039       0.09841559      -0.01075119       0.22808811      -5.09529497       0.23154302      -0.01090724       0.10202653      -2.00718170
