5
Lattice="3.98772401 0.00252199 0.00251895 0.00732644 3.98771808 0.00251895 0.00732644 0.00731762 3.98771216" Properties=species:S:1:pos:R:3:displacements:R:3 energy=-254466.805093542 free_energy=-254466.805093542 polarization="0.226827022 0.226553817 0.226281271" REF_dipole="0.8977528655065845 0.8966715544288387 0.8955928515903281" pbc="T T T"
Ba       0.00154942       0.00154755       0.00154569       0.00000000       0.00000000       0.00000000
Ti       2.04807538       2.04560932       2.04314920       0.00000000       0.00000000       0.00000000
O        1.95851857       1.95616035       3.91890703       0.00000000       0.00000000       0.00000000
O        3.92361495       1.95379278       1.95144308       0.00000000       0.00000000       0.00000000
O        1.95851857       3.92125815       1.95144308       0.00000000       0.00000000       0.00000000
5
Lattice="3.98772401 0.00252199 0.00251895 0.00732644 3.98771808 0.00251895 0.00732644 0.00731762 3.98771216" Properties=species:S:1:pos:R:3:displacements:R:3 energy=-254466.805101383 free_energy=-254466.805101383 polarization="0.227536553 0.22654989 0.22627735" REF_dipole="0.9005611000934487 0.896656011856037 0.8955773327647726" pbc="T T T"
Ba       0.00254942       0.00154755       0.00154569       0.00100000       0.00000000       0.00000000
Ti       2.04807538       2.04560932       2.04314920       0.00000000       0.00000000       0.00000000
O        1.95851857       1.95616035       3.91890703       0.00000000       0.00000000       0.00000000
O        3.92361495       1.95379278       1.95144308       0.00000000       0.00000000       0.00000000
O        1.95851857       3.92125815       1.95144308       0.00000000       0.00000000       0.00000000
5
Lattice="3.98772401 0.00252199 0.00251895 0.00732644 3.98771808 0.00251895 0.00732644 0.00731762 3.98771216" Properties=species:S:1:pos:R:3:displacements:R:3 energy=-254466.8050919 free_energy=-254466.8050919 polarization="0.228417645 0.226476711 0.226204257" REF_dipole="0.9040483515716913 0.8963663785647051 0.8952880398506396" pbc="T T T"
Ba       0.00154942       0.00154755       0.00154569       0.00000000       0.00000000       0.00000000
Ti       2.04907538       2.04560932       2.04314920       0.00100000       0.00000000       0.00000000
O        1.95851857       1.95616035       3.91890703       0.00000000       0.00000000       0.00000000
O        3.92361495       1.95379278       1.95144308       0.00000000       0.00000000       0.00000000
O        1.95851857       3.92125815       1.95144308       0.00000000       0.00000000       0.00000000
5
Lattice="3.98772401 0.00252199 0.00251895 0.00732644 3.98771808 0.00251895 0.00732644 0.00731762 3.98771216" Properties=species:S:1:pos:R:3:displacements:R:3 energy=-254466.805089671 free_energy=-254466.805089671 polarization="0.226319956 0.226551146 0.226306028" REF_dipole="0.8957459619618166 0.8966609829462939 0.8956908366870567" pbc="T T T"
Ba       0.00154942       0.00154755       0.00154569       0.00000000       0.00000000       0.00000000
Ti       2.04807538       2.04560932       2.04314920       0.00000000       0.00000000       0.00000000
O        1.95951857       1.95616035       3.91890703       0.00100000       0.00000000       0.00000000
O        3.92361495       1.95379278       1.95144308       0.00000000       0.00000000       0.00000000
O        1.95851857       3.92125815       1.95144308       0.00000000       0.00000000       0.00000000
5
Lattice="3.98772401 0.00252199 0.00251895 0.00732644 3.98771808 0.00251895 0.00732644 0.00731762 3.98771216" Properties=species:S:1:pos:R:3:displacements:R:3 energy=-254466.805078588 free_energy=-254466.805078588 polarization="0.226884479 0.226611205 0.224993198" REF_dipole="0.8979802730964679 0.8968986889253878 0.8904948204274815" pbc="T T T"
Ba       0.00154942       0.00154755       0.00154569       0.00000000       0.00000000       0.00000000
Ti       2.04807538       2.04560932       2.04314920       0.00000000       0.00000000       0.00000000
O        1.95851857       1.95616035       3.91990703       0.00000000       0.00000000       0.00100000
O        3.92361495       1.95379278       1.95144308       0.00000000       0.00000000       0.00000000
O        1.95851857       3.92125815       1.95144308       0.00000000       0.00000000       0.00000000
5
Lattice="3.98772401 0.00252199 0.00251895 0.00732644 3.98771808 0.00251895 0.00732644 0.00731762 3.98771216" Properties=species:S:1:pos:R:3:displacements:R:3 energy=-254466.805079872 free_energy=-254466.805079872 polarization="0.226117521 0.226557698 0.226285146" REF_dipole="0.8949447496559527 0.896686914939418 0.8956081883536604" pbc="T T T"
Ba       0.00054942       0.00154755       0.00154569      -0.00100000       0.00000000       0.00000000
Ti       2.04807538       2.04560932       2.04314920       0.00000000       0.00000000       0.00000000
O        1.95851857       1.95616035       3.91890703       0.00000000       0.00000000       0.00000000
O        3.92361495       1.95379278       1.95144308       0.00000000       0.00000000       0.00000000
O        1.95851857       3.92125815       1.95144308       0.00000000       0.00000000       0.00000000
5
Lattice="3.98772401 0.00252199 0.00251895 0.00732644 3.98771808 0.00251895 0.00732644 0.00731762 3.98771216" Properties=species:S:1:pos:R:3:displacements:R:3 energy=-254466.805088568 free_energy=-254466.805088568 polarization="0.225233971 0.226630401 0.226357762" REF_dipole="0.8914477697224142 0.8969746642825316 0.8958955933617005" pbc="T T T"
Ba       0.00154942       0.00154755       0.00154569       0.00000000       0.00000000       0.00000000
Ti       2.04707538       2.04560932       2.04314920      -0.00100000       0.00000000       0.00000000
O        1.95851857       1.95616035       3.91890703       0.00000000       0.00000000       0.00000000
O        3.92361495       1.95379278       1.95144308       0.00000000       0.00000000       0.00000000
O        1.95851857       3.92125815       1.95144308       0.00000000       0.00000000       0.00000000
5
Lattice="3.98772401 0.00252199 0.00251895 0.00732644 3.98771808 0.00251895 0.00732644 0.00731762 3.98771216" Properties=species:S:1:pos:R:3:displacements:R:3 energy=-254466.80509209 free_energy=-254466.80509209 polarization="0.227334054 0.226556519 0.22625629" REF_dipole="0.8997596344836227 0.8966822486054904 0.8954939799297319" pbc="T T T"
Ba       0.00154942       0.00154755       0.00154569       0.00000000       0.00000000       0.00000000
Ti       2.04807538       2.04560932       2.04314920       0.00000000       0.00000000       0.00000000
O        1.95751857       1.95616035       3.91890703      -0.00100000       0.00000000       0.00000000
O        3.92361495       1.95379278       1.95144308       0.00000000       0.00000000       0.00000000
O        1.95851857       3.92125815       1.95144308       0.00000000       0.00000000       0.00000000
5
Lattice="3.98772401 0.00252199 0.00251895 0.00732644 3.98771808 0.00251895 0.00732644 0.00731762 3.98771216" Properties=species:S:1:pos:R:3:displacements:R:3 energy=-254466.805098671 free_energy=-254466.805098671 polarization="0.226769214 0.22649608 0.227568175" REF_dipole="0.897524068702784 0.8964430386341211 0.9006862559979911" pbc="T T T"
Ba       0.00154942       0.00154755       0.00154569       0.00000000       0.00000000       0.00000000
Ti       2.04807538       2.04560932       2.04314920       0.00000000       0.00000000       0.00000000
O        1.95851857       1.95616035       3.91790703       0.00000000       0.00000000      -0.00100000
O        3.92361495       1.95379278       1.95144308       0.00000000       0.00000000       0.00000000
O        1.95851857       3.92125815       1.95144308       0.00000000       0.00000000       0.00000000
