5
Lattice="3.98772401 0.00252199 0.00251895 0.00732644 3.98771808 0.00251895 0.00732644 0.00731762 3.98771216" Properties=species:S:1:pos:R:3:REF_BEC:R:9 pbc="T T T"
Ba       0.00154942       0.00154755       0.00154569       2.81118553      -0.01542864      -0.01541008      -0.01542864       2.81122271      -0.01539153      -0.01541008      -0.01539153       2.81125975
Ti       2.04807538       2.04560932       2.04314920       6.29489273      -0.30375011      -0.30338481      -0.30375011       6.29562466      -0.30301950      -0.30338480      -0.30301950       6.29635395
O        1.95851857       1.95616035       3.91890703      -2.00634316      -0.01062835       0.09844275      -0.01062835      -2.00631755       0.09832422       0.22767084       0.22739671      -5.09418574
O        3.92361495       1.95379278       1.95144308      -5.09339195       0.23137720       0.23109894       0.10214920      -2.00674051      -0.01102524       0.10202636      -0.01102524      -2.00671398
O        1.95851857       3.92125815       1.95144308      -2.00634316       0.09842989      -0.01074680       0.22765789      -5.09378931       0.23111205      -0.01090231       0.10203957      -2.00671398
