5
Lattice="3.98772401 0.00252199 0.00251895 0.00732644 3.98771808 0.00251895 0.00732644 0.00731762 3.98771216" Properties=species:S:1:pos:R:3:REF_BEC:R:9 pbc="T T T"
Ba       0.00154942       0.00154755       0.00154569       2.81018610      -0.01543644      -0.01541788      -0.01543644       2.81022330      -0.01539931      -0.01541788      -0.01539931       2.81026036
Ti       2.04807538       2.04560932       2.04314920       6.29672120      -0.30388266      -0.30351720      -0.30388266       6.29745345      -0.30315174      -0.30351720      -0.30315174       6.29818305
O        1.95851857       1.95616035       3.91890703      -2.00650352      -0.01063022       0.09843891      -0.01063022      -2.00647791       0.09832038       0.22781650       0.22754218      -5.09469440
O        3.92361495       1.95379278       1.95144308      -5.09390027       0.23152327       0.23124484       0.10214578      -2.00690105      -0.01102728       0.10202293      -0.01102728      -2.00687451
O        1.95851857       3.92125815       1.95144308      -2.00650352       0.09842605      -0.01074866       0.22780354      -5.09429779       0.23125795      -0.01090435       0.10203615      -2.00687451
