5
Lattice="3.958 0.0 0.0 0.0 3.958 0.0 0.0 0.0 3.958" Properties=species:S:1:pos:R:3:displacements:R:3 energy=-254338.306134514 free_energy=-254338.306134514 polarization="-0.000586111277 -0.000293055571 -0.000293055572" REF_dipole="-0.002268285014899291 -0.001134142246220687 -0.0011341422500907455" pbc="T T T"
Ba       1.97818350       1.97859175       1.97859175      -0.00081650      -0.00040825      -0.00040825
Ti       0.00000000       0.00000000       0.00000000       0.00000000       0.00000000       0.00000000
O        0.00000000       0.00000000       1.97900000       0.00000000       0.00000000       0.00000000
O        1.97900000       0.00000000       0.00000000       0.00000000       0.00000000       0.00000000
O        0.00000000       1.97900000       0.00000000       0.00000000       0.00000000       0.00000000
5
Lattice="3.958 0.0 0.0 0.0 3.958 0.0 0.0 0.0 3.958" Properties=species:S:1:pos:R:3:displacements:R:3 energy=-254338.306137606 free_energy=-254338.306137606 polarization="-0.001557551 -0.000778776079 -0.000778776076" REF_dipole="-0.006027813713677114 -0.003013909097602513 -0.003013909085992337" pbc="T T T"
Ba       1.97900000       1.97900000       1.97900000       0.00000000       0.00000000       0.00000000
Ti      -0.00081650      -0.00040825      -0.00040825      -0.00081650      -0.00040825      -0.00040825
O        0.00000000       0.00000000       1.97900000       0.00000000       0.00000000       0.00000000
O        1.97900000       0.00000000       0.00000000       0.00000000       0.00000000       0.00000000
O        0.00000000       1.97900000       0.00000000       0.00000000       0.00000000       0.00000000
5
Lattice="3.958 0.0 0.0 0.0 3.958 0.0 0.0 0.0 3.958" Properties=species:S:1:pos:R:3:displacements:R:3 energy=-254338.306134637 free_energy=-254338.306134637 polarization="0.000457499965 0.000457499966 0.000457499971" REF_dipole="0.001770551694958174 0.001770551698828233 0.0017705517181785264" pbc="T T T"
Ba       1.97900000       1.97900000       1.97900000       0.00000000       0.00000000       0.00000000
Ti       0.00000000       0.00000000       0.00000000       0.00000000       0.00000000       0.00000000
O       -0.00040825      -0.00040825       1.97900000      -0.00040825      -0.00040825       0.00000000
O        1.97900000      -0.00040825      -0.00040825       0.00000000      -0.00040825      -0.00040825
O       -0.00040825       1.97900000      -0.00040825      -0.00040825       0.00000000      -0.00040825
5
Lattice="3.958 0.0 0.0 0.0 3.958 0.0 0.0 0.0 3.958" Properties=species:S:1:pos:R:3:displacements:R:3 energy=-254338.306134665 free_energy=-254338.306134665 polarization="0.000868798161 0.000868798161 0.000868798161" REF_dipole="0.0033622998343510145 0.0033622998343510145 0.0033622998343510145" pbc="T T T"
Ba       1.97900000       1.97900000       1.97900000       0.00000000       0.00000000       0.00000000
Ti       0.00000000       0.00000000       0.00000000       0.00000000       0.00000000       0.00000000
O        0.00000000       0.00000000       1.97842265       0.00000000       0.00000000      -0.00057735
O        1.97842265       0.00000000       0.00000000      -0.00057735       0.00000000       0.00000000
O        0.00000000       1.97842265       0.00000000       0.00000000      -0.00057735       0.00000000
5
Lattice="3.958 0.0 0.0 0.0 3.958 0.0 0.0 0.0 3.958" Properties=species:S:1:pos:R:3:displacements:R:3 energy=-254338.306137509 free_energy=-254338.306137509 polarization="2.8159226e-14 2.6115412e-14 2.6342502e-14" REF_dipole="1.0897785603767269e-13 1.0106817599675892e-13 1.0194702761461214e-13" pbc="T T T"
Ba       1.97900000       1.97900000       1.97900000       0.00000000       0.00000000       0.00000000
Ti       0.00000000       0.00000000       0.00000000       0.00000000       0.00000000       0.00000000
O        0.00000000       0.00000000       1.97900000       0.00000000       0.00000000       0.00000000
O        1.97900000       0.00000000       0.00000000       0.00000000       0.00000000       0.00000000
O        0.00000000       1.97900000       0.00000000       0.00000000       0.00000000       0.00000000
5
Lattice="3.958 0.0 0.0 0.0 3.958 0.0 0.0 0.0 3.958" Properties=species:S:1:pos:R:3:displacements:R:3 energy=-254338.306134664 free_energy=-254338.306134664 polarization="-0.000868798161 -0.000868798161 -0.000868798161" REF_dipole="-0.0033622998343510145 -0.0033622998343510145 -0.0033622998343510145" pbc="T T T"
Ba       1.97900000       1.97900000       1.97900000       0.00000000       0.00000000       0.00000000
Ti       0.00000000       0.00000000       0.00000000       0.00000000       0.00000000       0.00000000
O        0.00000000       0.00000000       1.97957735       0.00000000       0.00000000       0.00057735
O        1.97957735       0.00000000       0.00000000       0.00057735       0.00000000       0.00000000
O        0.00000000       1.97957735       0.00000000       0.00000000       0.00057735       0.00000000
5
Lattice="3.958 0.0 0.0 0.0 3.958 0.0 0.0 0.0 3.958" Properties=species:S:1:pos:R:3:displacements:R:3 energy=-254338.306134637 free_energy=-254338.306134637 polarization="-0.000457499965 -0.000457499965 -0.000457499971" REF_dipole="-0.001770551694958174 -0.001770551694958174 -0.0017705517181785264" pbc="T T T"
Ba       1.97900000       1.97900000       1.97900000       0.00000000       0.00000000       0.00000000
Ti       0.00000000       0.00000000       0.00000000       0.00000000       0.00000000       0.00000000
O        0.00040825       0.00040825       1.97900000       0.00040825       0.00040825       0.00000000
O        1.97900000       0.00040825       0.00040825       0.00000000       0.00040825       0.00040825
O        0.00040825       1.97900000       0.00040825       0.00040825       0.00000000       0.00040825
5
Lattice="3.958 0.0 0.0 0.0 3.958 0.0 0.0 0.0 3.958" Properties=species:S:1:pos:R:3:displacements:R:3 energy=-254338.306137606 free_energy=-254338.306137606 polarization="0.001557551 0.000778776079 0.000778776076" REF_dipole="0.006027813713677114 0.003013909097602513 0.003013909085992337" pbc="T T T"
Ba       1.97900000       1.97900000       1.97900000       0.00000000       0.00000000       0.00000000
Ti       0.00081650       0.00040825       0.00040825       0.00081650       0.00040825       0.00040825
O        0.00000000       0.00000000       1.97900000       0.00000000       0.00000000       0.00000000
O        1.97900000       0.00000000       0.00000000       0.00000000       0.00000000       0.00000000
O        0.00000000       1.97900000       0.00000000       0.00000000       0.00000000       0.00000000
5
Lattice="3.958 0.0 0.0 0.0 3.958 0.0 0.0 0.0 3.958" Properties=species:S:1:pos:R:3:displacements:R:3 energy=-254338.306134531 free_energy=-254338.306134531 polarization="0.000586111277 0.000293055571 0.000293055572" REF_dipole="0.002268285014899291 0.001134142246220687 0.0011341422500907455" pbc="T T T"
Ba       1.97981650       1.97940825       1.97940825       0.00081650       0.00040825       0.00040825
Ti       0.00000000       0.00000000       0.00000000       0.00000000       0.00000000       0.00000000
O        0.00000000       0.00000000       1.97900000       0.00000000       0.00000000       0.00000000
O        1.97900000       0.00000000       0.00000000       0.00000000       0.00000000       0.00000000
O        0.00000000       1.97900000       0.00000000       0.00000000       0.00000000       0.00000000
