5
Lattice="3.958 0.0 0.0 0.0 3.958 0.0 0.0 0.0 3.958" Properties=species:S:1:pos:R:3:spacegroup_kinds:I:1 spacegroup="P m -3 m" unit_cell=conventional occupancy="_JSON {\"0\": {\"Ba\": 1}, \"1\": {\"Ti\": 1}, \"2\": {\"O\": 1}}" pbc="T T T"
Ba       1.97900000       1.97900000       1.97900000        0
Ti       0.00000000       0.00000000       0.00000000        1
O        0.00000000       0.00000000       1.97900000        2
O        1.97900000       0.00000000       0.00000000        2
O        0.00000000       1.97900000       0.00000000        2
