5
Lattice="3.98772401 0.00252199 0.00251895 0.00732644 3.98771808 0.00251895 0.00732644 0.00731762 3.98771216" Properties=species:S:1:pos:R:3:REF_BEC:R:9 pbc="T T T"
Ba       0.00154942       0.00154755       0.00154569       2.80959238      -0.01544026      -0.01542169      -0.01544026       2.80962959      -0.01540312      -0.01542169      -0.01540312       2.80966666
Ti       2.04807538       2.04560932       2.04314920       6.29779771      -0.30396073      -0.30359518      -0.30396073       6.29853014      -0.30322962      -0.30359517      -0.30322962       6.29925993
O        1.95851857       1.95616035       3.91890703      -2.00659459      -0.01063007       0.09843510      -0.01063007      -2.00656898       0.09831657       0.22790179       0.22762737      -5.09499524
O        3.92361495       1.95379278       1.95144308      -5.09420091       0.23160882       0.23133028       0.10214222      -2.00699222      -0.01102723       0.10201938      -0.01102723      -2.00696568
O        1.95851857       3.92125815       1.95144308      -2.00659459       0.09842224      -0.01074851       0.22788883      -5.09459853       0.23134339      -0.01090431       0.10203259      -2.00696568
