------------------------------------------------------------
          Invoking FHI-aims ...

          When using FHI-aims, please cite the following reference:

            Volker Blum, Ralf Gehrke, Felix Hanke, Paula Havu,
            Ville Havu, Xinguo Ren, Karsten Reuter, and Matthias Scheffler,
            'Ab Initio Molecular Simulations with Numeric Atom-Centered Orbitals',
            Computer Physics Communications 180, 2175-2196 (2009)

          In addition, many other developments in FHI-aims are likely important for
          your particular application. If so, please cite them. A partial list of references
          is written at the end of this file. Thank you for giving credit to the authors
          of these developments.

          For general information about FHI-aims please find us at

            https://fhi-aims.org

          Online tutorials can be found at

            https://fhi-aims-club.gitlab.io/tutorials/tutorials-overview/

          For any questions about FHI-aims, please visit our slack channel at

            https://fhi-aims.slack.com

          and our main development and support site at

            https://aims-git.rz-berlin.mpg.de .

          The latter site, in particular, has a wiki to collect information, as well
          as an issue tracker to log discussions, suggest improvements, and report issues
          or bugs. https://aims-git.rz-berlin.mpg.de is also the main development site
          of the project and all new and updated code versions can be obtained there.
          Please send an email to aims-coordinators@ms1p.org and we will add
          you to these sites. They are for you and everyone is welcome there.

------------------------------------------------------------



  Date     :  20260819, Time     :  150403.333
  Time zero on CPU 1             :   0.238891000000000E+00  s.
  Internal wall clock time zero  :           556383843.333  s.

  FHI-aims created a unique identifier for this run for later identification
  aims_uuid : FA7B3F33-4098-493C-AD0F-B9715F5BBFB4

  Build configuration of the current instance of FHI-aims
  -------------------------------------------------------
  FHI-aims version      : 260527
  Commit number         : 59e070fb4
  CMake host system     : Linux-5.14.0-570.103.1.el9_6.x86_64
  CMake version         : 3.26.5
  OS Distribution       : Red Hat Enterprise Linux 9.6 (Plow)
  Built on              : AMD EPYC 9554 64-Core Processor
  Fortran compiler      : /mpcdf/soft/RHEL_9/packages/x86_64/intel_oneapi/2024.0/mpi/2021.11/bin/mpiifort (Intel) version 2021.1.0.20231117
  Fortran compiler flags: -O3 -ip -fp-model precise -diag-disable=10448
  C compiler            : /mpcdf/soft/RHEL_9/packages/x86_64/intel/2024.0.2/bin/icx (IntelLLVM) version 2024.0.2
  C compiler flags      : -O3 -std=gnu99
  C++ compiler          : /mpcdf/soft/RHEL_9/packages/x86_64/intel/2024.0.2/bin/icpx (IntelLLVM) version 2024.0.2
  C++ compiler flags    : -O3 -std=c++14
  HIP compiler          :
  HIP compiler flags    :
  HIP GPU arch          :
  Using MPI
  Using ScaLAPACK
  Using LibXC
  Using i-PI
  Using RLSY
  Using GREENX
  Linking against: /mpcdf/soft/RHEL_9/packages/x86_64/intel_oneapi/2024.0/mkl/latest/lib/libmkl_intel_lp64.so
                   /mpcdf/soft/RHEL_9/packages/x86_64/intel_oneapi/2024.0/mkl/latest/lib/libmkl_sequential.so
                   /mpcdf/soft/RHEL_9/packages/x86_64/intel_oneapi/2024.0/mkl/latest/lib/libmkl_core.so
                   /mpcdf/soft/RHEL_9/packages/x86_64/intel_oneapi/2024.0/mkl/latest/lib/libmkl_blacs_intelmpi_lp64.so
                   /mpcdf/soft/RHEL_9/packages/x86_64/intel_oneapi/2024.0/mkl/latest/lib/libmkl_scalapack_lp64.so

  Using      512 parallel tasks.
  Task        0 on host vipc2317 reporting.
  Task        1 on host vipc2317 reporting.
  Task        2 on host vipc2317 reporting.
  Task        3 on host vipc2317 reporting.
  Task        4 on host vipc2317 reporting.
  Task        5 on host vipc2317 reporting.
  Task        6 on host vipc2317 reporting.
  Task        7 on host vipc2317 reporting.
  Task        8 on host vipc2317 reporting.
  Task        9 on host vipc2317 reporting.
  Task       10 on host vipc2317 reporting.
  Task       11 on host vipc2317 reporting.
  Task       12 on host vipc2317 reporting.
  Task       13 on host vipc2317 reporting.
  Task       14 on host vipc2317 reporting.
  Task       15 on host vipc2317 reporting.
  Task       16 on host vipc2317 reporting.
  Task       17 on host vipc2317 reporting.
  Task       18 on host vipc2317 reporting.
  Task       19 on host vipc2317 reporting.
  Task       20 on host vipc2317 reporting.
  Task       21 on host vipc2317 reporting.
  Task       22 on host vipc2317 reporting.
  Task       23 on host vipc2317 reporting.
  Task       24 on host vipc2317 reporting.
  Task       25 on host vipc2317 reporting.
  Task       26 on host vipc2317 reporting.
  Task       27 on host vipc2317 reporting.
  Task       28 on host vipc2317 reporting.
  Task       29 on host vipc2317 reporting.
  Task       30 on host vipc2317 reporting.
  Task       31 on host vipc2317 reporting.
  Task       32 on host vipc2317 reporting.
  Task       33 on host vipc2317 reporting.
  Task       34 on host vipc2317 reporting.
  Task       35 on host vipc2317 reporting.
  Task       36 on host vipc2317 reporting.
  Task       37 on host vipc2317 reporting.
  Task       38 on host vipc2317 reporting.
  Task       39 on host vipc2317 reporting.
  Task       40 on host vipc2317 reporting.
  Task       41 on host vipc2317 reporting.
  Task       42 on host vipc2317 reporting.
  Task       43 on host vipc2317 reporting.
  Task       44 on host vipc2317 reporting.
  Task       45 on host vipc2317 reporting.
  Task       46 on host vipc2317 reporting.
  Task       47 on host vipc2317 reporting.
  Task       48 on host vipc2317 reporting.
  Task       49 on host vipc2317 reporting.
  Task       50 on host vipc2317 reporting.
  Task       51 on host vipc2317 reporting.
  Task       52 on host vipc2317 reporting.
  Task       53 on host vipc2317 reporting.
  Task       54 on host vipc2317 reporting.
  Task       55 on host vipc2317 reporting.
  Task       56 on host vipc2317 reporting.
  Task       57 on host vipc2317 reporting.
  Task       58 on host vipc2317 reporting.
  Task       59 on host vipc2317 reporting.
  Task       60 on host vipc2317 reporting.
  Task       61 on host vipc2317 reporting.
  Task       62 on host vipc2317 reporting.
  Task       63 on host vipc2317 reporting.
  Task       64 on host vipc2317 reporting.
  Task       65 on host vipc2317 reporting.
  Task       66 on host vipc2317 reporting.
  Task       67 on host vipc2317 reporting.
  Task       68 on host vipc2317 reporting.
  Task       69 on host vipc2317 reporting.
  Task       70 on host vipc2317 reporting.
  Task       71 on host vipc2317 reporting.
  Task       72 on host vipc2317 reporting.
  Task       73 on host vipc2317 reporting.
  Task       74 on host vipc2317 reporting.
  Task       75 on host vipc2317 reporting.
  Task       76 on host vipc2317 reporting.
  Task       77 on host vipc2317 reporting.
  Task       78 on host vipc2317 reporting.
  Task       79 on host vipc2317 reporting.
  Task       80 on host vipc2317 reporting.
  Task       81 on host vipc2317 reporting.
  Task       82 on host vipc2317 reporting.
  Task       83 on host vipc2317 reporting.
  Task       84 on host vipc2317 reporting.
  Task       85 on host vipc2317 reporting.
  Task       86 on host vipc2317 reporting.
  Task       87 on host vipc2317 reporting.
  Task       88 on host vipc2317 reporting.
  Task       89 on host vipc2317 reporting.
  Task       90 on host vipc2317 reporting.
  Task       91 on host vipc2317 reporting.
  Task       92 on host vipc2317 reporting.
  Task       93 on host vipc2317 reporting.
  Task       94 on host vipc2317 reporting.
  Task       95 on host vipc2317 reporting.
  Task       96 on host vipc2317 reporting.
  Task       97 on host vipc2317 reporting.
  Task       98 on host vipc2317 reporting.
  Task       99 on host vipc2317 reporting.
  Task      100 on host vipc2317 reporting.
  Task      101 on host vipc2317 reporting.
  Task      102 on host vipc2317 reporting.
  Task      103 on host vipc2317 reporting.
  Task      104 on host vipc2317 reporting.
  Task      105 on host vipc2317 reporting.
  Task      106 on host vipc2317 reporting.
  Task      107 on host vipc2317 reporting.
  Task      108 on host vipc2317 reporting.
  Task      109 on host vipc2317 reporting.
  Task      110 on host vipc2317 reporting.
  Task      111 on host vipc2317 reporting.
  Task      112 on host vipc2317 reporting.
  Task      113 on host vipc2317 reporting.
  Task      114 on host vipc2317 reporting.
  Task      115 on host vipc2317 reporting.
  Task      116 on host vipc2317 reporting.
  Task      117 on host vipc2317 reporting.
  Task      118 on host vipc2317 reporting.
  Task      119 on host vipc2317 reporting.
  Task      120 on host vipc2317 reporting.
  Task      121 on host vipc2317 reporting.
  Task      122 on host vipc2317 reporting.
  Task      123 on host vipc2317 reporting.
  Task      124 on host vipc2317 reporting.
  Task      125 on host vipc2317 reporting.
  Task      126 on host vipc2317 reporting.
  Task      127 on host vipc2317 reporting.
  Task      128 on host vipc2319 reporting.
  Task      129 on host vipc2319 reporting.
  Task      130 on host vipc2319 reporting.
  Task      131 on host vipc2319 reporting.
  Task      132 on host vipc2319 reporting.
  Task      133 on host vipc2319 reporting.
  Task      134 on host vipc2319 reporting.
  Task      135 on host vipc2319 reporting.
  Task      136 on host vipc2319 reporting.
  Task      137 on host vipc2319 reporting.
  Task      138 on host vipc2319 reporting.
  Task      139 on host vipc2319 reporting.
  Task      140 on host vipc2319 reporting.
  Task      141 on host vipc2319 reporting.
  Task      142 on host vipc2319 reporting.
  Task      143 on host vipc2319 reporting.
  Task      144 on host vipc2319 reporting.
  Task      145 on host vipc2319 reporting.
  Task      146 on host vipc2319 reporting.
  Task      147 on host vipc2319 reporting.
  Task      148 on host vipc2319 reporting.
  Task      149 on host vipc2319 reporting.
  Task      150 on host vipc2319 reporting.
  Task      151 on host vipc2319 reporting.
  Task      152 on host vipc2319 reporting.
  Task      153 on host vipc2319 reporting.
  Task      154 on host vipc2319 reporting.
  Task      155 on host vipc2319 reporting.
  Task      156 on host vipc2319 reporting.
  Task      157 on host vipc2319 reporting.
  Task      158 on host vipc2319 reporting.
  Task      159 on host vipc2319 reporting.
  Task      160 on host vipc2319 reporting.
  Task      161 on host vipc2319 reporting.
  Task      162 on host vipc2319 reporting.
  Task      163 on host vipc2319 reporting.
  Task      164 on host vipc2319 reporting.
  Task      165 on host vipc2319 reporting.
  Task      166 on host vipc2319 reporting.
  Task      167 on host vipc2319 reporting.
  Task      168 on host vipc2319 reporting.
  Task      169 on host vipc2319 reporting.
  Task      170 on host vipc2319 reporting.
  Task      171 on host vipc2319 reporting.
  Task      172 on host vipc2319 reporting.
  Task      173 on host vipc2319 reporting.
  Task      174 on host vipc2319 reporting.
  Task      175 on host vipc2319 reporting.
  Task      176 on host vipc2319 reporting.
  Task      177 on host vipc2319 reporting.
  Task      178 on host vipc2319 reporting.
  Task      179 on host vipc2319 reporting.
  Task      180 on host vipc2319 reporting.
  Task      181 on host vipc2319 reporting.
  Task      182 on host vipc2319 reporting.
  Task      183 on host vipc2319 reporting.
  Task      184 on host vipc2319 reporting.
  Task      185 on host vipc2319 reporting.
  Task      186 on host vipc2319 reporting.
  Task      187 on host vipc2319 reporting.
  Task      188 on host vipc2319 reporting.
  Task      189 on host vipc2319 reporting.
  Task      190 on host vipc2319 reporting.
  Task      191 on host vipc2319 reporting.
  Task      192 on host vipc2319 reporting.
  Task      193 on host vipc2319 reporting.
  Task      194 on host vipc2319 reporting.
  Task      195 on host vipc2319 reporting.
  Task      196 on host vipc2319 reporting.
  Task      197 on host vipc2319 reporting.
  Task      198 on host vipc2319 reporting.
  Task      199 on host vipc2319 reporting.
  Task      200 on host vipc2319 reporting.
  Task      201 on host vipc2319 reporting.
  Task      202 on host vipc2319 reporting.
  Task      203 on host vipc2319 reporting.
  Task      204 on host vipc2319 reporting.
  Task      205 on host vipc2319 reporting.
  Task      206 on host vipc2319 reporting.
  Task      207 on host vipc2319 reporting.
  Task      208 on host vipc2319 reporting.
  Task      209 on host vipc2319 reporting.
  Task      210 on host vipc2319 reporting.
  Task      211 on host vipc2319 reporting.
  Task      212 on host vipc2319 reporting.
  Task      213 on host vipc2319 reporting.
  Task      214 on host vipc2319 reporting.
  Task      215 on host vipc2319 reporting.
  Task      216 on host vipc2319 reporting.
  Task      217 on host vipc2319 reporting.
  Task      218 on host vipc2319 reporting.
  Task      219 on host vipc2319 reporting.
  Task      220 on host vipc2319 reporting.
  Task      221 on host vipc2319 reporting.
  Task      222 on host vipc2319 reporting.
  Task      223 on host vipc2319 reporting.
  Task      224 on host vipc2319 reporting.
  Task      225 on host vipc2319 reporting.
  Task      226 on host vipc2319 reporting.
  Task      227 on host vipc2319 reporting.
  Task      228 on host vipc2319 reporting.
  Task      229 on host vipc2319 reporting.
  Task      230 on host vipc2319 reporting.
  Task      231 on host vipc2319 reporting.
  Task      232 on host vipc2319 reporting.
  Task      233 on host vipc2319 reporting.
  Task      234 on host vipc2319 reporting.
  Task      235 on host vipc2319 reporting.
  Task      236 on host vipc2319 reporting.
  Task      237 on host vipc2319 reporting.
  Task      238 on host vipc2319 reporting.
  Task      239 on host vipc2319 reporting.
  Task      240 on host vipc2319 reporting.
  Task      241 on host vipc2319 reporting.
  Task      242 on host vipc2319 reporting.
  Task      243 on host vipc2319 reporting.
  Task      244 on host vipc2319 reporting.
  Task      245 on host vipc2319 reporting.
  Task      246 on host vipc2319 reporting.
  Task      247 on host vipc2319 reporting.
  Task      248 on host vipc2319 reporting.
  Task      249 on host vipc2319 reporting.
  Task      250 on host vipc2319 reporting.
  Task      251 on host vipc2319 reporting.
  Task      252 on host vipc2319 reporting.
  Task      253 on host vipc2319 reporting.
  Task      254 on host vipc2319 reporting.
  Task      255 on host vipc2319 reporting.
  Task      256 on host vipc2321 reporting.
  Task      257 on host vipc2321 reporting.
  Task      258 on host vipc2321 reporting.
  Task      259 on host vipc2321 reporting.
  Task      260 on host vipc2321 reporting.
  Task      261 on host vipc2321 reporting.
  Task      262 on host vipc2321 reporting.
  Task      263 on host vipc2321 reporting.
  Task      264 on host vipc2321 reporting.
  Task      265 on host vipc2321 reporting.
  Task      266 on host vipc2321 reporting.
  Task      267 on host vipc2321 reporting.
  Task      268 on host vipc2321 reporting.
  Task      269 on host vipc2321 reporting.
  Task      270 on host vipc2321 reporting.
  Task      271 on host vipc2321 reporting.
  Task      272 on host vipc2321 reporting.
  Task      273 on host vipc2321 reporting.
  Task      274 on host vipc2321 reporting.
  Task      275 on host vipc2321 reporting.
  Task      276 on host vipc2321 reporting.
  Task      277 on host vipc2321 reporting.
  Task      278 on host vipc2321 reporting.
  Task      279 on host vipc2321 reporting.
  Task      280 on host vipc2321 reporting.
  Task      281 on host vipc2321 reporting.
  Task      282 on host vipc2321 reporting.
  Task      283 on host vipc2321 reporting.
  Task      284 on host vipc2321 reporting.
  Task      285 on host vipc2321 reporting.
  Task      286 on host vipc2321 reporting.
  Task      287 on host vipc2321 reporting.
  Task      288 on host vipc2321 reporting.
  Task      289 on host vipc2321 reporting.
  Task      290 on host vipc2321 reporting.
  Task      291 on host vipc2321 reporting.
  Task      292 on host vipc2321 reporting.
  Task      293 on host vipc2321 reporting.
  Task      294 on host vipc2321 reporting.
  Task      295 on host vipc2321 reporting.
  Task      296 on host vipc2321 reporting.
  Task      297 on host vipc2321 reporting.
  Task      298 on host vipc2321 reporting.
  Task      299 on host vipc2321 reporting.
  Task      300 on host vipc2321 reporting.
  Task      301 on host vipc2321 reporting.
  Task      302 on host vipc2321 reporting.
  Task      303 on host vipc2321 reporting.
  Task      304 on host vipc2321 reporting.
  Task      305 on host vipc2321 reporting.
  Task      306 on host vipc2321 reporting.
  Task      307 on host vipc2321 reporting.
  Task      308 on host vipc2321 reporting.
  Task      309 on host vipc2321 reporting.
  Task      310 on host vipc2321 reporting.
  Task      311 on host vipc2321 reporting.
  Task      312 on host vipc2321 reporting.
  Task      313 on host vipc2321 reporting.
  Task      314 on host vipc2321 reporting.
  Task      315 on host vipc2321 reporting.
  Task      316 on host vipc2321 reporting.
  Task      317 on host vipc2321 reporting.
  Task      318 on host vipc2321 reporting.
  Task      319 on host vipc2321 reporting.
  Task      320 on host vipc2321 reporting.
  Task      321 on host vipc2321 reporting.
  Task      322 on host vipc2321 reporting.
  Task      323 on host vipc2321 reporting.
  Task      324 on host vipc2321 reporting.
  Task      325 on host vipc2321 reporting.
  Task      326 on host vipc2321 reporting.
  Task      327 on host vipc2321 reporting.
  Task      328 on host vipc2321 reporting.
  Task      329 on host vipc2321 reporting.
  Task      330 on host vipc2321 reporting.
  Task      331 on host vipc2321 reporting.
  Task      332 on host vipc2321 reporting.
  Task      333 on host vipc2321 reporting.
  Task      334 on host vipc2321 reporting.
  Task      335 on host vipc2321 reporting.
  Task      336 on host vipc2321 reporting.
  Task      337 on host vipc2321 reporting.
  Task      338 on host vipc2321 reporting.
  Task      339 on host vipc2321 reporting.
  Task      340 on host vipc2321 reporting.
  Task      341 on host vipc2321 reporting.
  Task      342 on host vipc2321 reporting.
  Task      343 on host vipc2321 reporting.
  Task      344 on host vipc2321 reporting.
  Task      345 on host vipc2321 reporting.
  Task      346 on host vipc2321 reporting.
  Task      347 on host vipc2321 reporting.
  Task      348 on host vipc2321 reporting.
  Task      349 on host vipc2321 reporting.
  Task      350 on host vipc2321 reporting.
  Task      351 on host vipc2321 reporting.
  Task      352 on host vipc2321 reporting.
  Task      353 on host vipc2321 reporting.
  Task      354 on host vipc2321 reporting.
  Task      355 on host vipc2321 reporting.
  Task      356 on host vipc2321 reporting.
  Task      357 on host vipc2321 reporting.
  Task      358 on host vipc2321 reporting.
  Task      359 on host vipc2321 reporting.
  Task      360 on host vipc2321 reporting.
  Task      361 on host vipc2321 reporting.
  Task      362 on host vipc2321 reporting.
  Task      363 on host vipc2321 reporting.
  Task      364 on host vipc2321 reporting.
  Task      365 on host vipc2321 reporting.
  Task      366 on host vipc2321 reporting.
  Task      367 on host vipc2321 reporting.
  Task      368 on host vipc2321 reporting.
  Task      369 on host vipc2321 reporting.
  Task      370 on host vipc2321 reporting.
  Task      371 on host vipc2321 reporting.
  Task      372 on host vipc2321 reporting.
  Task      373 on host vipc2321 reporting.
  Task      374 on host vipc2321 reporting.
  Task      375 on host vipc2321 reporting.
  Task      376 on host vipc2321 reporting.
  Task      377 on host vipc2321 reporting.
  Task      378 on host vipc2321 reporting.
  Task      379 on host vipc2321 reporting.
  Task      380 on host vipc2321 reporting.
  Task      381 on host vipc2321 reporting.
  Task      382 on host vipc2321 reporting.
  Task      383 on host vipc2321 reporting.
  Task      384 on host vipc2322 reporting.
  Task      385 on host vipc2322 reporting.
  Task      386 on host vipc2322 reporting.
  Task      387 on host vipc2322 reporting.
  Task      388 on host vipc2322 reporting.
  Task      389 on host vipc2322 reporting.
  Task      390 on host vipc2322 reporting.
  Task      391 on host vipc2322 reporting.
  Task      392 on host vipc2322 reporting.
  Task      393 on host vipc2322 reporting.
  Task      394 on host vipc2322 reporting.
  Task      395 on host vipc2322 reporting.
  Task      396 on host vipc2322 reporting.
  Task      397 on host vipc2322 reporting.
  Task      398 on host vipc2322 reporting.
  Task      399 on host vipc2322 reporting.
  Task      400 on host vipc2322 reporting.
  Task      401 on host vipc2322 reporting.
  Task      402 on host vipc2322 reporting.
  Task      403 on host vipc2322 reporting.
  Task      404 on host vipc2322 reporting.
  Task      405 on host vipc2322 reporting.
  Task      406 on host vipc2322 reporting.
  Task      407 on host vipc2322 reporting.
  Task      408 on host vipc2322 reporting.
  Task      409 on host vipc2322 reporting.
  Task      410 on host vipc2322 reporting.
  Task      411 on host vipc2322 reporting.
  Task      412 on host vipc2322 reporting.
  Task      413 on host vipc2322 reporting.
  Task      414 on host vipc2322 reporting.
  Task      415 on host vipc2322 reporting.
  Task      416 on host vipc2322 reporting.
  Task      417 on host vipc2322 reporting.
  Task      418 on host vipc2322 reporting.
  Task      419 on host vipc2322 reporting.
  Task      420 on host vipc2322 reporting.
  Task      421 on host vipc2322 reporting.
  Task      422 on host vipc2322 reporting.
  Task      423 on host vipc2322 reporting.
  Task      424 on host vipc2322 reporting.
  Task      425 on host vipc2322 reporting.
  Task      426 on host vipc2322 reporting.
  Task      427 on host vipc2322 reporting.
  Task      428 on host vipc2322 reporting.
  Task      429 on host vipc2322 reporting.
  Task      430 on host vipc2322 reporting.
  Task      431 on host vipc2322 reporting.
  Task      432 on host vipc2322 reporting.
  Task      433 on host vipc2322 reporting.
  Task      434 on host vipc2322 reporting.
  Task      435 on host vipc2322 reporting.
  Task      436 on host vipc2322 reporting.
  Task      437 on host vipc2322 reporting.
  Task      438 on host vipc2322 reporting.
  Task      439 on host vipc2322 reporting.
  Task      440 on host vipc2322 reporting.
  Task      441 on host vipc2322 reporting.
  Task      442 on host vipc2322 reporting.
  Task      443 on host vipc2322 reporting.
  Task      444 on host vipc2322 reporting.
  Task      445 on host vipc2322 reporting.
  Task      446 on host vipc2322 reporting.
  Task      447 on host vipc2322 reporting.
  Task      448 on host vipc2322 reporting.
  Task      449 on host vipc2322 reporting.
  Task      450 on host vipc2322 reporting.
  Task      451 on host vipc2322 reporting.
  Task      452 on host vipc2322 reporting.
  Task      453 on host vipc2322 reporting.
  Task      454 on host vipc2322 reporting.
  Task      455 on host vipc2322 reporting.
  Task      456 on host vipc2322 reporting.
  Task      457 on host vipc2322 reporting.
  Task      458 on host vipc2322 reporting.
  Task      459 on host vipc2322 reporting.
  Task      460 on host vipc2322 reporting.
  Task      461 on host vipc2322 reporting.
  Task      462 on host vipc2322 reporting.
  Task      463 on host vipc2322 reporting.
  Task      464 on host vipc2322 reporting.
  Task      465 on host vipc2322 reporting.
  Task      466 on host vipc2322 reporting.
  Task      467 on host vipc2322 reporting.
  Task      468 on host vipc2322 reporting.
  Task      469 on host vipc2322 reporting.
  Task      470 on host vipc2322 reporting.
  Task      471 on host vipc2322 reporting.
  Task      472 on host vipc2322 reporting.
  Task      473 on host vipc2322 reporting.
  Task      474 on host vipc2322 reporting.
  Task      475 on host vipc2322 reporting.
  Task      476 on host vipc2322 reporting.
  Task      477 on host vipc2322 reporting.
  Task      478 on host vipc2322 reporting.
  Task      479 on host vipc2322 reporting.
  Task      480 on host vipc2322 reporting.
  Task      481 on host vipc2322 reporting.
  Task      482 on host vipc2322 reporting.
  Task      483 on host vipc2322 reporting.
  Task      484 on host vipc2322 reporting.
  Task      485 on host vipc2322 reporting.
  Task      486 on host vipc2322 reporting.
  Task      487 on host vipc2322 reporting.
  Task      488 on host vipc2322 reporting.
  Task      489 on host vipc2322 reporting.
  Task      490 on host vipc2322 reporting.
  Task      491 on host vipc2322 reporting.
  Task      492 on host vipc2322 reporting.
  Task      493 on host vipc2322 reporting.
  Task      494 on host vipc2322 reporting.
  Task      495 on host vipc2322 reporting.
  Task      496 on host vipc2322 reporting.
  Task      497 on host vipc2322 reporting.
  Task      498 on host vipc2322 reporting.
  Task      499 on host vipc2322 reporting.
  Task      500 on host vipc2322 reporting.
  Task      501 on host vipc2322 reporting.
  Task      502 on host vipc2322 reporting.
  Task      503 on host vipc2322 reporting.
  Task      504 on host vipc2322 reporting.
  Task      505 on host vipc2322 reporting.
  Task      506 on host vipc2322 reporting.
  Task      507 on host vipc2322 reporting.
  Task      508 on host vipc2322 reporting.
  Task      509 on host vipc2322 reporting.
  Task      510 on host vipc2322 reporting.
  Task      511 on host vipc2322 reporting.

  Obtaining array dimensions for all initial allocations:
  
  -----------------------------------------------------------------------
  Parsing control.in (first pass over file, find array dimensions only).
  The contents of control.in will be repeated verbatim below
  unless switched off by setting 'verbatim_writeout .false.' .
  in the first line of control.in .
  -----------------------------------------------------------------------
  
  xc                           pw-lda
  relativistic                 atomic_zora scalar
  spin                         none
  k_grid                       4 4 4
  sc_accuracy_rho              1d-2
  elsi_restart                 read
  KS_method                    serial
  
  
  ################################################################################
  #
  #  FHI-aims code project
  #  VB, Fritz-Haber Institut, 2009
  #
  #  Suggested "light" defaults for Mg atom (to be pasted into control.in file)
  #  Be sure to double-check any results obtained with these settings for post-processing,
  #  e.g., with the "tight" defaults and larger basis sets.
  #
  ################################################################################
    species        Mg
  #     global species definitions
      nucleus             12
      mass                24.3050
  #
      l_hartree           4
  #
      cut_pot             4.0          1.5  1.0
      basis_dep_cutoff    1e-4
  #
      radial_base         40 5.5
      radial_multiplier   1
      angular_grids       specified
        division   0.7029   50
        division   0.9689  110
        division   1.1879  194
        division   1.3129  302
  #      division   1.4867  434
  #      division   1.6018  590
  #      division   1.8611  770
  #      division   1.9576  974
  #      division   2.2261 1202
  #      outer_grid   974
        outer_grid   302
  ################################################################################
  #
  #  Definition of "minimal" basis
  #
  ################################################################################
  #     valence basis states
      valence      3  s   2.
      valence      2  p   6.
  #     ion occupancy
      ion_occ      2  s   2.
      ion_occ      2  p   6.
  ################################################################################
  #
  #  Suggested additional basis functions. For production calculations,
  #  uncomment them one after another (the most important basis functions are
  #  listed first).
  #
  #  Constructed for dimers: 2.125 A, 2.375 A, 2.875 A, 3.375 A, 4.5 A
  #
  ################################################################################
  #  "First tier" - improvements: -230.76 meV to -21.94 meV
       hydro 2 p 1.5
       ionic 3 d auto
       hydro 3 s 2.4
  #  "Second tier" - improvements: -5.43 meV to -1.64 meV
  #     hydro 4 f 4.3
  #     hydro 2 p 3.4
  #     hydro 4 s 11.2
  #     hydro 3 d 6.2
  #  "Third tier" - improvements: -0.92 meV to -0.22 meV
  #     hydro 2 s 0.6
  #     hydro 3 p 4.8
  #     hydro 4 f 7.4
  #     hydro 5 g 6.6
  #     hydro 2 p 1.6
  #     hydro 3 d 1.8
  #  "Fourth tier" - improvements: -0.09 meV to -0.05 meV
  #     hydro 4 p 0.45
  #     hydro 5 g 10.4
  #     hydro 2 s 12.4
  #     hydro 4 d 1.7
  ################################################################################
  #
  #  FHI-aims code project
  #  VB, Fritz-Haber Institut, 2009
  #
  #  Suggested "light" defaults for O atom (to be pasted into control.in file)
  #  Be sure to double-check any results obtained with these settings for post-processing,
  #  e.g., with the "tight" defaults and larger basis sets.
  #
  ################################################################################
    species        O
  #     global species definitions
      nucleus             8
      mass                15.9994
  #
      l_hartree           4
  #
      cut_pot             3.5  1.5  1.0
      basis_dep_cutoff    1e-4
  #
      radial_base         36 5.0
      radial_multiplier   1
       angular_grids specified
        division   0.2659   50
        division   0.4451  110
        division   0.6052  194
        division   0.7543  302
  #      division   0.8014  434
  #      division   0.8507  590
  #      division   0.8762  770
  #      division   0.9023  974
  #      division   1.2339 1202
  #      outer_grid 974
        outer_grid 302
  ################################################################################
  #
  #  Definition of "minimal" basis
  #
  ################################################################################
  #     valence basis states
      valence      2  s   2.
      valence      2  p   4.
  #     ion occupancy
      ion_occ      2  s   1.
      ion_occ      2  p   3.
  ################################################################################
  #
  #  Suggested additional basis functions. For production calculations,
  #  uncomment them one after another (the most important basis functions are
  #  listed first).
  #
  #  Constructed for dimers: 1.0 A, 1.208 A, 1.5 A, 2.0 A, 3.0 A
  #
  ################################################################################
  #  "First tier" - improvements: -699.05 meV to -159.38 meV
       hydro 2 p 1.8
       hydro 3 d 7.6
       hydro 3 s 6.4
  #  "Second tier" - improvements: -49.91 meV to -5.39 meV
  #     hydro 4 f 11.6
  #     hydro 3 p 6.2
  #     hydro 3 d 5.6
  #     hydro 5 g 17.6
  #     hydro 1 s 0.75
  #  "Third tier" - improvements: -2.83 meV to -0.50 meV
  #     ionic 2 p auto
  #     hydro 4 f 10.8
  #     hydro 4 d 4.7
  #     hydro 2 s 6.8
  #  "Fourth tier" - improvements: -0.40 meV to -0.12 meV
  #     hydro 3 p 5
  #     hydro 3 s 3.3
  #     hydro 5 g 15.6
  #     hydro 4 f 17.6
  #     hydro 4 d 14
  # Further basis functions - -0.08 meV and below
  #     hydro 3 s 2.1
  #     hydro 4 d 11.6
  #     hydro 3 p 16
  #     hydro 2 s 17.2
  
  -----------------------------------------------------------------------
  Completed first pass over input file control.in .
  -----------------------------------------------------------------------
  
  
  -----------------------------------------------------------------------
  Parsing geometry.in (first pass over file, find array dimensions only).
  The contents of geometry.in will be repeated verbatim below
  unless switched off by setting 'verbatim_writeout .false.' .
  in the first line of geometry.in .
  -----------------------------------------------------------------------
  
  #===============================================================================
  # Created using the Atomic Simulation Environment (ASE)
  
  # Wed Aug 19 13:30:54 2026
  
  #=======================================================
  lattice_vector 11.9384055699233880 0.0000000000000000 0.0000000000000000
  lattice_vector 5.9692029983632979 10.3389650141279219 0.0000000000000000
  lattice_vector 5.9692029978994352 3.4463245249803256 9.7476686869526503
  atom_frac  0.000250000000  0.000000000000  0.000000000000 Mg
  atom_frac  0.250250000000  0.000000000000  0.000000000000 Mg
  atom_frac  0.500250000000  0.000000000000  0.000000000000 Mg
  atom_frac  0.750250000000  0.000000000000  0.000000000000 Mg
  atom_frac  0.000250000000  0.250000000000  0.000000000000 Mg
  atom_frac  0.250250000000  0.250000000000  0.000000000000 Mg
  atom_frac  0.500250000000  0.250000000000  0.000000000000 Mg
  atom_frac  0.750250000000  0.250000000000  0.000000000000 Mg
  atom_frac  0.000250000000  0.500000000000  0.000000000000 Mg
  atom_frac  0.250250000000  0.500000000000  0.000000000000 Mg
  atom_frac  0.500250000000  0.500000000000  0.000000000000 Mg
  atom_frac  0.750250000000  0.500000000000  0.000000000000 Mg
  atom_frac  0.000250000000  0.750000000000  0.000000000000 Mg
  atom_frac  0.250250000000  0.750000000000  0.000000000000 Mg
  atom_frac  0.500250000000  0.750000000000  0.000000000000 Mg
  atom_frac  0.750250000000  0.750000000000  0.000000000000 Mg
  atom_frac  0.000250000000  0.000000000000  0.250000000000 Mg
  atom_frac  0.250250000000  0.000000000000  0.250000000000 Mg
  atom_frac  0.500250000000  0.000000000000  0.250000000000 Mg
  atom_frac  0.750250000000  0.000000000000  0.250000000000 Mg
  atom_frac  0.000250000000  0.250000000000  0.250000000000 Mg
  atom_frac  0.250250000000  0.250000000000  0.250000000000 Mg
  atom_frac  0.500250000000  0.250000000000  0.250000000000 Mg
  atom_frac  0.750250000000  0.250000000000  0.250000000000 Mg
  atom_frac  0.000250000000  0.500000000000  0.250000000000 Mg
  atom_frac  0.250250000000  0.500000000000  0.250000000000 Mg
  atom_frac  0.500250000000  0.500000000000  0.250000000000 Mg
  atom_frac  0.750250000000  0.500000000000  0.250000000000 Mg
  atom_frac  0.000250000000  0.750000000000  0.250000000000 Mg
  atom_frac  0.250250000000  0.750000000000  0.250000000000 Mg
  atom_frac  0.500250000000  0.750000000000  0.250000000000 Mg
  atom_frac  0.750250000000  0.750000000000  0.250000000000 Mg
  atom_frac  0.000250000000  0.000000000000  0.500000000000 Mg
  atom_frac  0.250250000000  0.000000000000  0.500000000000 Mg
  atom_frac  0.500250000000  0.000000000000  0.500000000000 Mg
  atom_frac  0.750250000000  0.000000000000  0.500000000000 Mg
  atom_frac  0.000250000000  0.250000000000  0.500000000000 Mg
  atom_frac  0.250250000000  0.250000000000  0.500000000000 Mg
  atom_frac  0.500250000000  0.250000000000  0.500000000000 Mg
  atom_frac  0.750250000000  0.250000000000  0.500000000000 Mg
  atom_frac  0.000250000000  0.500000000000  0.500000000000 Mg
  atom_frac  0.250250000000  0.500000000000  0.500000000000 Mg
  atom_frac  0.500250000000  0.500000000000  0.500000000000 Mg
  atom_frac  0.750250000000  0.500000000000  0.500000000000 Mg
  atom_frac  0.000250000000  0.750000000000  0.500000000000 Mg
  atom_frac  0.250250000000  0.750000000000  0.500000000000 Mg
  atom_frac  0.500250000000  0.750000000000  0.500000000000 Mg
  atom_frac  0.750250000000  0.750000000000  0.500000000000 Mg
  atom_frac  0.000250000000 -0.000000000000  0.750000000000 Mg
  atom_frac  0.250250000000 -0.000000000000  0.750000000000 Mg
  atom_frac  0.500250000000 -0.000000000000  0.750000000000 Mg
  atom_frac  0.750250000000 -0.000000000000  0.750000000000 Mg
  atom_frac  0.000250000000  0.250000000000  0.750000000000 Mg
  atom_frac  0.250250000000  0.250000000000  0.750000000000 Mg
  atom_frac  0.500250000000  0.250000000000  0.750000000000 Mg
  atom_frac  0.750250000000  0.250000000000  0.750000000000 Mg
  atom_frac  0.000250000000  0.500000000000  0.750000000000 Mg
  atom_frac  0.250250000000  0.500000000000  0.750000000000 Mg
  atom_frac  0.500250000000  0.500000000000  0.750000000000 Mg
  atom_frac  0.750250000000  0.500000000000  0.750000000000 Mg
  atom_frac  0.000250000000  0.750000000000  0.750000000000 Mg
  atom_frac  0.250250000000  0.750000000000  0.750000000000 Mg
  atom_frac  0.500250000000  0.750000000000  0.750000000000 Mg
  atom_frac  0.750250000000  0.750000000000  0.750000000000 Mg
  atom_frac  0.125000000000  0.125000000000  0.125000000000 O
  atom_frac  0.375000000000  0.125000000000  0.125000000000 O
  atom_frac  0.625000000000  0.125000000000  0.125000000000 O
  atom_frac  0.875000000000  0.125000000000  0.125000000000 O
  atom_frac  0.125000000000  0.375000000000  0.125000000000 O
  atom_frac  0.375000000000  0.375000000000  0.125000000000 O
  atom_frac  0.625000000000  0.375000000000  0.125000000000 O
  atom_frac  0.875000000000  0.375000000000  0.125000000000 O
  atom_frac  0.125000000000  0.625000000000  0.125000000000 O
  atom_frac  0.375000000000  0.625000000000  0.125000000000 O
  atom_frac  0.625000000000  0.625000000000  0.125000000000 O
  atom_frac  0.875000000000  0.625000000000  0.125000000000 O
  atom_frac  0.125000000000  0.875000000000  0.125000000000 O
  atom_frac  0.375000000000  0.875000000000  0.125000000000 O
  atom_frac  0.625000000000  0.875000000000  0.125000000000 O
  atom_frac  0.875000000000  0.875000000000  0.125000000000 O
  atom_frac  0.125000000000  0.125000000000  0.375000000000 O
  atom_frac  0.375000000000  0.125000000000  0.375000000000 O
  atom_frac  0.625000000000  0.125000000000  0.375000000000 O
  atom_frac  0.875000000000  0.125000000000  0.375000000000 O
  atom_frac  0.125000000000  0.375000000000  0.375000000000 O
  atom_frac  0.375000000000  0.375000000000  0.375000000000 O
  atom_frac  0.625000000000  0.375000000000  0.375000000000 O
  atom_frac  0.875000000000  0.375000000000  0.375000000000 O
  atom_frac  0.125000000000  0.625000000000  0.375000000000 O
  atom_frac  0.375000000000  0.625000000000  0.375000000000 O
  atom_frac  0.625000000000  0.625000000000  0.375000000000 O
  atom_frac  0.875000000000  0.625000000000  0.375000000000 O
  atom_frac  0.125000000000  0.875000000000  0.375000000000 O
  atom_frac  0.375000000000  0.875000000000  0.375000000000 O
  atom_frac  0.625000000000  0.875000000000  0.375000000000 O
  atom_frac  0.875000000000  0.875000000000  0.375000000000 O
  atom_frac  0.125000000000  0.125000000000  0.625000000000 O
  atom_frac  0.375000000000  0.125000000000  0.625000000000 O
  atom_frac  0.625000000000  0.125000000000  0.625000000000 O
  atom_frac  0.875000000000  0.125000000000  0.625000000000 O
  atom_frac  0.125000000000  0.375000000000  0.625000000000 O
  atom_frac  0.375000000000  0.375000000000  0.625000000000 O
  atom_frac  0.625000000000  0.375000000000  0.625000000000 O
  atom_frac  0.875000000000  0.375000000000  0.625000000000 O
  atom_frac  0.125000000000  0.625000000000  0.625000000000 O
  atom_frac  0.375000000000  0.625000000000  0.625000000000 O
  atom_frac  0.625000000000  0.625000000000  0.625000000000 O
  atom_frac  0.875000000000  0.625000000000  0.625000000000 O
  atom_frac  0.125000000000  0.875000000000  0.625000000000 O
  atom_frac  0.375000000000  0.875000000000  0.625000000000 O
  atom_frac  0.625000000000  0.875000000000  0.625000000000 O
  atom_frac  0.875000000000  0.875000000000  0.625000000000 O
  atom_frac  0.125000000000  0.125000000000  0.875000000000 O
  atom_frac  0.375000000000  0.125000000000  0.875000000000 O
  atom_frac  0.625000000000  0.125000000000  0.875000000000 O
  atom_frac  0.875000000000  0.125000000000  0.875000000000 O
  atom_frac  0.125000000000  0.375000000000  0.875000000000 O
  atom_frac  0.375000000000  0.375000000000  0.875000000000 O
  atom_frac  0.625000000000  0.375000000000  0.875000000000 O
  atom_frac  0.875000000000  0.375000000000  0.875000000000 O
  atom_frac  0.125000000000  0.625000000000  0.875000000000 O
  atom_frac  0.375000000000  0.625000000000  0.875000000000 O
  atom_frac  0.625000000000  0.625000000000  0.875000000000 O
  atom_frac  0.875000000000  0.625000000000  0.875000000000 O
  atom_frac  0.125000000000  0.875000000000  0.875000000000 O
  atom_frac  0.375000000000  0.875000000000  0.875000000000 O
  atom_frac  0.625000000000  0.875000000000  0.875000000000 O
  atom_frac  0.875000000000  0.875000000000  0.875000000000 O
  
  -----------------------------------------------------------------------
  Completed first pass over input file geometry.in .
  -----------------------------------------------------------------------
  

  Basic array size parameters:
  | Number of species                 :        2
  | Number of atoms                   :      128
  | Number of lattice vectors         :        3
  | Max. basis fn. angular momentum   :        2
  | Max. atomic/ionic basis occupied n:        3
  | Max. number of basis fn. types    :        3
  | Max. radial fns per species/type  :        4
  | Max. logarithmic grid size        :     1334
  | Max. radial integration grid size :       40
  | Max. angular integration grid size:      302
  | Max. angular grid division number :        8
  | Radial grid for Hartree potential :     1334
  | Number of spin channels           :        1

  Definition of standardized fundamental physical constants in this FHI-aims run:
  | Using the set of values used in FHI-aims up to 2024, which combines values from
  | different CODATA sets - see constants.f90.
  | Use the 'codata' keyword in control.in to change this selection.

  Memory overcommitment is allowed on your operating system.

------------------------------------------------------------
          Reading file control.in.
------------------------------------------------------------
  XC: Using Perdew-Wang parametrisation of Ceperley-Alder LDA.
  Scalar relativistic treatment of kinetic energy: on-site free-atom approximation to ZORA.
  Spin treatment: No spin polarisation.
  Found k-point grid:         4         4         4
  Convergence accuracy of self-consistent charge density:  0.1000E-01
  Using elsi_restart infrastructure.
  Restarting calculation from saved density matrices.
  Kohn-Sham eigenvalues and eigenfunctions calculated by LAPACK via ELSI.
 
  Reading configuration options for species Mg                  .
  | Found nuclear charge :  12.0000
  | Found atomic mass :    24.3050000000000      amu
  | Found l_max for Hartree potential  :   4
  | Found cutoff potl. onset [A], width [A], scale factor :    4.00000    1.50000    1.00000
  | Threshold for basis-dependent cutoff potential is   0.100000E-03
  | Found data for basic radial integration grid :    40 points, outermost radius =    5.500 A
  | Found multiplier for basic radial grid :   1
  | Found angular grid specification: user-specified.
  | Specified grid contains     5 separate shells.
  | Check grid settings after all constraints further below.
  | Found free-atom valence shell :  3 s   2.000
  | Found free-atom valence shell :  2 p   6.000
  | Found free-ion valence shell :  2 s   2.000
  | Found free-ion valence shell :  2 p   6.000
  | Found hydrogenic basis function :  2 p   1.500
  | Found ionic basis function :  3 d , default cutoff radius.
  | Found hydrogenic basis function :  3 s   2.400
 | Encountered keyword species, ending the description of species Mg                  .
  Species Mg                  : Missing cutoff potential type.
  Defaulting to exp(1/x)/(1-x)^2 type cutoff potential.
  Species Mg: No 'logarithmic' tag. Using default grid for free atom:
  | Default logarithmic grid data [bohr] : 0.1000E-03 0.1000E+03 0.1012E+01
  | Will include ionic basis functions of  2.0-fold positive Mg                   ion.
  Species Mg: On-site basis accuracy parameter (for Gram-Schmidt orthonormalisation) not specified.
  Using default value basis_acc =  0.1000000E-03.
  Species Mg                  : Using default innermost maximum threshold i_radial=  2 for radial functions.
  Species Mg                  : Default cutoff onset for free atom density etc. : 0.40000000E+01 AA.
  Species Mg                  : Basic radial grid will be enhanced according to radial_multiplier =   1, to contain    40 grid points.
 
  Reading configuration options for species O                   .
  | Found nuclear charge :   8.0000
  | Found atomic mass :    15.9994000000000      amu
  | Found l_max for Hartree potential  :   4
  | Found cutoff potl. onset [A], width [A], scale factor :    3.50000    1.50000    1.00000
  | Threshold for basis-dependent cutoff potential is   0.100000E-03
  | Found data for basic radial integration grid :    36 points, outermost radius =    5.000 A
  | Found multiplier for basic radial grid :   1
  | Found angular grid specification: user-specified.
  | Specified grid contains     5 separate shells.
  | Check grid settings after all constraints further below.
  | Found free-atom valence shell :  2 s   2.000
  | Found free-atom valence shell :  2 p   4.000
  | Found free-ion valence shell :  2 s   1.000
  | Found free-ion valence shell :  2 p   3.000
  | Found hydrogenic basis function :  2 p   1.800
  | Found hydrogenic basis function :  3 d   7.600
  | Found hydrogenic basis function :  3 s   6.400
  Species O                   : Missing cutoff potential type.
  Defaulting to exp(1/x)/(1-x)^2 type cutoff potential.
  Species O : No 'logarithmic' tag. Using default grid for free atom:
  | Default logarithmic grid data [bohr] : 0.1000E-03 0.1000E+03 0.1012E+01
  Species O : On-site basis accuracy parameter (for Gram-Schmidt orthonormalisation) not specified.
  Using default value basis_acc =  0.1000000E-03.
  Species O                   : Using default innermost maximum threshold i_radial=  2 for radial functions.
  Species O                   : Default cutoff onset for free atom density etc. : 0.35000000E+01 AA.
  Species O                   : Basic radial grid will be enhanced according to radial_multiplier =   1, to contain    36 grid points.
 
  Finished reading input file 'control.in'.
 
------------------------------------------------------------


------------------------------------------------------------
          Reading geometry description geometry.in.
------------------------------------------------------------
  | The smallest distance between any two atoms is         2.10832255 AA.
  | The first atom of this pair is atom number                     59 .
  | The second atom of this pair is atom number                   119 .
  | Wigner-Seitz cell of the first atom image           0     1     0 .
  | (The Wigner-Seitz cell of the second atom is 0 0 0  by definition.)

  Symmetry information by spglib:
  | Precision set to  0.1E-04
  | Number of Operations  : 256
  | Space group           : 44
  | International         : Imm2    Dv
  | Schoenflies           : C2v^20
  Input structure read successfully.
  The structure contains      128 atoms,  and a total of       1280.000 electrons.

  Input geometry:
  | Unit cell:
  |       11.93840557        0.00000000        0.00000000
  |        5.96920300       10.33896501        0.00000000
  |        5.96920300        3.44632452        9.74766869
  | Atomic structure:
  |       Atom                x [A]            y [A]            z [A]
  |    1: Species Mg            0.00298460        0.00000000        0.00000000
  |    2: Species Mg            2.98758599        0.00000000        0.00000000
  |    3: Species Mg            5.97218739        0.00000000        0.00000000
  |    4: Species Mg            8.95678878        0.00000000        0.00000000
  |    5: Species Mg            1.49528535        2.58474125        0.00000000
  |    6: Species Mg            4.47988674        2.58474125        0.00000000
  |    7: Species Mg            7.46448814        2.58474125        0.00000000
  |    8: Species Mg           10.44908953        2.58474125        0.00000000
  |    9: Species Mg            2.98758610        5.16948251        0.00000000
  |   10: Species Mg            5.97218749        5.16948251        0.00000000
  |   11: Species Mg            8.95678889        5.16948251        0.00000000
  |   12: Species Mg           11.94139028        5.16948251        0.00000000
  |   13: Species Mg            4.47988685        7.75422376        0.00000000
  |   14: Species Mg            7.46448824        7.75422376        0.00000000
  |   15: Species Mg           10.44908964        7.75422376        0.00000000
  |   16: Species Mg           13.43369103        7.75422376        0.00000000
  |   17: Species Mg            1.49528535        0.86158113        2.43691717
  |   18: Species Mg            4.47988674        0.86158113        2.43691717
  |   19: Species Mg            7.46448814        0.86158113        2.43691717
  |   20: Species Mg           10.44908953        0.86158113        2.43691717
  |   21: Species Mg            2.98758610        3.44632238        2.43691717
  |   22: Species Mg            5.97218749        3.44632238        2.43691717
  |   23: Species Mg            8.95678889        3.44632238        2.43691717
  |   24: Species Mg           11.94139028        3.44632238        2.43691717
  |   25: Species Mg            4.47988685        6.03106364        2.43691717
  |   26: Species Mg            7.46448824        6.03106364        2.43691717
  |   27: Species Mg           10.44908964        6.03106364        2.43691717
  |   28: Species Mg           13.43369103        6.03106364        2.43691717
  |   29: Species Mg            5.97218760        8.61580489        2.43691717
  |   30: Species Mg            8.95678899        8.61580489        2.43691717
  |   31: Species Mg           11.94139038        8.61580489        2.43691717
  |   32: Species Mg           14.92599178        8.61580489        2.43691717
  |   33: Species Mg            2.98758610        1.72316226        4.87383434
  |   34: Species Mg            5.97218749        1.72316226        4.87383434
  |   35: Species Mg            8.95678889        1.72316226        4.87383434
  |   36: Species Mg           11.94139028        1.72316226        4.87383434
  |   37: Species Mg            4.47988685        4.30790352        4.87383434
  |   38: Species Mg            7.46448824        4.30790352        4.87383434
  |   39: Species Mg           10.44908963        4.30790352        4.87383434
  |   40: Species Mg           13.43369103        4.30790352        4.87383434
  |   41: Species Mg            5.97218760        6.89264477        4.87383434
  |   42: Species Mg            8.95678899        6.89264477        4.87383434
  |   43: Species Mg           11.94139038        6.89264477        4.87383434
  |   44: Species Mg           14.92599178        6.89264477        4.87383434
  |   45: Species Mg            7.46448835        9.47738602        4.87383434
  |   46: Species Mg           10.44908974        9.47738602        4.87383434
  |   47: Species Mg           13.43369113        9.47738602        4.87383434
  |   48: Species Mg           16.41829253        9.47738602        4.87383434
  |   49: Species Mg            4.47988685        2.58474339        7.31075152
  |   50: Species Mg            7.46448824        2.58474339        7.31075152
  |   51: Species Mg           10.44908963        2.58474339        7.31075152
  |   52: Species Mg           13.43369103        2.58474339        7.31075152
  |   53: Species Mg            5.97218760        5.16948465        7.31075152
  |   54: Species Mg            8.95678899        5.16948465        7.31075152
  |   55: Species Mg           11.94139038        5.16948465        7.31075152
  |   56: Species Mg           14.92599178        5.16948465        7.31075152
  |   57: Species Mg            7.46448835        7.75422590        7.31075152
  |   58: Species Mg           10.44908974        7.75422590        7.31075152
  |   59: Species Mg           13.43369113        7.75422590        7.31075152
  |   60: Species Mg           16.41829253        7.75422590        7.31075152
  |   61: Species Mg            8.95678910       10.33896715        7.31075152
  |   62: Species Mg           11.94139049       10.33896715        7.31075152
  |   63: Species Mg           14.92599188       10.33896715        7.31075152
  |   64: Species Mg           17.91059328       10.33896715        7.31075152
  |   65: Species O             2.98460145        1.72316119        1.21845859
  |   66: Species O             5.96920284        1.72316119        1.21845859
  |   67: Species O             8.95380423        1.72316119        1.21845859
  |   68: Species O            11.93840562        1.72316119        1.21845859
  |   69: Species O             4.47690220        4.30790245        1.21845859
  |   70: Species O             7.46150359        4.30790245        1.21845859
  |   71: Species O            10.44610498        4.30790245        1.21845859
  |   72: Species O            13.43070637        4.30790245        1.21845859
  |   73: Species O             5.96920294        6.89264370        1.21845859
  |   74: Species O             8.95380434        6.89264370        1.21845859
  |   75: Species O            11.93840573        6.89264370        1.21845859
  |   76: Species O            14.92300712        6.89264370        1.21845859
  |   77: Species O             7.46150369        9.47738495        1.21845859
  |   78: Species O            10.44610509        9.47738495        1.21845859
  |   79: Species O            13.43070648        9.47738495        1.21845859
  |   80: Species O            16.41530787        9.47738495        1.21845859
  |   81: Species O             4.47690220        2.58474232        3.65537576
  |   82: Species O             7.46150359        2.58474232        3.65537576
  |   83: Species O            10.44610498        2.58474232        3.65537576
  |   84: Species O            13.43070637        2.58474232        3.65537576
  |   85: Species O             5.96920294        5.16948358        3.65537576
  |   86: Species O             8.95380434        5.16948358        3.65537576
  |   87: Species O            11.93840573        5.16948358        3.65537576
  |   88: Species O            14.92300712        5.16948358        3.65537576
  |   89: Species O             7.46150369        7.75422483        3.65537576
  |   90: Species O            10.44610509        7.75422483        3.65537576
  |   91: Species O            13.43070648        7.75422483        3.65537576
  |   92: Species O            16.41530787        7.75422483        3.65537576
  |   93: Species O             8.95380444       10.33896608        3.65537576
  |   94: Species O            11.93840584       10.33896608        3.65537576
  |   95: Species O            14.92300723       10.33896608        3.65537576
  |   96: Species O            17.90760862       10.33896608        3.65537576
  |   97: Species O             5.96920294        3.44632345        6.09229293
  |   98: Species O             8.95380434        3.44632345        6.09229293
  |   99: Species O            11.93840573        3.44632345        6.09229293
  |  100: Species O            14.92300712        3.44632345        6.09229293
  |  101: Species O             7.46150369        6.03106471        6.09229293
  |  102: Species O            10.44610509        6.03106471        6.09229293
  |  103: Species O            13.43070648        6.03106471        6.09229293
  |  104: Species O            16.41530787        6.03106471        6.09229293
  |  105: Species O             8.95380444        8.61580596        6.09229293
  |  106: Species O            11.93840584        8.61580596        6.09229293
  |  107: Species O            14.92300723        8.61580596        6.09229293
  |  108: Species O            17.90760862        8.61580596        6.09229293
  |  109: Species O            10.44610519       11.20054722        6.09229293
  |  110: Species O            13.43070659       11.20054722        6.09229293
  |  111: Species O            16.41530798       11.20054722        6.09229293
  |  112: Species O            19.39990937       11.20054722        6.09229293
  |  113: Species O             7.46150369        4.30790459        8.52921010
  |  114: Species O            10.44610509        4.30790459        8.52921010
  |  115: Species O            13.43070648        4.30790459        8.52921010
  |  116: Species O            16.41530787        4.30790459        8.52921010
  |  117: Species O             8.95380444        6.89264584        8.52921010
  |  118: Species O            11.93840584        6.89264584        8.52921010
  |  119: Species O            14.92300723        6.89264584        8.52921010
  |  120: Species O            17.90760862        6.89264584        8.52921010
  |  121: Species O            10.44610519        9.47738709        8.52921010
  |  122: Species O            13.43070659        9.47738709        8.52921010
  |  123: Species O            16.41530798        9.47738709        8.52921010
  |  124: Species O            19.39990937        9.47738709        8.52921010
  |  125: Species O            11.93840594       12.06212835        8.52921010
  |  126: Species O            14.92300734       12.06212835        8.52921010
  |  127: Species O            17.90760873       12.06212835        8.52921010
  |  128: Species O            20.89221012       12.06212835        8.52921010

  Lattice parameters for 3D lattice (in Angstroms) :    11.938406   11.938408   11.938408
  Angle(s) between unit vectors (in degrees)       :    59.999990   60.000005   60.000005


  Quantities derived from the lattice vectors (in Angstrom^-1):
  | Reciprocal lattice vector 1:  0.526300 -0.303860 -0.214861
  | Reciprocal lattice vector 2:  0.000000  0.607719 -0.214861
  | Reciprocal lattice vector 3:  0.000000  0.000000  0.644583
  | Unit cell volume                               :   0.120316E+04  Angstrom^3

  Fractional coordinates:
                         L1                L2                L3
       atom_frac         0.00025000        0.00000000        0.00000000  Mg
       atom_frac         0.25025000        0.00000000        0.00000000  Mg
       atom_frac         0.50025000        0.00000000        0.00000000  Mg
       atom_frac         0.75025000        0.00000000        0.00000000  Mg
       atom_frac         0.00025000        0.25000000        0.00000000  Mg
       atom_frac         0.25025000        0.25000000        0.00000000  Mg
       atom_frac         0.50025000        0.25000000        0.00000000  Mg
       atom_frac         0.75025000        0.25000000        0.00000000  Mg
       atom_frac         0.00025000        0.50000000        0.00000000  Mg
       atom_frac         0.25025000        0.50000000        0.00000000  Mg
       atom_frac         0.50025000        0.50000000        0.00000000  Mg
       atom_frac         0.75025000        0.50000000        0.00000000  Mg
       atom_frac         0.00025000        0.75000000        0.00000000  Mg
       atom_frac         0.25025000        0.75000000        0.00000000  Mg
       atom_frac         0.50025000        0.75000000        0.00000000  Mg
       atom_frac         0.75025000        0.75000000        0.00000000  Mg
       atom_frac         0.00025000       -0.00000000        0.25000000  Mg
       atom_frac         0.25025000        0.00000000        0.25000000  Mg
       atom_frac         0.50025000        0.00000000        0.25000000  Mg
       atom_frac         0.75025000        0.00000000        0.25000000  Mg
       atom_frac         0.00025000        0.25000000        0.25000000  Mg
       atom_frac         0.25025000        0.25000000        0.25000000  Mg
       atom_frac         0.50025000        0.25000000        0.25000000  Mg
       atom_frac         0.75025000        0.25000000        0.25000000  Mg
       atom_frac         0.00025000        0.50000000        0.25000000  Mg
       atom_frac         0.25025000        0.50000000        0.25000000  Mg
       atom_frac         0.50025000        0.50000000        0.25000000  Mg
       atom_frac         0.75025000        0.50000000        0.25000000  Mg
       atom_frac         0.00025000        0.75000000        0.25000000  Mg
       atom_frac         0.25025000        0.75000000        0.25000000  Mg
       atom_frac         0.50025000        0.75000000        0.25000000  Mg
       atom_frac         0.75025000        0.75000000        0.25000000  Mg
       atom_frac         0.00025000       -0.00000000        0.50000000  Mg
       atom_frac         0.25025000        0.00000000        0.50000000  Mg
       atom_frac         0.50025000        0.00000000        0.50000000  Mg
       atom_frac         0.75025000        0.00000000        0.50000000  Mg
       atom_frac         0.00025000        0.25000000        0.50000000  Mg
       atom_frac         0.25025000        0.25000000        0.50000000  Mg
       atom_frac         0.50025000        0.25000000        0.50000000  Mg
       atom_frac         0.75025000        0.25000000        0.50000000  Mg
       atom_frac         0.00025000        0.50000000        0.50000000  Mg
       atom_frac         0.25025000        0.50000000        0.50000000  Mg
       atom_frac         0.50025000        0.50000000        0.50000000  Mg
       atom_frac         0.75025000        0.50000000        0.50000000  Mg
       atom_frac         0.00025000        0.75000000        0.50000000  Mg
       atom_frac         0.25025000        0.75000000        0.50000000  Mg
       atom_frac         0.50025000        0.75000000        0.50000000  Mg
       atom_frac         0.75025000        0.75000000        0.50000000  Mg
       atom_frac         0.00025000       -0.00000000        0.75000000  Mg
       atom_frac         0.25025000       -0.00000000        0.75000000  Mg
       atom_frac         0.50025000        0.00000000        0.75000000  Mg
       atom_frac         0.75025000        0.00000000        0.75000000  Mg
       atom_frac         0.00025000        0.25000000        0.75000000  Mg
       atom_frac         0.25025000        0.25000000        0.75000000  Mg
       atom_frac         0.50025000        0.25000000        0.75000000  Mg
       atom_frac         0.75025000        0.25000000        0.75000000  Mg
       atom_frac         0.00025000        0.50000000        0.75000000  Mg
       atom_frac         0.25025000        0.50000000        0.75000000  Mg
       atom_frac         0.50025000        0.50000000        0.75000000  Mg
       atom_frac         0.75025000        0.50000000        0.75000000  Mg
       atom_frac         0.00025000        0.75000000        0.75000000  Mg
       atom_frac         0.25025000        0.75000000        0.75000000  Mg
       atom_frac         0.50025000        0.75000000        0.75000000  Mg
       atom_frac         0.75025000        0.75000000        0.75000000  Mg
       atom_frac         0.12500000        0.12500000        0.12500000  O
       atom_frac         0.37500000        0.12500000        0.12500000  O
       atom_frac         0.62500000        0.12500000        0.12500000  O
       atom_frac         0.87500000        0.12500000        0.12500000  O
       atom_frac         0.12500000        0.37500000        0.12500000  O
       atom_frac         0.37500000        0.37500000        0.12500000  O
       atom_frac         0.62500000        0.37500000        0.12500000  O
       atom_frac         0.87500000        0.37500000        0.12500000  O
       atom_frac         0.12500000        0.62500000        0.12500000  O
       atom_frac         0.37500000        0.62500000        0.12500000  O
       atom_frac         0.62500000        0.62500000        0.12500000  O
       atom_frac         0.87500000        0.62500000        0.12500000  O
       atom_frac         0.12500000        0.87500000        0.12500000  O
       atom_frac         0.37500000        0.87500000        0.12500000  O
       atom_frac         0.62500000        0.87500000        0.12500000  O
       atom_frac         0.87500000        0.87500000        0.12500000  O
       atom_frac         0.12500000        0.12500000        0.37500000  O
       atom_frac         0.37500000        0.12500000        0.37500000  O
       atom_frac         0.62500000        0.12500000        0.37500000  O
       atom_frac         0.87500000        0.12500000        0.37500000  O
       atom_frac         0.12500000        0.37500000        0.37500000  O
       atom_frac         0.37500000        0.37500000        0.37500000  O
       atom_frac         0.62500000        0.37500000        0.37500000  O
       atom_frac         0.87500000        0.37500000        0.37500000  O
       atom_frac         0.12500000        0.62500000        0.37500000  O
       atom_frac         0.37500000        0.62500000        0.37500000  O
       atom_frac         0.62500000        0.62500000        0.37500000  O
       atom_frac         0.87500000        0.62500000        0.37500000  O
       atom_frac         0.12500000        0.87500000        0.37500000  O
       atom_frac         0.37500000        0.87500000        0.37500000  O
       atom_frac         0.62500000        0.87500000        0.37500000  O
       atom_frac         0.87500000        0.87500000        0.37500000  O
       atom_frac         0.12500000        0.12500000        0.62500000  O
       atom_frac         0.37500000        0.12500000        0.62500000  O
       atom_frac         0.62500000        0.12500000        0.62500000  O
       atom_frac         0.87500000        0.12500000        0.62500000  O
       atom_frac         0.12500000        0.37500000        0.62500000  O
       atom_frac         0.37500000        0.37500000        0.62500000  O
       atom_frac         0.62500000        0.37500000        0.62500000  O
       atom_frac         0.87500000        0.37500000        0.62500000  O
       atom_frac         0.12500000        0.62500000        0.62500000  O
       atom_frac         0.37500000        0.62500000        0.62500000  O
       atom_frac         0.62500000        0.62500000        0.62500000  O
       atom_frac         0.87500000        0.62500000        0.62500000  O
       atom_frac         0.12500000        0.87500000        0.62500000  O
       atom_frac         0.37500000        0.87500000        0.62500000  O
       atom_frac         0.62500000        0.87500000        0.62500000  O
       atom_frac         0.87500000        0.87500000        0.62500000  O
       atom_frac         0.12500000        0.12500000        0.87500000  O
       atom_frac         0.37500000        0.12500000        0.87500000  O
       atom_frac         0.62500000        0.12500000        0.87500000  O
       atom_frac         0.87500000        0.12500000        0.87500000  O
       atom_frac         0.12500000        0.37500000        0.87500000  O
       atom_frac         0.37500000        0.37500000        0.87500000  O
       atom_frac         0.62500000        0.37500000        0.87500000  O
       atom_frac         0.87500000        0.37500000        0.87500000  O
       atom_frac         0.12500000        0.62500000        0.87500000  O
       atom_frac         0.37500000        0.62500000        0.87500000  O
       atom_frac         0.62500000        0.62500000        0.87500000  O
       atom_frac         0.87500000        0.62500000        0.87500000  O
       atom_frac         0.12500000        0.87500000        0.87500000  O
       atom_frac         0.37500000        0.87500000        0.87500000  O
       atom_frac         0.62500000        0.87500000        0.87500000  O
       atom_frac         0.87500000        0.87500000        0.87500000  O

  Slab Identifier: This seems to be a bulk system.
 
  Finished reading input file 'geometry.in'.
 

 
  Consistency checks for stacksize environment parameter are next.
 
  | Maximum stacksize for task 0: unlimited
  | Maximum stacksize for task 1: unlimited
  | Maximum stacksize for task 2: unlimited
  | Maximum stacksize for task 3: unlimited
  | Maximum stacksize for task 4: unlimited
  | Maximum stacksize for task 5: unlimited
  | Maximum stacksize for task 6: unlimited
  | Maximum stacksize for task 7: unlimited
  | Maximum stacksize for task 8: unlimited
  | Maximum stacksize for task 9: unlimited
  | Maximum stacksize for task 10: unlimited
  | Maximum stacksize for task 11: unlimited
  | Maximum stacksize for task 12: unlimited
  | Maximum stacksize for task 13: unlimited
  | Maximum stacksize for task 14: unlimited
  | Maximum stacksize for task 15: unlimited
  | Maximum stacksize for task 16: unlimited
  | Maximum stacksize for task 17: unlimited
  | Maximum stacksize for task 18: unlimited
  | Maximum stacksize for task 19: unlimited
  | Maximum stacksize for task 20: unlimited
  | Maximum stacksize for task 21: unlimited
  | Maximum stacksize for task 22: unlimited
  | Maximum stacksize for task 23: unlimited
  | Maximum stacksize for task 24: unlimited
  | Maximum stacksize for task 25: unlimited
  | Maximum stacksize for task 26: unlimited
  | Maximum stacksize for task 27: unlimited
  | Maximum stacksize for task 28: unlimited
  | Maximum stacksize for task 29: unlimited
  | Maximum stacksize for task 30: unlimited
  | Maximum stacksize for task 31: unlimited
  | Maximum stacksize for task 32: unlimited
  | Maximum stacksize for task 33: unlimited
  | Maximum stacksize for task 34: unlimited
  | Maximum stacksize for task 35: unlimited
  | Maximum stacksize for task 36: unlimited
  | Maximum stacksize for task 37: unlimited
  | Maximum stacksize for task 38: unlimited
  | Maximum stacksize for task 39: unlimited
  | Maximum stacksize for task 40: unlimited
  | Maximum stacksize for task 41: unlimited
  | Maximum stacksize for task 42: unlimited
  | Maximum stacksize for task 43: unlimited
  | Maximum stacksize for task 44: unlimited
  | Maximum stacksize for task 45: unlimited
  | Maximum stacksize for task 46: unlimited
  | Maximum stacksize for task 47: unlimited
  | Maximum stacksize for task 48: unlimited
  | Maximum stacksize for task 49: unlimited
  | Maximum stacksize for task 50: unlimited
  | Maximum stacksize for task 51: unlimited
  | Maximum stacksize for task 52: unlimited
  | Maximum stacksize for task 53: unlimited
  | Maximum stacksize for task 54: unlimited
  | Maximum stacksize for task 55: unlimited
  | Maximum stacksize for task 56: unlimited
  | Maximum stacksize for task 57: unlimited
  | Maximum stacksize for task 58: unlimited
  | Maximum stacksize for task 59: unlimited
  | Maximum stacksize for task 60: unlimited
  | Maximum stacksize for task 61: unlimited
  | Maximum stacksize for task 62: unlimited
  | Maximum stacksize for task 63: unlimited
  | Maximum stacksize for task 64: unlimited
  | Maximum stacksize for task 65: unlimited
  | Maximum stacksize for task 66: unlimited
  | Maximum stacksize for task 67: unlimited
  | Maximum stacksize for task 68: unlimited
  | Maximum stacksize for task 69: unlimited
  | Maximum stacksize for task 70: unlimited
  | Maximum stacksize for task 71: unlimited
  | Maximum stacksize for task 72: unlimited
  | Maximum stacksize for task 73: unlimited
  | Maximum stacksize for task 74: unlimited
  | Maximum stacksize for task 75: unlimited
  | Maximum stacksize for task 76: unlimited
  | Maximum stacksize for task 77: unlimited
  | Maximum stacksize for task 78: unlimited
  | Maximum stacksize for task 79: unlimited
  | Maximum stacksize for task 80: unlimited
  | Maximum stacksize for task 81: unlimited
  | Maximum stacksize for task 82: unlimited
  | Maximum stacksize for task 83: unlimited
  | Maximum stacksize for task 84: unlimited
  | Maximum stacksize for task 85: unlimited
  | Maximum stacksize for task 86: unlimited
  | Maximum stacksize for task 87: unlimited
  | Maximum stacksize for task 88: unlimited
  | Maximum stacksize for task 89: unlimited
  | Maximum stacksize for task 90: unlimited
  | Maximum stacksize for task 91: unlimited
  | Maximum stacksize for task 92: unlimited
  | Maximum stacksize for task 93: unlimited
  | Maximum stacksize for task 94: unlimited
  | Maximum stacksize for task 95: unlimited
  | Maximum stacksize for task 96: unlimited
  | Maximum stacksize for task 97: unlimited
  | Maximum stacksize for task 98: unlimited
  | Maximum stacksize for task 99: unlimited
  | Maximum stacksize for task 100: unlimited
  | Maximum stacksize for task 101: unlimited
  | Maximum stacksize for task 102: unlimited
  | Maximum stacksize for task 103: unlimited
  | Maximum stacksize for task 104: unlimited
  | Maximum stacksize for task 105: unlimited
  | Maximum stacksize for task 106: unlimited
  | Maximum stacksize for task 107: unlimited
  | Maximum stacksize for task 108: unlimited
  | Maximum stacksize for task 109: unlimited
  | Maximum stacksize for task 110: unlimited
  | Maximum stacksize for task 111: unlimited
  | Maximum stacksize for task 112: unlimited
  | Maximum stacksize for task 113: unlimited
  | Maximum stacksize for task 114: unlimited
  | Maximum stacksize for task 115: unlimited
  | Maximum stacksize for task 116: unlimited
  | Maximum stacksize for task 117: unlimited
  | Maximum stacksize for task 118: unlimited
  | Maximum stacksize for task 119: unlimited
  | Maximum stacksize for task 120: unlimited
  | Maximum stacksize for task 121: unlimited
  | Maximum stacksize for task 122: unlimited
  | Maximum stacksize for task 123: unlimited
  | Maximum stacksize for task 124: unlimited
  | Maximum stacksize for task 125: unlimited
  | Maximum stacksize for task 126: unlimited
  | Maximum stacksize for task 127: unlimited
  | Maximum stacksize for task 128: unlimited
  | Maximum stacksize for task 129: unlimited
  | Maximum stacksize for task 130: unlimited
  | Maximum stacksize for task 131: unlimited
  | Maximum stacksize for task 132: unlimited
  | Maximum stacksize for task 133: unlimited
  | Maximum stacksize for task 134: unlimited
  | Maximum stacksize for task 135: unlimited
  | Maximum stacksize for task 136: unlimited
  | Maximum stacksize for task 137: unlimited
  | Maximum stacksize for task 138: unlimited
  | Maximum stacksize for task 139: unlimited
  | Maximum stacksize for task 140: unlimited
  | Maximum stacksize for task 141: unlimited
  | Maximum stacksize for task 142: unlimited
  | Maximum stacksize for task 143: unlimited
  | Maximum stacksize for task 144: unlimited
  | Maximum stacksize for task 145: unlimited
  | Maximum stacksize for task 146: unlimited
  | Maximum stacksize for task 147: unlimited
  | Maximum stacksize for task 148: unlimited
  | Maximum stacksize for task 149: unlimited
  | Maximum stacksize for task 150: unlimited
  | Maximum stacksize for task 151: unlimited
  | Maximum stacksize for task 152: unlimited
  | Maximum stacksize for task 153: unlimited
  | Maximum stacksize for task 154: unlimited
  | Maximum stacksize for task 155: unlimited
  | Maximum stacksize for task 156: unlimited
  | Maximum stacksize for task 157: unlimited
  | Maximum stacksize for task 158: unlimited
  | Maximum stacksize for task 159: unlimited
  | Maximum stacksize for task 160: unlimited
  | Maximum stacksize for task 161: unlimited
  | Maximum stacksize for task 162: unlimited
  | Maximum stacksize for task 163: unlimited
  | Maximum stacksize for task 164: unlimited
  | Maximum stacksize for task 165: unlimited
  | Maximum stacksize for task 166: unlimited
  | Maximum stacksize for task 167: unlimited
  | Maximum stacksize for task 168: unlimited
  | Maximum stacksize for task 169: unlimited
  | Maximum stacksize for task 170: unlimited
  | Maximum stacksize for task 171: unlimited
  | Maximum stacksize for task 172: unlimited
  | Maximum stacksize for task 173: unlimited
  | Maximum stacksize for task 174: unlimited
  | Maximum stacksize for task 175: unlimited
  | Maximum stacksize for task 176: unlimited
  | Maximum stacksize for task 177: unlimited
  | Maximum stacksize for task 178: unlimited
  | Maximum stacksize for task 179: unlimited
  | Maximum stacksize for task 180: unlimited
  | Maximum stacksize for task 181: unlimited
  | Maximum stacksize for task 182: unlimited
  | Maximum stacksize for task 183: unlimited
  | Maximum stacksize for task 184: unlimited
  | Maximum stacksize for task 185: unlimited
  | Maximum stacksize for task 186: unlimited
  | Maximum stacksize for task 187: unlimited
  | Maximum stacksize for task 188: unlimited
  | Maximum stacksize for task 189: unlimited
  | Maximum stacksize for task 190: unlimited
  | Maximum stacksize for task 191: unlimited
  | Maximum stacksize for task 192: unlimited
  | Maximum stacksize for task 193: unlimited
  | Maximum stacksize for task 194: unlimited
  | Maximum stacksize for task 195: unlimited
  | Maximum stacksize for task 196: unlimited
  | Maximum stacksize for task 197: unlimited
  | Maximum stacksize for task 198: unlimited
  | Maximum stacksize for task 199: unlimited
  | Maximum stacksize for task 200: unlimited
  | Maximum stacksize for task 201: unlimited
  | Maximum stacksize for task 202: unlimited
  | Maximum stacksize for task 203: unlimited
  | Maximum stacksize for task 204: unlimited
  | Maximum stacksize for task 205: unlimited
  | Maximum stacksize for task 206: unlimited
  | Maximum stacksize for task 207: unlimited
  | Maximum stacksize for task 208: unlimited
  | Maximum stacksize for task 209: unlimited
  | Maximum stacksize for task 210: unlimited
  | Maximum stacksize for task 211: unlimited
  | Maximum stacksize for task 212: unlimited
  | Maximum stacksize for task 213: unlimited
  | Maximum stacksize for task 214: unlimited
  | Maximum stacksize for task 215: unlimited
  | Maximum stacksize for task 216: unlimited
  | Maximum stacksize for task 217: unlimited
  | Maximum stacksize for task 218: unlimited
  | Maximum stacksize for task 219: unlimited
  | Maximum stacksize for task 220: unlimited
  | Maximum stacksize for task 221: unlimited
  | Maximum stacksize for task 222: unlimited
  | Maximum stacksize for task 223: unlimited
  | Maximum stacksize for task 224: unlimited
  | Maximum stacksize for task 225: unlimited
  | Maximum stacksize for task 226: unlimited
  | Maximum stacksize for task 227: unlimited
  | Maximum stacksize for task 228: unlimited
  | Maximum stacksize for task 229: unlimited
  | Maximum stacksize for task 230: unlimited
  | Maximum stacksize for task 231: unlimited
  | Maximum stacksize for task 232: unlimited
  | Maximum stacksize for task 233: unlimited
  | Maximum stacksize for task 234: unlimited
  | Maximum stacksize for task 235: unlimited
  | Maximum stacksize for task 236: unlimited
  | Maximum stacksize for task 237: unlimited
  | Maximum stacksize for task 238: unlimited
  | Maximum stacksize for task 239: unlimited
  | Maximum stacksize for task 240: unlimited
  | Maximum stacksize for task 241: unlimited
  | Maximum stacksize for task 242: unlimited
  | Maximum stacksize for task 243: unlimited
  | Maximum stacksize for task 244: unlimited
  | Maximum stacksize for task 245: unlimited
  | Maximum stacksize for task 246: unlimited
  | Maximum stacksize for task 247: unlimited
  | Maximum stacksize for task 248: unlimited
  | Maximum stacksize for task 249: unlimited
  | Maximum stacksize for task 250: unlimited
  | Maximum stacksize for task 251: unlimited
  | Maximum stacksize for task 252: unlimited
  | Maximum stacksize for task 253: unlimited
  | Maximum stacksize for task 254: unlimited
  | Maximum stacksize for task 255: unlimited
  | Maximum stacksize for task 256: unlimited
  | Maximum stacksize for task 257: unlimited
  | Maximum stacksize for task 258: unlimited
  | Maximum stacksize for task 259: unlimited
  | Maximum stacksize for task 260: unlimited
  | Maximum stacksize for task 261: unlimited
  | Maximum stacksize for task 262: unlimited
  | Maximum stacksize for task 263: unlimited
  | Maximum stacksize for task 264: unlimited
  | Maximum stacksize for task 265: unlimited
  | Maximum stacksize for task 266: unlimited
  | Maximum stacksize for task 267: unlimited
  | Maximum stacksize for task 268: unlimited
  | Maximum stacksize for task 269: unlimited
  | Maximum stacksize for task 270: unlimited
  | Maximum stacksize for task 271: unlimited
  | Maximum stacksize for task 272: unlimited
  | Maximum stacksize for task 273: unlimited
  | Maximum stacksize for task 274: unlimited
  | Maximum stacksize for task 275: unlimited
  | Maximum stacksize for task 276: unlimited
  | Maximum stacksize for task 277: unlimited
  | Maximum stacksize for task 278: unlimited
  | Maximum stacksize for task 279: unlimited
  | Maximum stacksize for task 280: unlimited
  | Maximum stacksize for task 281: unlimited
  | Maximum stacksize for task 282: unlimited
  | Maximum stacksize for task 283: unlimited
  | Maximum stacksize for task 284: unlimited
  | Maximum stacksize for task 285: unlimited
  | Maximum stacksize for task 286: unlimited
  | Maximum stacksize for task 287: unlimited
  | Maximum stacksize for task 288: unlimited
  | Maximum stacksize for task 289: unlimited
  | Maximum stacksize for task 290: unlimited
  | Maximum stacksize for task 291: unlimited
  | Maximum stacksize for task 292: unlimited
  | Maximum stacksize for task 293: unlimited
  | Maximum stacksize for task 294: unlimited
  | Maximum stacksize for task 295: unlimited
  | Maximum stacksize for task 296: unlimited
  | Maximum stacksize for task 297: unlimited
  | Maximum stacksize for task 298: unlimited
  | Maximum stacksize for task 299: unlimited
  | Maximum stacksize for task 300: unlimited
  | Maximum stacksize for task 301: unlimited
  | Maximum stacksize for task 302: unlimited
  | Maximum stacksize for task 303: unlimited
  | Maximum stacksize for task 304: unlimited
  | Maximum stacksize for task 305: unlimited
  | Maximum stacksize for task 306: unlimited
  | Maximum stacksize for task 307: unlimited
  | Maximum stacksize for task 308: unlimited
  | Maximum stacksize for task 309: unlimited
  | Maximum stacksize for task 310: unlimited
  | Maximum stacksize for task 311: unlimited
  | Maximum stacksize for task 312: unlimited
  | Maximum stacksize for task 313: unlimited
  | Maximum stacksize for task 314: unlimited
  | Maximum stacksize for task 315: unlimited
  | Maximum stacksize for task 316: unlimited
  | Maximum stacksize for task 317: unlimited
  | Maximum stacksize for task 318: unlimited
  | Maximum stacksize for task 319: unlimited
  | Maximum stacksize for task 320: unlimited
  | Maximum stacksize for task 321: unlimited
  | Maximum stacksize for task 322: unlimited
  | Maximum stacksize for task 323: unlimited
  | Maximum stacksize for task 324: unlimited
  | Maximum stacksize for task 325: unlimited
  | Maximum stacksize for task 326: unlimited
  | Maximum stacksize for task 327: unlimited
  | Maximum stacksize for task 328: unlimited
  | Maximum stacksize for task 329: unlimited
  | Maximum stacksize for task 330: unlimited
  | Maximum stacksize for task 331: unlimited
  | Maximum stacksize for task 332: unlimited
  | Maximum stacksize for task 333: unlimited
  | Maximum stacksize for task 334: unlimited
  | Maximum stacksize for task 335: unlimited
  | Maximum stacksize for task 336: unlimited
  | Maximum stacksize for task 337: unlimited
  | Maximum stacksize for task 338: unlimited
  | Maximum stacksize for task 339: unlimited
  | Maximum stacksize for task 340: unlimited
  | Maximum stacksize for task 341: unlimited
  | Maximum stacksize for task 342: unlimited
  | Maximum stacksize for task 343: unlimited
  | Maximum stacksize for task 344: unlimited
  | Maximum stacksize for task 345: unlimited
  | Maximum stacksize for task 346: unlimited
  | Maximum stacksize for task 347: unlimited
  | Maximum stacksize for task 348: unlimited
  | Maximum stacksize for task 349: unlimited
  | Maximum stacksize for task 350: unlimited
  | Maximum stacksize for task 351: unlimited
  | Maximum stacksize for task 352: unlimited
  | Maximum stacksize for task 353: unlimited
  | Maximum stacksize for task 354: unlimited
  | Maximum stacksize for task 355: unlimited
  | Maximum stacksize for task 356: unlimited
  | Maximum stacksize for task 357: unlimited
  | Maximum stacksize for task 358: unlimited
  | Maximum stacksize for task 359: unlimited
  | Maximum stacksize for task 360: unlimited
  | Maximum stacksize for task 361: unlimited
  | Maximum stacksize for task 362: unlimited
  | Maximum stacksize for task 363: unlimited
  | Maximum stacksize for task 364: unlimited
  | Maximum stacksize for task 365: unlimited
  | Maximum stacksize for task 366: unlimited
  | Maximum stacksize for task 367: unlimited
  | Maximum stacksize for task 368: unlimited
  | Maximum stacksize for task 369: unlimited
  | Maximum stacksize for task 370: unlimited
  | Maximum stacksize for task 371: unlimited
  | Maximum stacksize for task 372: unlimited
  | Maximum stacksize for task 373: unlimited
  | Maximum stacksize for task 374: unlimited
  | Maximum stacksize for task 375: unlimited
  | Maximum stacksize for task 376: unlimited
  | Maximum stacksize for task 377: unlimited
  | Maximum stacksize for task 378: unlimited
  | Maximum stacksize for task 379: unlimited
  | Maximum stacksize for task 380: unlimited
  | Maximum stacksize for task 381: unlimited
  | Maximum stacksize for task 382: unlimited
  | Maximum stacksize for task 383: unlimited
  | Maximum stacksize for task 384: unlimited
  | Maximum stacksize for task 385: unlimited
  | Maximum stacksize for task 386: unlimited
  | Maximum stacksize for task 387: unlimited
  | Maximum stacksize for task 388: unlimited
  | Maximum stacksize for task 389: unlimited
  | Maximum stacksize for task 390: unlimited
  | Maximum stacksize for task 391: unlimited
  | Maximum stacksize for task 392: unlimited
  | Maximum stacksize for task 393: unlimited
  | Maximum stacksize for task 394: unlimited
  | Maximum stacksize for task 395: unlimited
  | Maximum stacksize for task 396: unlimited
  | Maximum stacksize for task 397: unlimited
  | Maximum stacksize for task 398: unlimited
  | Maximum stacksize for task 399: unlimited
  | Maximum stacksize for task 400: unlimited
  | Maximum stacksize for task 401: unlimited
  | Maximum stacksize for task 402: unlimited
  | Maximum stacksize for task 403: unlimited
  | Maximum stacksize for task 404: unlimited
  | Maximum stacksize for task 405: unlimited
  | Maximum stacksize for task 406: unlimited
  | Maximum stacksize for task 407: unlimited
  | Maximum stacksize for task 408: unlimited
  | Maximum stacksize for task 409: unlimited
  | Maximum stacksize for task 410: unlimited
  | Maximum stacksize for task 411: unlimited
  | Maximum stacksize for task 412: unlimited
  | Maximum stacksize for task 413: unlimited
  | Maximum stacksize for task 414: unlimited
  | Maximum stacksize for task 415: unlimited
  | Maximum stacksize for task 416: unlimited
  | Maximum stacksize for task 417: unlimited
  | Maximum stacksize for task 418: unlimited
  | Maximum stacksize for task 419: unlimited
  | Maximum stacksize for task 420: unlimited
  | Maximum stacksize for task 421: unlimited
  | Maximum stacksize for task 422: unlimited
  | Maximum stacksize for task 423: unlimited
  | Maximum stacksize for task 424: unlimited
  | Maximum stacksize for task 425: unlimited
  | Maximum stacksize for task 426: unlimited
  | Maximum stacksize for task 427: unlimited
  | Maximum stacksize for task 428: unlimited
  | Maximum stacksize for task 429: unlimited
  | Maximum stacksize for task 430: unlimited
  | Maximum stacksize for task 431: unlimited
  | Maximum stacksize for task 432: unlimited
  | Maximum stacksize for task 433: unlimited
  | Maximum stacksize for task 434: unlimited
  | Maximum stacksize for task 435: unlimited
  | Maximum stacksize for task 436: unlimited
  | Maximum stacksize for task 437: unlimited
  | Maximum stacksize for task 438: unlimited
  | Maximum stacksize for task 439: unlimited
  | Maximum stacksize for task 440: unlimited
  | Maximum stacksize for task 441: unlimited
  | Maximum stacksize for task 442: unlimited
  | Maximum stacksize for task 443: unlimited
  | Maximum stacksize for task 444: unlimited
  | Maximum stacksize for task 445: unlimited
  | Maximum stacksize for task 446: unlimited
  | Maximum stacksize for task 447: unlimited
  | Maximum stacksize for task 448: unlimited
  | Maximum stacksize for task 449: unlimited
  | Maximum stacksize for task 450: unlimited
  | Maximum stacksize for task 451: unlimited
  | Maximum stacksize for task 452: unlimited
  | Maximum stacksize for task 453: unlimited
  | Maximum stacksize for task 454: unlimited
  | Maximum stacksize for task 455: unlimited
  | Maximum stacksize for task 456: unlimited
  | Maximum stacksize for task 457: unlimited
  | Maximum stacksize for task 458: unlimited
  | Maximum stacksize for task 459: unlimited
  | Maximum stacksize for task 460: unlimited
  | Maximum stacksize for task 461: unlimited
  | Maximum stacksize for task 462: unlimited
  | Maximum stacksize for task 463: unlimited
  | Maximum stacksize for task 464: unlimited
  | Maximum stacksize for task 465: unlimited
  | Maximum stacksize for task 466: unlimited
  | Maximum stacksize for task 467: unlimited
  | Maximum stacksize for task 468: unlimited
  | Maximum stacksize for task 469: unlimited
  | Maximum stacksize for task 470: unlimited
  | Maximum stacksize for task 471: unlimited
  | Maximum stacksize for task 472: unlimited
  | Maximum stacksize for task 473: unlimited
  | Maximum stacksize for task 474: unlimited
  | Maximum stacksize for task 475: unlimited
  | Maximum stacksize for task 476: unlimited
  | Maximum stacksize for task 477: unlimited
  | Maximum stacksize for task 478: unlimited
  | Maximum stacksize for task 479: unlimited
  | Maximum stacksize for task 480: unlimited
  | Maximum stacksize for task 481: unlimited
  | Maximum stacksize for task 482: unlimited
  | Maximum stacksize for task 483: unlimited
  | Maximum stacksize for task 484: unlimited
  | Maximum stacksize for task 485: unlimited
  | Maximum stacksize for task 486: unlimited
  | Maximum stacksize for task 487: unlimited
  | Maximum stacksize for task 488: unlimited
  | Maximum stacksize for task 489: unlimited
  | Maximum stacksize for task 490: unlimited
  | Maximum stacksize for task 491: unlimited
  | Maximum stacksize for task 492: unlimited
  | Maximum stacksize for task 493: unlimited
  | Maximum stacksize for task 494: unlimited
  | Maximum stacksize for task 495: unlimited
  | Maximum stacksize for task 496: unlimited
  | Maximum stacksize for task 497: unlimited
  | Maximum stacksize for task 498: unlimited
  | Maximum stacksize for task 499: unlimited
  | Maximum stacksize for task 500: unlimited
  | Maximum stacksize for task 501: unlimited
  | Maximum stacksize for task 502: unlimited
  | Maximum stacksize for task 503: unlimited
  | Maximum stacksize for task 504: unlimited
  | Maximum stacksize for task 505: unlimited
  | Maximum stacksize for task 506: unlimited
  | Maximum stacksize for task 507: unlimited
  | Maximum stacksize for task 508: unlimited
  | Maximum stacksize for task 509: unlimited
  | Maximum stacksize for task 510: unlimited
  | Maximum stacksize for task 511: unlimited
  | Current stacksize for task 0: unlimited
  | Current stacksize for task 1: unlimited
  | Current stacksize for task 2: unlimited
  | Current stacksize for task 3: unlimited
  | Current stacksize for task 4: unlimited
  | Current stacksize for task 5: unlimited
  | Current stacksize for task 6: unlimited
  | Current stacksize for task 7: unlimited
  | Current stacksize for task 8: unlimited
  | Current stacksize for task 9: unlimited
  | Current stacksize for task 10: unlimited
  | Current stacksize for task 11: unlimited
  | Current stacksize for task 12: unlimited
  | Current stacksize for task 13: unlimited
  | Current stacksize for task 14: unlimited
  | Current stacksize for task 15: unlimited
  | Current stacksize for task 16: unlimited
  | Current stacksize for task 17: unlimited
  | Current stacksize for task 18: unlimited
  | Current stacksize for task 19: unlimited
  | Current stacksize for task 20: unlimited
  | Current stacksize for task 21: unlimited
  | Current stacksize for task 22: unlimited
  | Current stacksize for task 23: unlimited
  | Current stacksize for task 24: unlimited
  | Current stacksize for task 25: unlimited
  | Current stacksize for task 26: unlimited
  | Current stacksize for task 27: unlimited
  | Current stacksize for task 28: unlimited
  | Current stacksize for task 29: unlimited
  | Current stacksize for task 30: unlimited
  | Current stacksize for task 31: unlimited
  | Current stacksize for task 32: unlimited
  | Current stacksize for task 33: unlimited
  | Current stacksize for task 34: unlimited
  | Current stacksize for task 35: unlimited
  | Current stacksize for task 36: unlimited
  | Current stacksize for task 37: unlimited
  | Current stacksize for task 38: unlimited
  | Current stacksize for task 39: unlimited
  | Current stacksize for task 40: unlimited
  | Current stacksize for task 41: unlimited
  | Current stacksize for task 42: unlimited
  | Current stacksize for task 43: unlimited
  | Current stacksize for task 44: unlimited
  | Current stacksize for task 45: unlimited
  | Current stacksize for task 46: unlimited
  | Current stacksize for task 47: unlimited
  | Current stacksize for task 48: unlimited
  | Current stacksize for task 49: unlimited
  | Current stacksize for task 50: unlimited
  | Current stacksize for task 51: unlimited
  | Current stacksize for task 52: unlimited
  | Current stacksize for task 53: unlimited
  | Current stacksize for task 54: unlimited
  | Current stacksize for task 55: unlimited
  | Current stacksize for task 56: unlimited
  | Current stacksize for task 57: unlimited
  | Current stacksize for task 58: unlimited
  | Current stacksize for task 59: unlimited
  | Current stacksize for task 60: unlimited
  | Current stacksize for task 61: unlimited
  | Current stacksize for task 62: unlimited
  | Current stacksize for task 63: unlimited
  | Current stacksize for task 64: unlimited
  | Current stacksize for task 65: unlimited
  | Current stacksize for task 66: unlimited
  | Current stacksize for task 67: unlimited
  | Current stacksize for task 68: unlimited
  | Current stacksize for task 69: unlimited
  | Current stacksize for task 70: unlimited
  | Current stacksize for task 71: unlimited
  | Current stacksize for task 72: unlimited
  | Current stacksize for task 73: unlimited
  | Current stacksize for task 74: unlimited
  | Current stacksize for task 75: unlimited
  | Current stacksize for task 76: unlimited
  | Current stacksize for task 77: unlimited
  | Current stacksize for task 78: unlimited
  | Current stacksize for task 79: unlimited
  | Current stacksize for task 80: unlimited
  | Current stacksize for task 81: unlimited
  | Current stacksize for task 82: unlimited
  | Current stacksize for task 83: unlimited
  | Current stacksize for task 84: unlimited
  | Current stacksize for task 85: unlimited
  | Current stacksize for task 86: unlimited
  | Current stacksize for task 87: unlimited
  | Current stacksize for task 88: unlimited
  | Current stacksize for task 89: unlimited
  | Current stacksize for task 90: unlimited
  | Current stacksize for task 91: unlimited
  | Current stacksize for task 92: unlimited
  | Current stacksize for task 93: unlimited
  | Current stacksize for task 94: unlimited
  | Current stacksize for task 95: unlimited
  | Current stacksize for task 96: unlimited
  | Current stacksize for task 97: unlimited
  | Current stacksize for task 98: unlimited
  | Current stacksize for task 99: unlimited
  | Current stacksize for task 100: unlimited
  | Current stacksize for task 101: unlimited
  | Current stacksize for task 102: unlimited
  | Current stacksize for task 103: unlimited
  | Current stacksize for task 104: unlimited
  | Current stacksize for task 105: unlimited
  | Current stacksize for task 106: unlimited
  | Current stacksize for task 107: unlimited
  | Current stacksize for task 108: unlimited
  | Current stacksize for task 109: unlimited
  | Current stacksize for task 110: unlimited
  | Current stacksize for task 111: unlimited
  | Current stacksize for task 112: unlimited
  | Current stacksize for task 113: unlimited
  | Current stacksize for task 114: unlimited
  | Current stacksize for task 115: unlimited
  | Current stacksize for task 116: unlimited
  | Current stacksize for task 117: unlimited
  | Current stacksize for task 118: unlimited
  | Current stacksize for task 119: unlimited
  | Current stacksize for task 120: unlimited
  | Current stacksize for task 121: unlimited
  | Current stacksize for task 122: unlimited
  | Current stacksize for task 123: unlimited
  | Current stacksize for task 124: unlimited
  | Current stacksize for task 125: unlimited
  | Current stacksize for task 126: unlimited
  | Current stacksize for task 127: unlimited
  | Current stacksize for task 128: unlimited
  | Current stacksize for task 129: unlimited
  | Current stacksize for task 130: unlimited
  | Current stacksize for task 131: unlimited
  | Current stacksize for task 132: unlimited
  | Current stacksize for task 133: unlimited
  | Current stacksize for task 134: unlimited
  | Current stacksize for task 135: unlimited
  | Current stacksize for task 136: unlimited
  | Current stacksize for task 137: unlimited
  | Current stacksize for task 138: unlimited
  | Current stacksize for task 139: unlimited
  | Current stacksize for task 140: unlimited
  | Current stacksize for task 141: unlimited
  | Current stacksize for task 142: unlimited
  | Current stacksize for task 143: unlimited
  | Current stacksize for task 144: unlimited
  | Current stacksize for task 145: unlimited
  | Current stacksize for task 146: unlimited
  | Current stacksize for task 147: unlimited
  | Current stacksize for task 148: unlimited
  | Current stacksize for task 149: unlimited
  | Current stacksize for task 150: unlimited
  | Current stacksize for task 151: unlimited
  | Current stacksize for task 152: unlimited
  | Current stacksize for task 153: unlimited
  | Current stacksize for task 154: unlimited
  | Current stacksize for task 155: unlimited
  | Current stacksize for task 156: unlimited
  | Current stacksize for task 157: unlimited
  | Current stacksize for task 158: unlimited
  | Current stacksize for task 159: unlimited
  | Current stacksize for task 160: unlimited
  | Current stacksize for task 161: unlimited
  | Current stacksize for task 162: unlimited
  | Current stacksize for task 163: unlimited
  | Current stacksize for task 164: unlimited
  | Current stacksize for task 165: unlimited
  | Current stacksize for task 166: unlimited
  | Current stacksize for task 167: unlimited
  | Current stacksize for task 168: unlimited
  | Current stacksize for task 169: unlimited
  | Current stacksize for task 170: unlimited
  | Current stacksize for task 171: unlimited
  | Current stacksize for task 172: unlimited
  | Current stacksize for task 173: unlimited
  | Current stacksize for task 174: unlimited
  | Current stacksize for task 175: unlimited
  | Current stacksize for task 176: unlimited
  | Current stacksize for task 177: unlimited
  | Current stacksize for task 178: unlimited
  | Current stacksize for task 179: unlimited
  | Current stacksize for task 180: unlimited
  | Current stacksize for task 181: unlimited
  | Current stacksize for task 182: unlimited
  | Current stacksize for task 183: unlimited
  | Current stacksize for task 184: unlimited
  | Current stacksize for task 185: unlimited
  | Current stacksize for task 186: unlimited
  | Current stacksize for task 187: unlimited
  | Current stacksize for task 188: unlimited
  | Current stacksize for task 189: unlimited
  | Current stacksize for task 190: unlimited
  | Current stacksize for task 191: unlimited
  | Current stacksize for task 192: unlimited
  | Current stacksize for task 193: unlimited
  | Current stacksize for task 194: unlimited
  | Current stacksize for task 195: unlimited
  | Current stacksize for task 196: unlimited
  | Current stacksize for task 197: unlimited
  | Current stacksize for task 198: unlimited
  | Current stacksize for task 199: unlimited
  | Current stacksize for task 200: unlimited
  | Current stacksize for task 201: unlimited
  | Current stacksize for task 202: unlimited
  | Current stacksize for task 203: unlimited
  | Current stacksize for task 204: unlimited
  | Current stacksize for task 205: unlimited
  | Current stacksize for task 206: unlimited
  | Current stacksize for task 207: unlimited
  | Current stacksize for task 208: unlimited
  | Current stacksize for task 209: unlimited
  | Current stacksize for task 210: unlimited
  | Current stacksize for task 211: unlimited
  | Current stacksize for task 212: unlimited
  | Current stacksize for task 213: unlimited
  | Current stacksize for task 214: unlimited
  | Current stacksize for task 215: unlimited
  | Current stacksize for task 216: unlimited
  | Current stacksize for task 217: unlimited
  | Current stacksize for task 218: unlimited
  | Current stacksize for task 219: unlimited
  | Current stacksize for task 220: unlimited
  | Current stacksize for task 221: unlimited
  | Current stacksize for task 222: unlimited
  | Current stacksize for task 223: unlimited
  | Current stacksize for task 224: unlimited
  | Current stacksize for task 225: unlimited
  | Current stacksize for task 226: unlimited
  | Current stacksize for task 227: unlimited
  | Current stacksize for task 228: unlimited
  | Current stacksize for task 229: unlimited
  | Current stacksize for task 230: unlimited
  | Current stacksize for task 231: unlimited
  | Current stacksize for task 232: unlimited
  | Current stacksize for task 233: unlimited
  | Current stacksize for task 234: unlimited
  | Current stacksize for task 235: unlimited
  | Current stacksize for task 236: unlimited
  | Current stacksize for task 237: unlimited
  | Current stacksize for task 238: unlimited
  | Current stacksize for task 239: unlimited
  | Current stacksize for task 240: unlimited
  | Current stacksize for task 241: unlimited
  | Current stacksize for task 242: unlimited
  | Current stacksize for task 243: unlimited
  | Current stacksize for task 244: unlimited
  | Current stacksize for task 245: unlimited
  | Current stacksize for task 246: unlimited
  | Current stacksize for task 247: unlimited
  | Current stacksize for task 248: unlimited
  | Current stacksize for task 249: unlimited
  | Current stacksize for task 250: unlimited
  | Current stacksize for task 251: unlimited
  | Current stacksize for task 252: unlimited
  | Current stacksize for task 253: unlimited
  | Current stacksize for task 254: unlimited
  | Current stacksize for task 255: unlimited
  | Current stacksize for task 256: unlimited
  | Current stacksize for task 257: unlimited
  | Current stacksize for task 258: unlimited
  | Current stacksize for task 259: unlimited
  | Current stacksize for task 260: unlimited
  | Current stacksize for task 261: unlimited
  | Current stacksize for task 262: unlimited
  | Current stacksize for task 263: unlimited
  | Current stacksize for task 264: unlimited
  | Current stacksize for task 265: unlimited
  | Current stacksize for task 266: unlimited
  | Current stacksize for task 267: unlimited
  | Current stacksize for task 268: unlimited
  | Current stacksize for task 269: unlimited
  | Current stacksize for task 270: unlimited
  | Current stacksize for task 271: unlimited
  | Current stacksize for task 272: unlimited
  | Current stacksize for task 273: unlimited
  | Current stacksize for task 274: unlimited
  | Current stacksize for task 275: unlimited
  | Current stacksize for task 276: unlimited
  | Current stacksize for task 277: unlimited
  | Current stacksize for task 278: unlimited
  | Current stacksize for task 279: unlimited
  | Current stacksize for task 280: unlimited
  | Current stacksize for task 281: unlimited
  | Current stacksize for task 282: unlimited
  | Current stacksize for task 283: unlimited
  | Current stacksize for task 284: unlimited
  | Current stacksize for task 285: unlimited
  | Current stacksize for task 286: unlimited
  | Current stacksize for task 287: unlimited
  | Current stacksize for task 288: unlimited
  | Current stacksize for task 289: unlimited
  | Current stacksize for task 290: unlimited
  | Current stacksize for task 291: unlimited
  | Current stacksize for task 292: unlimited
  | Current stacksize for task 293: unlimited
  | Current stacksize for task 294: unlimited
  | Current stacksize for task 295: unlimited
  | Current stacksize for task 296: unlimited
  | Current stacksize for task 297: unlimited
  | Current stacksize for task 298: unlimited
  | Current stacksize for task 299: unlimited
  | Current stacksize for task 300: unlimited
  | Current stacksize for task 301: unlimited
  | Current stacksize for task 302: unlimited
  | Current stacksize for task 303: unlimited
  | Current stacksize for task 304: unlimited
  | Current stacksize for task 305: unlimited
  | Current stacksize for task 306: unlimited
  | Current stacksize for task 307: unlimited
  | Current stacksize for task 308: unlimited
  | Current stacksize for task 309: unlimited
  | Current stacksize for task 310: unlimited
  | Current stacksize for task 311: unlimited
  | Current stacksize for task 312: unlimited
  | Current stacksize for task 313: unlimited
  | Current stacksize for task 314: unlimited
  | Current stacksize for task 315: unlimited
  | Current stacksize for task 316: unlimited
  | Current stacksize for task 317: unlimited
  | Current stacksize for task 318: unlimited
  | Current stacksize for task 319: unlimited
  | Current stacksize for task 320: unlimited
  | Current stacksize for task 321: unlimited
  | Current stacksize for task 322: unlimited
  | Current stacksize for task 323: unlimited
  | Current stacksize for task 324: unlimited
  | Current stacksize for task 325: unlimited
  | Current stacksize for task 326: unlimited
  | Current stacksize for task 327: unlimited
  | Current stacksize for task 328: unlimited
  | Current stacksize for task 329: unlimited
  | Current stacksize for task 330: unlimited
  | Current stacksize for task 331: unlimited
  | Current stacksize for task 332: unlimited
  | Current stacksize for task 333: unlimited
  | Current stacksize for task 334: unlimited
  | Current stacksize for task 335: unlimited
  | Current stacksize for task 336: unlimited
  | Current stacksize for task 337: unlimited
  | Current stacksize for task 338: unlimited
  | Current stacksize for task 339: unlimited
  | Current stacksize for task 340: unlimited
  | Current stacksize for task 341: unlimited
  | Current stacksize for task 342: unlimited
  | Current stacksize for task 343: unlimited
  | Current stacksize for task 344: unlimited
  | Current stacksize for task 345: unlimited
  | Current stacksize for task 346: unlimited
  | Current stacksize for task 347: unlimited
  | Current stacksize for task 348: unlimited
  | Current stacksize for task 349: unlimited
  | Current stacksize for task 350: unlimited
  | Current stacksize for task 351: unlimited
  | Current stacksize for task 352: unlimited
  | Current stacksize for task 353: unlimited
  | Current stacksize for task 354: unlimited
  | Current stacksize for task 355: unlimited
  | Current stacksize for task 356: unlimited
  | Current stacksize for task 357: unlimited
  | Current stacksize for task 358: unlimited
  | Current stacksize for task 359: unlimited
  | Current stacksize for task 360: unlimited
  | Current stacksize for task 361: unlimited
  | Current stacksize for task 362: unlimited
  | Current stacksize for task 363: unlimited
  | Current stacksize for task 364: unlimited
  | Current stacksize for task 365: unlimited
  | Current stacksize for task 366: unlimited
  | Current stacksize for task 367: unlimited
  | Current stacksize for task 368: unlimited
  | Current stacksize for task 369: unlimited
  | Current stacksize for task 370: unlimited
  | Current stacksize for task 371: unlimited
  | Current stacksize for task 372: unlimited
  | Current stacksize for task 373: unlimited
  | Current stacksize for task 374: unlimited
  | Current stacksize for task 375: unlimited
  | Current stacksize for task 376: unlimited
  | Current stacksize for task 377: unlimited
  | Current stacksize for task 378: unlimited
  | Current stacksize for task 379: unlimited
  | Current stacksize for task 380: unlimited
  | Current stacksize for task 381: unlimited
  | Current stacksize for task 382: unlimited
  | Current stacksize for task 383: unlimited
  | Current stacksize for task 384: unlimited
  | Current stacksize for task 385: unlimited
  | Current stacksize for task 386: unlimited
  | Current stacksize for task 387: unlimited
  | Current stacksize for task 388: unlimited
  | Current stacksize for task 389: unlimited
  | Current stacksize for task 390: unlimited
  | Current stacksize for task 391: unlimited
  | Current stacksize for task 392: unlimited
  | Current stacksize for task 393: unlimited
  | Current stacksize for task 394: unlimited
  | Current stacksize for task 395: unlimited
  | Current stacksize for task 396: unlimited
  | Current stacksize for task 397: unlimited
  | Current stacksize for task 398: unlimited
  | Current stacksize for task 399: unlimited
  | Current stacksize for task 400: unlimited
  | Current stacksize for task 401: unlimited
  | Current stacksize for task 402: unlimited
  | Current stacksize for task 403: unlimited
  | Current stacksize for task 404: unlimited
  | Current stacksize for task 405: unlimited
  | Current stacksize for task 406: unlimited
  | Current stacksize for task 407: unlimited
  | Current stacksize for task 408: unlimited
  | Current stacksize for task 409: unlimited
  | Current stacksize for task 410: unlimited
  | Current stacksize for task 411: unlimited
  | Current stacksize for task 412: unlimited
  | Current stacksize for task 413: unlimited
  | Current stacksize for task 414: unlimited
  | Current stacksize for task 415: unlimited
  | Current stacksize for task 416: unlimited
  | Current stacksize for task 417: unlimited
  | Current stacksize for task 418: unlimited
  | Current stacksize for task 419: unlimited
  | Current stacksize for task 420: unlimited
  | Current stacksize for task 421: unlimited
  | Current stacksize for task 422: unlimited
  | Current stacksize for task 423: unlimited
  | Current stacksize for task 424: unlimited
  | Current stacksize for task 425: unlimited
  | Current stacksize for task 426: unlimited
  | Current stacksize for task 427: unlimited
  | Current stacksize for task 428: unlimited
  | Current stacksize for task 429: unlimited
  | Current stacksize for task 430: unlimited
  | Current stacksize for task 431: unlimited
  | Current stacksize for task 432: unlimited
  | Current stacksize for task 433: unlimited
  | Current stacksize for task 434: unlimited
  | Current stacksize for task 435: unlimited
  | Current stacksize for task 436: unlimited
  | Current stacksize for task 437: unlimited
  | Current stacksize for task 438: unlimited
  | Current stacksize for task 439: unlimited
  | Current stacksize for task 440: unlimited
  | Current stacksize for task 441: unlimited
  | Current stacksize for task 442: unlimited
  | Current stacksize for task 443: unlimited
  | Current stacksize for task 444: unlimited
  | Current stacksize for task 445: unlimited
  | Current stacksize for task 446: unlimited
  | Current stacksize for task 447: unlimited
  | Current stacksize for task 448: unlimited
  | Current stacksize for task 449: unlimited
  | Current stacksize for task 450: unlimited
  | Current stacksize for task 451: unlimited
  | Current stacksize for task 452: unlimited
  | Current stacksize for task 453: unlimited
  | Current stacksize for task 454: unlimited
  | Current stacksize for task 455: unlimited
  | Current stacksize for task 456: unlimited
  | Current stacksize for task 457: unlimited
  | Current stacksize for task 458: unlimited
  | Current stacksize for task 459: unlimited
  | Current stacksize for task 460: unlimited
  | Current stacksize for task 461: unlimited
  | Current stacksize for task 462: unlimited
  | Current stacksize for task 463: unlimited
  | Current stacksize for task 464: unlimited
  | Current stacksize for task 465: unlimited
  | Current stacksize for task 466: unlimited
  | Current stacksize for task 467: unlimited
  | Current stacksize for task 468: unlimited
  | Current stacksize for task 469: unlimited
  | Current stacksize for task 470: unlimited
  | Current stacksize for task 471: unlimited
  | Current stacksize for task 472: unlimited
  | Current stacksize for task 473: unlimited
  | Current stacksize for task 474: unlimited
  | Current stacksize for task 475: unlimited
  | Current stacksize for task 476: unlimited
  | Current stacksize for task 477: unlimited
  | Current stacksize for task 478: unlimited
  | Current stacksize for task 479: unlimited
  | Current stacksize for task 480: unlimited
  | Current stacksize for task 481: unlimited
  | Current stacksize for task 482: unlimited
  | Current stacksize for task 483: unlimited
  | Current stacksize for task 484: unlimited
  | Current stacksize for task 485: unlimited
  | Current stacksize for task 486: unlimited
  | Current stacksize for task 487: unlimited
  | Current stacksize for task 488: unlimited
  | Current stacksize for task 489: unlimited
  | Current stacksize for task 490: unlimited
  | Current stacksize for task 491: unlimited
  | Current stacksize for task 492: unlimited
  | Current stacksize for task 493: unlimited
  | Current stacksize for task 494: unlimited
  | Current stacksize for task 495: unlimited
  | Current stacksize for task 496: unlimited
  | Current stacksize for task 497: unlimited
  | Current stacksize for task 498: unlimited
  | Current stacksize for task 499: unlimited
  | Current stacksize for task 500: unlimited
  | Current stacksize for task 501: unlimited
  | Current stacksize for task 502: unlimited
  | Current stacksize for task 503: unlimited
  | Current stacksize for task 504: unlimited
  | Current stacksize for task 505: unlimited
  | Current stacksize for task 506: unlimited
  | Current stacksize for task 507: unlimited
  | Current stacksize for task 508: unlimited
  | Current stacksize for task 509: unlimited
  | Current stacksize for task 510: unlimited
  | Current stacksize for task 511: unlimited
 
  Consistency checks for the contents of control.in are next.
 
  MPI_IN_PLACE appears to work with this MPI implementation.
  | Keeping use_mpi_in_place .true. (see manual).
  Target number of points in a grid batch is not set. Defaulting to  100
  Method for grid partitioning is not set. Defaulting to parallel hash+maxmin partitioning.
  Batch size limit is not set. Defaulting to    200
  By default, will store active basis functions for each batch.
  If in need of memory, prune_basis_once .false. can be used to disable this option.
  communication_type for Hartree potential was not specified.
  Defaulting to calc_hartree .
  Defaulting to Pulay charge density mixer.
  Pulay mixer: Number of relevant iterations not set.
  Defaulting to    8 iterations.
  Pulay mixer: Number of initial linear mixing iterations not set.
  Defaulting to    0 iterations.
  Work space size for distributed Hartree potential not set.
  Defaulting to   0.200000E+03 MB.
  Mixing parameter for charge density mixing has not been set.
  Using default: charge_mix_param =     0.0500.
  The mixing parameter will be adjusted in iteration number     2 of each s.c.f. cycle (i.e., each geometry step).
  Algorithm-dependent basis array size parameters:
  | n_max_pulay                         :        8
  Maximum number of self-consistency iterations not provided.
  Presetting  1000 iterations.
  Presetting      1001 iterations before the initial mixing cycle
  is restarted anyway using the sc_init_iter criterion / keyword.
  Presetting a factor      1.000 between actual scf density residual
  and density convergence criterion sc_accuracy_rho below which sc_init_iter
  takes no effect.
  Calculation of forces was not defined in control.in. No forces will be calculated.
  Geometry relaxation not requested: no relaxation will be performed.
  No accuracy limit for integral partition fn. given. Defaulting to  0.1000E-14.
  No threshold value for u(r) in integrations given. Defaulting to  0.1000E-05.
  No occupation type (smearing scheme) given. Defaulting to Gaussian broadening, width =  0.1000E-01 eV.
  The width will be adjusted in iteration number     2 of each s.c.f. cycle (i.e., each geometry step).
  No accuracy for occupation numbers given. Defaulting to  0.1000E-12.
  No threshold value for occupation numbers given. Defaulting to  0.0000E+00.
  No accuracy for fermi level given. Defaulting to  0.1000E-19.
  Maximum # of iterations to find E_F not set. Defaulting to  200.
  Threshold for basis singularities not set.
  Default threshold for basis singularities:  0.1000E-04
  partition_type (choice of integration weights) for integrals was not specified.
  | Using a version of the partition function of Stratmann and coworkers ('stratmann_sparse').
  | At each grid point, the set of atoms used to build the partition table is smoothly restricted to
  | only those atoms whose free-atom density would be non-zero at that grid point.
  Partitioning for Hartree potential was not defined. Using partition_type for integrals.
  | Adjusted default value of keyword multip_moments_threshold to:       0.10000000E-11
  | This value may affect high angular momentum components of the Hartree potential in periodic systems.
  Using 2025 definition of centers list for evaluation of the Stratmann partition function.
  No q(lm)/r^(l+1) cutoff set for long-range Hartree potential.
  | Using default value of  0.100000E-09 .
  | Verify using the multipole_threshold keyword.
  Defaulting to new monopole extrapolation.
  Density update method: automatic selection selected.
  Using density matrix based charge density update.
  Using density matrix based charge density update.
  Using packed matrix style: index .
  Threshold of packed matrixes:  0.000000E+00
  Defaulting to use time-reversal symmetry for k-point grid.
  Charge integration errors on the 3D integration grid will be compensated
  by explicit normalization and distribution of residual charges.
  Use the "compensate_multipole_errors" flag to change this behaviour.
  Set 'collect_eigenvectors' to be '.true.' for all serial calculations. This is mandatory.
  Set 'collect_eigenvectors' to be '.true.' for KS_method lapack_fast and serial.
  Found potential conflicts with setting 'use_local_index' for this calculation. Will not set it.
 
  Consistency checks for the contents of geometry.in are next.
 

  Range separation radius for Ewald summation (hartree_convergence_parameter):      2.90111125 bohr.
  Number of empty states per atom not set in control.in - providing a guess from actual geometry.
  | Total number of empty states used during s.c.f. cycle:      384
  If you use a very high smearing, use empty_states (per atom!) in control.in to increase this value.

  Structure-dependent array size parameters: 
  | Maximum number of distinct radial functions  :       13
  | Maximum number of basis functions            :     1856
  | Number of Kohn-Sham states (occupied + empty):     1024
------------------------------------------------------------

  Checking k-grid inconsistencies now:
  | k-point density for reciprocal lattice vector 1 is    6.21 nkpts / Angstrom^-1
  | k-point density for reciprocal lattice vector 2 is    6.21 nkpts / Angstrom^-1
  | k-point density for reciprocal lattice vector 3 is    6.21 nkpts / Angstrom^-1

  | Ratio of k-point densities for reciprocal lattice vectors 1 vs 2 is    1.00
  | Ratio of k-point densities for reciprocal lattice vectors 1 vs 3 is    1.00
  | Ratio of k-point densities for reciprocal lattice vectors 2 vs 3 is    1.00

  * The specified k_grid leads to a nearly homogenous k-grid density in non-vacuum directions,
  * and seems sensible.

  | Checks passed.
  After read_input_data [GB]:    493.52

  Performing system and environment tests:
  | Environment variable OMP_NUM_THREADS correctly set to 1.
  | Checking for ScaLAPACK...
  | Testing pdtran()...
  | All pdtran() tests passed.
  | Testing CPU compatibility for run-time vs. build-time.
  | Reading /proc/cpuinfo for CPU information ...
  | Built for  : AMD EPYC 9554 64-Core Processor
  | Running on : AMD EPYC 9554 64-Core Processor
  | Runtime CPU compatibility verified.
  
  After prepare_system [GB]:    493.42

------------------------------------------------------------
          Preparing all fixed parts of the calculation.
------------------------------------------------------------
  Determining machine precision:
    2.225073858507201E-308
  Setting up grids for atomic and cluster calculations.

  Creating wave function, potential, and density for free atoms.
  Runtime choices for atomic solver:
  | atomic solver xc        : PW-LDA
  | compute density gradient: 0
  | compute kinetic density : F

  Species: Mg

  List of occupied orbitals and eigenvalues:
    n    l              occ      energy [Ha]    energy [eV]
    1    0           2.0000       -46.129861     -1255.2574
    2    0           2.0000        -2.907634       -79.1207
    3    0           2.0000        -0.170951        -4.6518
    2    1           6.0000        -1.710478       -46.5445


  Species: O

  List of occupied orbitals and eigenvalues:
    n    l              occ      energy [Ha]    energy [eV]
    1    0           2.0000       -18.786109      -511.1960
    2    0           2.0000        -0.872635       -23.7456
    2    1           4.0000        -0.337687        -9.1889


  Adding cutoff potential to free-atom effective potential.
  Creating fixed part of basis set: Ionic, confined, hydrogenic.
 
  Mg                   ion:
  Runtime choices for ionic solver:
  | ionic solver xc        : PW-LDA

  List of free ionic orbitals and eigenvalues:
    n    l      energy [Ha]    energy [eV]
    1    0       -46.892989     -1276.0232
    2    0        -3.655333       -99.4667
    2    1        -2.456328       -66.8401


  List of ionic basis orbitals and eigenvalues:
    n    l      energy [Ha]    energy [eV]    outer radius [A]
    3    2        -0.247637        -6.7386       5.100062

 
  Mg                   hydrogenic:
 
  List of hydrogenic basis orbitals: 
    n    l      effective z      eigenvalue [eV]  inner max. [A]     outer max. [A]     outer radius [A]   
    2    1         1.500000        -7.5955           1.395712           1.395712           5.100062
    3    0         2.400000        -8.0111           0.162319           2.734035           5.100062
 
 
  O                    hydrogenic:
 
  List of hydrogenic basis orbitals: 
    n    l      effective z      eigenvalue [eV]  inner max. [A]     outer max. [A]     outer radius [A]   
    2    1         1.800000       -10.9749           1.164242           1.164242           4.578029
    3    2         7.600000       -87.3180           0.624125           0.624125           3.251020
    3    0         6.400000       -61.9207           0.061167           1.081902           4.001998
 
  Creating atomic-like basis functions for current effective potential.

  Species Mg                  :

  List of atomic basis orbitals and eigenvalues:
    n    l      energy [Ha]    energy [eV]    outer radius [A]
    1    0       -46.129861     -1255.2574       0.932375
    2    0        -2.907634       -79.1207       3.621735
    3    0        -0.170951        -4.6518       5.100062
    2    1        -1.710478       -46.5445       4.404175


  Species O                   :

  List of atomic basis orbitals and eigenvalues:
    n    l      energy [Ha]    energy [eV]    outer radius [A]
    1    0       -18.786109      -511.1960       1.433179
    2    0        -0.872635       -23.7456       4.413171
    2    1        -0.337687        -9.1889       4.522403

  Assembling full basis from fixed parts.
  | Species Mg :   atomic orbital   1 s accepted.
  | Species Mg :   atomic orbital   2 s accepted.
  | Species Mg :   atomic orbital   3 s accepted.
  | Species Mg :    hydro orbital   3 s accepted.
  | Species Mg :   atomic orbital   2 p accepted.
  | Species Mg :    hydro orbital   2 p accepted.
  | Species Mg :    ionic orbital   3 d accepted.
  | Species O :   atomic orbital   1 s accepted.
  | Species O :    hydro orbital   3 s accepted.
  | Species O :   atomic orbital   2 s accepted.
  | Species O :   atomic orbital   2 p accepted.
  | Species O :    hydro orbital   2 p accepted.
  | Species O :    hydro orbital   3 d accepted.
 
  Basis size parameters after reduction:
  | Total number of radial functions:       13
  | Total number of basis functions :     1856
 
  Per-task memory consumption for arrays in subroutine allocate_ext:
  |           4.485152MB.
  Testing on-site integration grid accuracy.
  |  Species  Function  <phi|h_atom|phi> (log., in eV)  <phi|h_atom|phi> (rad., in eV)
           1        1              -1255.2573828358              -1255.2567939601
           1        2                -79.1207430359                -79.1207405119
           1        3                 -4.6571725871                 -4.6569780729
           1        4                  4.1187689111                  4.1137116114
           1        5                -46.5444712533                -46.5444712057
           1        6                 -0.6243571790                 -0.6243097782
           1        7                  3.8072935088                  3.8058082227
           2        8               -511.1960429777               -511.1959399133
           2        9                 14.8973166466                 14.8974402823
           2       10                -21.2682165807                -21.2682317485
           2       11                 -9.1890598667                 -9.1892026751
           2       12                  8.1915160719                  8.1720639763
           2       13                 45.8005976646                 45.8005620229

  Preparing densities etc. for the partition functions (integrals / Hartree potential).

  Preparations completed.
  max(cpu_time)          :      0.117 s.
  Wall clock time (cpu1) :      0.216 s.
------------------------------------------------------------
  After prepare_scf [GB]:    488.82

  Initializing index lists of integration centers etc. from given atomic structure:
  Mapping all atomic coordinates to central unit cell.

  Initializing the k-points
  Using symmetry for reducing the k-points
  | k-points reduced from:       64 to       36
  | Number of k-points                             :        36
  The eigenvectors in the calculations are COMPLEX.
  | K-points in task   0:         0
  | K-points in task   1:         1
  | K-points in task   2:         1
  | K-points in task   3:         1
  | K-points in task   4:         1
  | K-points in task   5:         1
  | K-points in task   6:         1
  | K-points in task   7:         1
  | K-points in task   8:         1
  | K-points in task   9:         1
  | K-points in task  10:         1
  | K-points in task  11:         1
  | K-points in task  12:         1
  | K-points in task  13:         1
  | K-points in task  14:         1
  | K-points in task  15:         1
  | K-points in task  16:         1
  | K-points in task  17:         1
  | K-points in task  18:         1
  | K-points in task  19:         1
  | K-points in task  20:         1
  | K-points in task  21:         1
  | K-points in task  22:         1
  | K-points in task  23:         1
  | K-points in task  24:         1
  | K-points in task  25:         1
  | K-points in task  26:         1
  | K-points in task  27:         1
  | K-points in task  28:         1
  | K-points in task  29:         1
  | K-points in task  30:         1
  | K-points in task  31:         1
  | K-points in task  32:         1
  | K-points in task  33:         1
  | K-points in task  34:         1
  | K-points in task  35:         1
  | K-points in task  36:         1
  | K-points in task  37:         0
  | K-points in task  38:         0
  | K-points in task  39:         0
  | K-points in task  40:         0
  | K-points in task  41:         0
  | K-points in task  42:         0
  | K-points in task  43:         0
  | K-points in task  44:         0
  | K-points in task  45:         0
  | K-points in task  46:         0
  | K-points in task  47:         0
  | K-points in task  48:         0
  | K-points in task  49:         0
  | K-points in task  50:         0
  | K-points in task  51:         0
  | K-points in task  52:         0
  | K-points in task  53:         0
  | K-points in task  54:         0
  | K-points in task  55:         0
  | K-points in task  56:         0
  | K-points in task  57:         0
  | K-points in task  58:         0
  | K-points in task  59:         0
  | K-points in task  60:         0
  | K-points in task  61:         0
  | K-points in task  62:         0
  | K-points in task  63:         0
  | K-points in task  64:         0
  | K-points in task  65:         0
  | K-points in task  66:         0
  | K-points in task  67:         0
  | K-points in task  68:         0
  | K-points in task  69:         0
  | K-points in task  70:         0
  | K-points in task  71:         0
  | K-points in task  72:         0
  | K-points in task  73:         0
  | K-points in task  74:         0
  | K-points in task  75:         0
  | K-points in task  76:         0
  | K-points in task  77:         0
  | K-points in task  78:         0
  | K-points in task  79:         0
  | K-points in task  80:         0
  | K-points in task  81:         0
  | K-points in task  82:         0
  | K-points in task  83:         0
  | K-points in task  84:         0
  | K-points in task  85:         0
  | K-points in task  86:         0
  | K-points in task  87:         0
  | K-points in task  88:         0
  | K-points in task  89:         0
  | K-points in task  90:         0
  | K-points in task  91:         0
  | K-points in task  92:         0
  | K-points in task  93:         0
  | K-points in task  94:         0
  | K-points in task  95:         0
  | K-points in task  96:         0
  | K-points in task  97:         0
  | K-points in task  98:         0
  | K-points in task  99:         0
  | K-points in task 100:         0
  | K-points in task 101:         0
  | K-points in task 102:         0
  | K-points in task 103:         0
  | K-points in task 104:         0
  | K-points in task 105:         0
  | K-points in task 106:         0
  | K-points in task 107:         0
  | K-points in task 108:         0
  | K-points in task 109:         0
  | K-points in task 110:         0
  | K-points in task 111:         0
  | K-points in task 112:         0
  | K-points in task 113:         0
  | K-points in task 114:         0
  | K-points in task 115:         0
  | K-points in task 116:         0
  | K-points in task 117:         0
  | K-points in task 118:         0
  | K-points in task 119:         0
  | K-points in task 120:         0
  | K-points in task 121:         0
  | K-points in task 122:         0
  | K-points in task 123:         0
  | K-points in task 124:         0
  | K-points in task 125:         0
  | K-points in task 126:         0
  | K-points in task 127:         0
  | K-points in task 128:         0
  | K-points in task 129:         0
  | K-points in task 130:         0
  | K-points in task 131:         0
  | K-points in task 132:         0
  | K-points in task 133:         0
  | K-points in task 134:         0
  | K-points in task 135:         0
  | K-points in task 136:         0
  | K-points in task 137:         0
  | K-points in task 138:         0
  | K-points in task 139:         0
  | K-points in task 140:         0
  | K-points in task 141:         0
  | K-points in task 142:         0
  | K-points in task 143:         0
  | K-points in task 144:         0
  | K-points in task 145:         0
  | K-points in task 146:         0
  | K-points in task 147:         0
  | K-points in task 148:         0
  | K-points in task 149:         0
  | K-points in task 150:         0
  | K-points in task 151:         0
  | K-points in task 152:         0
  | K-points in task 153:         0
  | K-points in task 154:         0
  | K-points in task 155:         0
  | K-points in task 156:         0
  | K-points in task 157:         0
  | K-points in task 158:         0
  | K-points in task 159:         0
  | K-points in task 160:         0
  | K-points in task 161:         0
  | K-points in task 162:         0
  | K-points in task 163:         0
  | K-points in task 164:         0
  | K-points in task 165:         0
  | K-points in task 166:         0
  | K-points in task 167:         0
  | K-points in task 168:         0
  | K-points in task 169:         0
  | K-points in task 170:         0
  | K-points in task 171:         0
  | K-points in task 172:         0
  | K-points in task 173:         0
  | K-points in task 174:         0
  | K-points in task 175:         0
  | K-points in task 176:         0
  | K-points in task 177:         0
  | K-points in task 178:         0
  | K-points in task 179:         0
  | K-points in task 180:         0
  | K-points in task 181:         0
  | K-points in task 182:         0
  | K-points in task 183:         0
  | K-points in task 184:         0
  | K-points in task 185:         0
  | K-points in task 186:         0
  | K-points in task 187:         0
  | K-points in task 188:         0
  | K-points in task 189:         0
  | K-points in task 190:         0
  | K-points in task 191:         0
  | K-points in task 192:         0
  | K-points in task 193:         0
  | K-points in task 194:         0
  | K-points in task 195:         0
  | K-points in task 196:         0
  | K-points in task 197:         0
  | K-points in task 198:         0
  | K-points in task 199:         0
  | K-points in task 200:         0
  | K-points in task 201:         0
  | K-points in task 202:         0
  | K-points in task 203:         0
  | K-points in task 204:         0
  | K-points in task 205:         0
  | K-points in task 206:         0
  | K-points in task 207:         0
  | K-points in task 208:         0
  | K-points in task 209:         0
  | K-points in task 210:         0
  | K-points in task 211:         0
  | K-points in task 212:         0
  | K-points in task 213:         0
  | K-points in task 214:         0
  | K-points in task 215:         0
  | K-points in task 216:         0
  | K-points in task 217:         0
  | K-points in task 218:         0
  | K-points in task 219:         0
  | K-points in task 220:         0
  | K-points in task 221:         0
  | K-points in task 222:         0
  | K-points in task 223:         0
  | K-points in task 224:         0
  | K-points in task 225:         0
  | K-points in task 226:         0
  | K-points in task 227:         0
  | K-points in task 228:         0
  | K-points in task 229:         0
  | K-points in task 230:         0
  | K-points in task 231:         0
  | K-points in task 232:         0
  | K-points in task 233:         0
  | K-points in task 234:         0
  | K-points in task 235:         0
  | K-points in task 236:         0
  | K-points in task 237:         0
  | K-points in task 238:         0
  | K-points in task 239:         0
  | K-points in task 240:         0
  | K-points in task 241:         0
  | K-points in task 242:         0
  | K-points in task 243:         0
  | K-points in task 244:         0
  | K-points in task 245:         0
  | K-points in task 246:         0
  | K-points in task 247:         0
  | K-points in task 248:         0
  | K-points in task 249:         0
  | K-points in task 250:         0
  | K-points in task 251:         0
  | K-points in task 252:         0
  | K-points in task 253:         0
  | K-points in task 254:         0
  | K-points in task 255:         0
  | K-points in task 256:         0
  | K-points in task 257:         0
  | K-points in task 258:         0
  | K-points in task 259:         0
  | K-points in task 260:         0
  | K-points in task 261:         0
  | K-points in task 262:         0
  | K-points in task 263:         0
  | K-points in task 264:         0
  | K-points in task 265:         0
  | K-points in task 266:         0
  | K-points in task 267:         0
  | K-points in task 268:         0
  | K-points in task 269:         0
  | K-points in task 270:         0
  | K-points in task 271:         0
  | K-points in task 272:         0
  | K-points in task 273:         0
  | K-points in task 274:         0
  | K-points in task 275:         0
  | K-points in task 276:         0
  | K-points in task 277:         0
  | K-points in task 278:         0
  | K-points in task 279:         0
  | K-points in task 280:         0
  | K-points in task 281:         0
  | K-points in task 282:         0
  | K-points in task 283:         0
  | K-points in task 284:         0
  | K-points in task 285:         0
  | K-points in task 286:         0
  | K-points in task 287:         0
  | K-points in task 288:         0
  | K-points in task 289:         0
  | K-points in task 290:         0
  | K-points in task 291:         0
  | K-points in task 292:         0
  | K-points in task 293:         0
  | K-points in task 294:         0
  | K-points in task 295:         0
  | K-points in task 296:         0
  | K-points in task 297:         0
  | K-points in task 298:         0
  | K-points in task 299:         0
  | K-points in task 300:         0
  | K-points in task 301:         0
  | K-points in task 302:         0
  | K-points in task 303:         0
  | K-points in task 304:         0
  | K-points in task 305:         0
  | K-points in task 306:         0
  | K-points in task 307:         0
  | K-points in task 308:         0
  | K-points in task 309:         0
  | K-points in task 310:         0
  | K-points in task 311:         0
  | K-points in task 312:         0
  | K-points in task 313:         0
  | K-points in task 314:         0
  | K-points in task 315:         0
  | K-points in task 316:         0
  | K-points in task 317:         0
  | K-points in task 318:         0
  | K-points in task 319:         0
  | K-points in task 320:         0
  | K-points in task 321:         0
  | K-points in task 322:         0
  | K-points in task 323:         0
  | K-points in task 324:         0
  | K-points in task 325:         0
  | K-points in task 326:         0
  | K-points in task 327:         0
  | K-points in task 328:         0
  | K-points in task 329:         0
  | K-points in task 330:         0
  | K-points in task 331:         0
  | K-points in task 332:         0
  | K-points in task 333:         0
  | K-points in task 334:         0
  | K-points in task 335:         0
  | K-points in task 336:         0
  | K-points in task 337:         0
  | K-points in task 338:         0
  | K-points in task 339:         0
  | K-points in task 340:         0
  | K-points in task 341:         0
  | K-points in task 342:         0
  | K-points in task 343:         0
  | K-points in task 344:         0
  | K-points in task 345:         0
  | K-points in task 346:         0
  | K-points in task 347:         0
  | K-points in task 348:         0
  | K-points in task 349:         0
  | K-points in task 350:         0
  | K-points in task 351:         0
  | K-points in task 352:         0
  | K-points in task 353:         0
  | K-points in task 354:         0
  | K-points in task 355:         0
  | K-points in task 356:         0
  | K-points in task 357:         0
  | K-points in task 358:         0
  | K-points in task 359:         0
  | K-points in task 360:         0
  | K-points in task 361:         0
  | K-points in task 362:         0
  | K-points in task 363:         0
  | K-points in task 364:         0
  | K-points in task 365:         0
  | K-points in task 366:         0
  | K-points in task 367:         0
  | K-points in task 368:         0
  | K-points in task 369:         0
  | K-points in task 370:         0
  | K-points in task 371:         0
  | K-points in task 372:         0
  | K-points in task 373:         0
  | K-points in task 374:         0
  | K-points in task 375:         0
  | K-points in task 376:         0
  | K-points in task 377:         0
  | K-points in task 378:         0
  | K-points in task 379:         0
  | K-points in task 380:         0
  | K-points in task 381:         0
  | K-points in task 382:         0
  | K-points in task 383:         0
  | K-points in task 384:         0
  | K-points in task 385:         0
  | K-points in task 386:         0
  | K-points in task 387:         0
  | K-points in task 388:         0
  | K-points in task 389:         0
  | K-points in task 390:         0
  | K-points in task 391:         0
  | K-points in task 392:         0
  | K-points in task 393:         0
  | K-points in task 394:         0
  | K-points in task 395:         0
  | K-points in task 396:         0
  | K-points in task 397:         0
  | K-points in task 398:         0
  | K-points in task 399:         0
  | K-points in task 400:         0
  | K-points in task 401:         0
  | K-points in task 402:         0
  | K-points in task 403:         0
  | K-points in task 404:         0
  | K-points in task 405:         0
  | K-points in task 406:         0
  | K-points in task 407:         0
  | K-points in task 408:         0
  | K-points in task 409:         0
  | K-points in task 410:         0
  | K-points in task 411:         0
  | K-points in task 412:         0
  | K-points in task 413:         0
  | K-points in task 414:         0
  | K-points in task 415:         0
  | K-points in task 416:         0
  | K-points in task 417:         0
  | K-points in task 418:         0
  | K-points in task 419:         0
  | K-points in task 420:         0
  | K-points in task 421:         0
  | K-points in task 422:         0
  | K-points in task 423:         0
  | K-points in task 424:         0
  | K-points in task 425:         0
  | K-points in task 426:         0
  | K-points in task 427:         0
  | K-points in task 428:         0
  | K-points in task 429:         0
  | K-points in task 430:         0
  | K-points in task 431:         0
  | K-points in task 432:         0
  | K-points in task 433:         0
  | K-points in task 434:         0
  | K-points in task 435:         0
  | K-points in task 436:         0
  | K-points in task 437:         0
  | K-points in task 438:         0
  | K-points in task 439:         0
  | K-points in task 440:         0
  | K-points in task 441:         0
  | K-points in task 442:         0
  | K-points in task 443:         0
  | K-points in task 444:         0
  | K-points in task 445:         0
  | K-points in task 446:         0
  | K-points in task 447:         0
  | K-points in task 448:         0
  | K-points in task 449:         0
  | K-points in task 450:         0
  | K-points in task 451:         0
  | K-points in task 452:         0
  | K-points in task 453:         0
  | K-points in task 454:         0
  | K-points in task 455:         0
  | K-points in task 456:         0
  | K-points in task 457:         0
  | K-points in task 458:         0
  | K-points in task 459:         0
  | K-points in task 460:         0
  | K-points in task 461:         0
  | K-points in task 462:         0
  | K-points in task 463:         0
  | K-points in task 464:         0
  | K-points in task 465:         0
  | K-points in task 466:         0
  | K-points in task 467:         0
  | K-points in task 468:         0
  | K-points in task 469:         0
  | K-points in task 470:         0
  | K-points in task 471:         0
  | K-points in task 472:         0
  | K-points in task 473:         0
  | K-points in task 474:         0
  | K-points in task 475:         0
  | K-points in task 476:         0
  | K-points in task 477:         0
  | K-points in task 478:         0
  | K-points in task 479:         0
  | K-points in task 480:         0
  | K-points in task 481:         0
  | K-points in task 482:         0
  | K-points in task 483:         0
  | K-points in task 484:         0
  | K-points in task 485:         0
  | K-points in task 486:         0
  | K-points in task 487:         0
  | K-points in task 488:         0
  | K-points in task 489:         0
  | K-points in task 490:         0
  | K-points in task 491:         0
  | K-points in task 492:         0
  | K-points in task 493:         0
  | K-points in task 494:         0
  | K-points in task 495:         0
  | K-points in task 496:         0
  | K-points in task 497:         0
  | K-points in task 498:         0
  | K-points in task 499:         0
  | K-points in task 500:         0
  | K-points in task 501:         0
  | K-points in task 502:         0
  | K-points in task 503:         0
  | K-points in task 504:         0
  | K-points in task 505:         0
  | K-points in task 506:         0
  | K-points in task 507:         0
  | K-points in task 508:         0
  | K-points in task 509:         0
  | K-points in task 510:         0
  | K-points in task 511:         0
  | Number of basis functions in the Hamiltonian integrals       :     11823
  | Number of basis functions in a single unit cell              :      1856
  | Number of centers in hartree potential                       :      3240
  | Number of centers in hartree multipole                       :      2672
  | Number of centers in electron density summation              :      2027
  | Number of centers in basis integrals                         :      2133
  | Number of centers in integrals                               :      1013
  | Number of centers in hamiltonian                             :      2228
  | Number of centers in partition table from touching 0-cell    :      1013
  | Number of centers in partition table total                   :      2133
  | Consuming         15 KiB for k_phase.
  | Number of super-cells (origin) [n_cells]                     :         125
  | Number of super-cells (after PM_index) [n_cells]             :          28
  | Number of super-cells in hamiltonian [n_cells_in_hamiltonian]:          28
  | Size of matrix packed + index [n_hamiltonian_matrix_size]    :     4400385
  After initialize_bc_dependent_lists [GB]:    487.91

------------------------------------------------------------
          Begin self-consistency loop: Initialization.

          Date     :  20260819, Time     :  150404.988
------------------------------------------------------------
  Available memory per node after initialize_hartree_non_periodic_ewald [GB]:    487.91
  | Estimated reciprocal-space cutoff momentum G_max:         3.26283811 bohr^-1 .
  | Reciprocal lattice points for long-range Hartree potential:    4692
  Available memory per node after initialize_recip_hartree_potential [GB]:    487.91
  Available memory per node after initialize_scalapack [GB]:    487.91
  Available memory per node after aims_elsi_init_scf [GB]:    487.91
  Available memory per node after initialize_fixed_grids [GB]:    487.93
  Partitioning the integration grid into batches with parallel hashing+maxmin method.
  | Number of batches:    11546
  | Maximal batch size:     114
  | Minimal batch size:      49
  | Average batch size:      66.162
  | Standard deviation of batch sizes:      11.526

  Integration load balanced across   512 MPI tasks.
  Work distribution over tasks is as follows:
  Task     0 has       1487 integration points.
  Task     1 has       1516 integration points.
  Task     2 has       1515 integration points.
  Task     3 has       1523 integration points.
  Task     4 has       1492 integration points.
  Task     5 has       1530 integration points.
  Task     6 has       1462 integration points.
  Task     7 has       1450 integration points.
  Task     8 has       1515 integration points.
  Task     9 has       1530 integration points.
  Task    10 has       1508 integration points.
  Task    11 has       1523 integration points.
  Task    12 has       1448 integration points.
  Task    13 has       1524 integration points.
  Task    14 has       1522 integration points.
  Task    15 has       1453 integration points.
  Task    16 has       1507 integration points.
  Task    17 has       1492 integration points.
  Task    18 has       1509 integration points.
  Task    19 has       1521 integration points.
  Task    20 has       1512 integration points.
  Task    21 has       1524 integration points.
  Task    22 has       1451 integration points.
  Task    23 has       1512 integration points.
  Task    24 has       1464 integration points.
  Task    25 has       1528 integration points.
  Task    26 has       1515 integration points.
  Task    27 has       1522 integration points.
  Task    28 has       1532 integration points.
  Task    29 has       1512 integration points.
  Task    30 has       1465 integration points.
  Task    31 has       1521 integration points.
  Task    32 has       1446 integration points.
  Task    33 has       1535 integration points.
  Task    34 has       1447 integration points.
  Task    35 has       1459 integration points.
  Task    36 has       1514 integration points.
  Task    37 has       1474 integration points.
  Task    38 has       1516 integration points.
  Task    39 has       1487 integration points.
  Task    40 has       1522 integration points.
  Task    41 has       1526 integration points.
  Task    42 has       1513 integration points.
  Task    43 has       1448 integration points.
  Task    44 has       1515 integration points.
  Task    45 has       1515 integration points.
  Task    46 has       1458 integration points.
  Task    47 has       1522 integration points.
  Task    48 has       1445 integration points.
  Task    49 has       1505 integration points.
  Task    50 has       1479 integration points.
  Task    51 has       1534 integration points.
  Task    52 has       1525 integration points.
  Task    53 has       1524 integration points.
  Task    54 has       1514 integration points.
  Task    55 has       1527 integration points.
  Task    56 has       1513 integration points.
  Task    57 has       1519 integration points.
  Task    58 has       1455 integration points.
  Task    59 has       1524 integration points.
  Task    60 has       1525 integration points.
  Task    61 has       1455 integration points.
  Task    62 has       1520 integration points.
  Task    63 has       1463 integration points.
  Task    64 has       1450 integration points.
  Task    65 has       1531 integration points.
  Task    66 has       1517 integration points.
  Task    67 has       1490 integration points.
  Task    68 has       1527 integration points.
  Task    69 has       1472 integration points.
  Task    70 has       1501 integration points.
  Task    71 has       1445 integration points.
  Task    72 has       1528 integration points.
  Task    73 has       1513 integration points.
  Task    74 has       1527 integration points.
  Task    75 has       1515 integration points.
  Task    76 has       1514 integration points.
  Task    77 has       1452 integration points.
  Task    78 has       1467 integration points.
  Task    79 has       1522 integration points.
  Task    80 has       1537 integration points.
  Task    81 has       1508 integration points.
  Task    82 has       1470 integration points.
  Task    83 has       1530 integration points.
  Task    84 has       1515 integration points.
  Task    85 has       1469 integration points.
  Task    86 has       1466 integration points.
  Task    87 has       1451 integration points.
  Task    88 has       1529 integration points.
  Task    89 has       1529 integration points.
  Task    90 has       1493 integration points.
  Task    91 has       1531 integration points.
  Task    92 has       1518 integration points.
  Task    93 has       1523 integration points.
  Task    94 has       1520 integration points.
  Task    95 has       1482 integration points.
  Task    96 has       1489 integration points.
  Task    97 has       1496 integration points.
  Task    98 has       1514 integration points.
  Task    99 has       1498 integration points.
  Task   100 has       1529 integration points.
  Task   101 has       1521 integration points.
  Task   102 has       1510 integration points.
  Task   103 has       1462 integration points.
  Task   104 has       1527 integration points.
  Task   105 has       1513 integration points.
  Task   106 has       1512 integration points.
  Task   107 has       1528 integration points.
  Task   108 has       1449 integration points.
  Task   109 has       1450 integration points.
  Task   110 has       1509 integration points.
  Task   111 has       1446 integration points.
  Task   112 has       1526 integration points.
  Task   113 has       1533 integration points.
  Task   114 has       1488 integration points.
  Task   115 has       1460 integration points.
  Task   116 has       1517 integration points.
  Task   117 has       1506 integration points.
  Task   118 has       1521 integration points.
  Task   119 has       1498 integration points.
  Task   120 has       1450 integration points.
  Task   121 has       1490 integration points.
  Task   122 has       1449 integration points.
  Task   123 has       1461 integration points.
  Task   124 has       1511 integration points.
  Task   125 has       1447 integration points.
  Task   126 has       1490 integration points.
  Task   127 has       1523 integration points.
  Task   128 has       1473 integration points.
  Task   129 has       1466 integration points.
  Task   130 has       1530 integration points.
  Task   131 has       1447 integration points.
  Task   132 has       1452 integration points.
  Task   133 has       1502 integration points.
  Task   134 has       1468 integration points.
  Task   135 has       1500 integration points.
  Task   136 has       1525 integration points.
  Task   137 has       1514 integration points.
  Task   138 has       1533 integration points.
  Task   139 has       1531 integration points.
  Task   140 has       1453 integration points.
  Task   141 has       1516 integration points.
  Task   142 has       1455 integration points.
  Task   143 has       1455 integration points.
  Task   144 has       1446 integration points.
  Task   145 has       1466 integration points.
  Task   146 has       1446 integration points.
  Task   147 has       1517 integration points.
  Task   148 has       1524 integration points.
  Task   149 has       1528 integration points.
  Task   150 has       1511 integration points.
  Task   151 has       1526 integration points.
  Task   152 has       1499 integration points.
  Task   153 has       1529 integration points.
  Task   154 has       1531 integration points.
  Task   155 has       1511 integration points.
  Task   156 has       1523 integration points.
  Task   157 has       1514 integration points.
  Task   158 has       1523 integration points.
  Task   159 has       1512 integration points.
  Task   160 has       1468 integration points.
  Task   161 has       1486 integration points.
  Task   162 has       1514 integration points.
  Task   163 has       1508 integration points.
  Task   164 has       1525 integration points.
  Task   165 has       1469 integration points.
  Task   166 has       1513 integration points.
  Task   167 has       1514 integration points.
  Task   168 has       1526 integration points.
  Task   169 has       1520 integration points.
  Task   170 has       1454 integration points.
  Task   171 has       1457 integration points.
  Task   172 has       1453 integration points.
  Task   173 has       1512 integration points.
  Task   174 has       1453 integration points.
  Task   175 has       1521 integration points.
  Task   176 has       1488 integration points.
  Task   177 has       1532 integration points.
  Task   178 has       1455 integration points.
  Task   179 has       1448 integration points.
  Task   180 has       1512 integration points.
  Task   181 has       1460 integration points.
  Task   182 has       1528 integration points.
  Task   183 has       1469 integration points.
  Task   184 has       1489 integration points.
  Task   185 has       1447 integration points.
  Task   186 has       1510 integration points.
  Task   187 has       1528 integration points.
  Task   188 has       1529 integration points.
  Task   189 has       1527 integration points.
  Task   190 has       1513 integration points.
  Task   191 has       1470 integration points.
  Task   192 has       1446 integration points.
  Task   193 has       1491 integration points.
  Task   194 has       1448 integration points.
  Task   195 has       1452 integration points.
  Task   196 has       1450 integration points.
  Task   197 has       1454 integration points.
  Task   198 has       1523 integration points.
  Task   199 has       1488 integration points.
  Task   200 has       1523 integration points.
  Task   201 has       1534 integration points.
  Task   202 has       1470 integration points.
  Task   203 has       1526 integration points.
  Task   204 has       1529 integration points.
  Task   205 has       1485 integration points.
  Task   206 has       1520 integration points.
  Task   207 has       1462 integration points.
  Task   208 has       1465 integration points.
  Task   209 has       1449 integration points.
  Task   210 has       1533 integration points.
  Task   211 has       1534 integration points.
  Task   212 has       1554 integration points.
  Task   213 has       1526 integration points.
  Task   214 has       1522 integration points.
  Task   215 has       1526 integration points.
  Task   216 has       1469 integration points.
  Task   217 has       1522 integration points.
  Task   218 has       1497 integration points.
  Task   219 has       1512 integration points.
  Task   220 has       1488 integration points.
  Task   221 has       1455 integration points.
  Task   222 has       1522 integration points.
  Task   223 has       1511 integration points.
  Task   224 has       1509 integration points.
  Task   225 has       1526 integration points.
  Task   226 has       1529 integration points.
  Task   227 has       1522 integration points.
  Task   228 has       1515 integration points.
  Task   229 has       1512 integration points.
  Task   230 has       1524 integration points.
  Task   231 has       1535 integration points.
  Task   232 has       1528 integration points.
  Task   233 has       1472 integration points.
  Task   234 has       1528 integration points.
  Task   235 has       1451 integration points.
  Task   236 has       1446 integration points.
  Task   237 has       1446 integration points.
  Task   238 has       1516 integration points.
  Task   239 has       1514 integration points.
  Task   240 has       1456 integration points.
  Task   241 has       1454 integration points.
  Task   242 has       1461 integration points.
  Task   243 has       1488 integration points.
  Task   244 has       1454 integration points.
  Task   245 has       1502 integration points.
  Task   246 has       1471 integration points.
  Task   247 has       1445 integration points.
  Task   248 has       1490 integration points.
  Task   249 has       1531 integration points.
  Task   250 has       1513 integration points.
  Task   251 has       1452 integration points.
  Task   252 has       1528 integration points.
  Task   253 has       1515 integration points.
  Task   254 has       1457 integration points.
  Task   255 has       1449 integration points.
  Task   256 has       1521 integration points.
  Task   257 has       1449 integration points.
  Task   258 has       1517 integration points.
  Task   259 has       1504 integration points.
  Task   260 has       1456 integration points.
  Task   261 has       1456 integration points.
  Task   262 has       1450 integration points.
  Task   263 has       1444 integration points.
  Task   264 has       1472 integration points.
  Task   265 has       1529 integration points.
  Task   266 has       1517 integration points.
  Task   267 has       1444 integration points.
  Task   268 has       1455 integration points.
  Task   269 has       1531 integration points.
  Task   270 has       1525 integration points.
  Task   271 has       1531 integration points.
  Task   272 has       1444 integration points.
  Task   273 has       1452 integration points.
  Task   274 has       1452 integration points.
  Task   275 has       1503 integration points.
  Task   276 has       1524 integration points.
  Task   277 has       1446 integration points.
  Task   278 has       1463 integration points.
  Task   279 has       1455 integration points.
  Task   280 has       1513 integration points.
  Task   281 has       1525 integration points.
  Task   282 has       1524 integration points.
  Task   283 has       1528 integration points.
  Task   284 has       1467 integration points.
  Task   285 has       1515 integration points.
  Task   286 has       1513 integration points.
  Task   287 has       1486 integration points.
  Task   288 has       1533 integration points.
  Task   289 has       1463 integration points.
  Task   290 has       1524 integration points.
  Task   291 has       1510 integration points.
  Task   292 has       1528 integration points.
  Task   293 has       1451 integration points.
  Task   294 has       1451 integration points.
  Task   295 has       1448 integration points.
  Task   296 has       1521 integration points.
  Task   297 has       1461 integration points.
  Task   298 has       1505 integration points.
  Task   299 has       1530 integration points.
  Task   300 has       1526 integration points.
  Task   301 has       1448 integration points.
  Task   302 has       1534 integration points.
  Task   303 has       1514 integration points.
  Task   304 has       1473 integration points.
  Task   305 has       1446 integration points.
  Task   306 has       1524 integration points.
  Task   307 has       1448 integration points.
  Task   308 has       1513 integration points.
  Task   309 has       1447 integration points.
  Task   310 has       1457 integration points.
  Task   311 has       1507 integration points.
  Task   312 has       1452 integration points.
  Task   313 has       1456 integration points.
  Task   314 has       1499 integration points.
  Task   315 has       1470 integration points.
  Task   316 has       1520 integration points.
  Task   317 has       1510 integration points.
  Task   318 has       1466 integration points.
  Task   319 has       1456 integration points.
  Task   320 has       1454 integration points.
  Task   321 has       1459 integration points.
  Task   322 has       1526 integration points.
  Task   323 has       1459 integration points.
  Task   324 has       1518 integration points.
  Task   325 has       1451 integration points.
  Task   326 has       1512 integration points.
  Task   327 has       1527 integration points.
  Task   328 has       1511 integration points.
  Task   329 has       1450 integration points.
  Task   330 has       1453 integration points.
  Task   331 has       1450 integration points.
  Task   332 has       1447 integration points.
  Task   333 has       1525 integration points.
  Task   334 has       1514 integration points.
  Task   335 has       1530 integration points.
  Task   336 has       1555 integration points.
  Task   337 has       1465 integration points.
  Task   338 has       1489 integration points.
  Task   339 has       1527 integration points.
  Task   340 has       1512 integration points.
  Task   341 has       1519 integration points.
  Task   342 has       1451 integration points.
  Task   343 has       1515 integration points.
  Task   344 has       1470 integration points.
  Task   345 has       1523 integration points.
  Task   346 has       1469 integration points.
  Task   347 has       1532 integration points.
  Task   348 has       1519 integration points.
  Task   349 has       1511 integration points.
  Task   350 has       1534 integration points.
  Task   351 has       1471 integration points.
  Task   352 has       1447 integration points.
  Task   353 has       1467 integration points.
  Task   354 has       1492 integration points.
  Task   355 has       1490 integration points.
  Task   356 has       1512 integration points.
  Task   357 has       1458 integration points.
  Task   358 has       1469 integration points.
  Task   359 has       1444 integration points.
  Task   360 has       1503 integration points.
  Task   361 has       1453 integration points.
  Task   362 has       1449 integration points.
  Task   363 has       1514 integration points.
  Task   364 has       1502 integration points.
  Task   365 has       1489 integration points.
  Task   366 has       1456 integration points.
  Task   367 has       1527 integration points.
  Task   368 has       1447 integration points.
  Task   369 has       1453 integration points.
  Task   370 has       1510 integration points.
  Task   371 has       1454 integration points.
  Task   372 has       1447 integration points.
  Task   373 has       1455 integration points.
  Task   374 has       1467 integration points.
  Task   375 has       1524 integration points.
  Task   376 has       1452 integration points.
  Task   377 has       1530 integration points.
  Task   378 has       1530 integration points.
  Task   379 has       1445 integration points.
  Task   380 has       1460 integration points.
  Task   381 has       1473 integration points.
  Task   382 has       1444 integration points.
  Task   383 has       1446 integration points.
  Task   384 has       1458 integration points.
  Task   385 has       1445 integration points.
  Task   386 has       1449 integration points.
  Task   387 has       1527 integration points.
  Task   388 has       1511 integration points.
  Task   389 has       1453 integration points.
  Task   390 has       1523 integration points.
  Task   391 has       1453 integration points.
  Task   392 has       1446 integration points.
  Task   393 has       1515 integration points.
  Task   394 has       1528 integration points.
  Task   395 has       1464 integration points.
  Task   396 has       1459 integration points.
  Task   397 has       1488 integration points.
  Task   398 has       1466 integration points.
  Task   399 has       1459 integration points.
  Task   400 has       1458 integration points.
  Task   401 has       1470 integration points.
  Task   402 has       1526 integration points.
  Task   403 has       1467 integration points.
  Task   404 has       1506 integration points.
  Task   405 has       1512 integration points.
  Task   406 has       1525 integration points.
  Task   407 has       1530 integration points.
  Task   408 has       1490 integration points.
  Task   409 has       1455 integration points.
  Task   410 has       1472 integration points.
  Task   411 has       1462 integration points.
  Task   412 has       1518 integration points.
  Task   413 has       1531 integration points.
  Task   414 has       1552 integration points.
  Task   415 has       1472 integration points.
  Task   416 has       1529 integration points.
  Task   417 has       1445 integration points.
  Task   418 has       1489 integration points.
  Task   419 has       1470 integration points.
  Task   420 has       1532 integration points.
  Task   421 has       1533 integration points.
  Task   422 has       1511 integration points.
  Task   423 has       1521 integration points.
  Task   424 has       1444 integration points.
  Task   425 has       1449 integration points.
  Task   426 has       1491 integration points.
  Task   427 has       1528 integration points.
  Task   428 has       1505 integration points.
  Task   429 has       1449 integration points.
  Task   430 has       1469 integration points.
  Task   431 has       1522 integration points.
  Task   432 has       1457 integration points.
  Task   433 has       1456 integration points.
  Task   434 has       1487 integration points.
  Task   435 has       1525 integration points.
  Task   436 has       1528 integration points.
  Task   437 has       1529 integration points.
  Task   438 has       1488 integration points.
  Task   439 has       1531 integration points.
  Task   440 has       1489 integration points.
  Task   441 has       1511 integration points.
  Task   442 has       1519 integration points.
  Task   443 has       1451 integration points.
  Task   444 has       1449 integration points.
  Task   445 has       1451 integration points.
  Task   446 has       1450 integration points.
  Task   447 has       1529 integration points.
  Task   448 has       1456 integration points.
  Task   449 has       1469 integration points.
  Task   450 has       1455 integration points.
  Task   451 has       1531 integration points.
  Task   452 has       1471 integration points.
  Task   453 has       1525 integration points.
  Task   454 has       1444 integration points.
  Task   455 has       1474 integration points.
  Task   456 has       1453 integration points.
  Task   457 has       1447 integration points.
  Task   458 has       1471 integration points.
  Task   459 has       1521 integration points.
  Task   460 has       1526 integration points.
  Task   461 has       1506 integration points.
  Task   462 has       1504 integration points.
  Task   463 has       1521 integration points.
  Task   464 has       1522 integration points.
  Task   465 has       1498 integration points.
  Task   466 has       1445 integration points.
  Task   467 has       1447 integration points.
  Task   468 has       1454 integration points.
  Task   469 has       1488 integration points.
  Task   470 has       1458 integration points.
  Task   471 has       1515 integration points.
  Task   472 has       1535 integration points.
  Task   473 has       1528 integration points.
  Task   474 has       1513 integration points.
  Task   475 has       1532 integration points.
  Task   476 has       1453 integration points.
  Task   477 has       1519 integration points.
  Task   478 has       1448 integration points.
  Task   479 has       1531 integration points.
  Task   480 has       1450 integration points.
  Task   481 has       1444 integration points.
  Task   482 has       1452 integration points.
  Task   483 has       1455 integration points.
  Task   484 has       1526 integration points.
  Task   485 has       1445 integration points.
  Task   486 has       1461 integration points.
  Task   487 has       1514 integration points.
  Task   488 has       1504 integration points.
  Task   489 has       1528 integration points.
  Task   490 has       1466 integration points.
  Task   491 has       1470 integration points.
  Task   492 has       1460 integration points.
  Task   493 has       1448 integration points.
  Task   494 has       1510 integration points.
  Task   495 has       1520 integration points.
  Task   496 has       1461 integration points.
  Task   497 has       1468 integration points.
  Task   498 has       1451 integration points.
  Task   499 has       1533 integration points.
  Task   500 has       1453 integration points.
  Task   501 has       1523 integration points.
  Task   502 has       1457 integration points.
  Task   503 has       1529 integration points.
  Task   504 has       1446 integration points.
  Task   505 has       1513 integration points.
  Task   506 has       1451 integration points.
  Task   507 has       1457 integration points.
  Task   508 has       1512 integration points.
  Task   509 has       1534 integration points.
  Task   510 has       1524 integration points.
  Task   511 has       1470 integration points.
  Available memory per node after partition_grid [GB]:    487.98
  Initializing partition tables, free-atom densities, potentials, etc. across the integration grid (initialize_grid_storage).
  | initialize_grid_storage: Actual outermost partition radius vs. multipole_radius_free
  | (-- VB: in principle, multipole_radius_free should be larger, hence this output)
  | Species        1: Confinement radius =              5.500000000000000 AA, multipole_radius_free =              5.555717568450569 AA.
  | Species        1: outer_partition_radius set to              5.555717568450569 AA .
  | Species        2: Confinement radius =              4.999999999999999 AA, multipole_radius_free =              5.048384829883283 AA.
  | Species        2: outer_partition_radius set to              5.048384829883283 AA .
  | The sparse table of interatomic distances needs       9845.54 kbyte instead of     36397.51 kbyte of memory.
  | Net number of integration points:   763904
  | of which are non-zero points    :   593664
  | Numerical average free-atom electrostatic potential    :    -17.35307346 eV
  Available memory per node after initialize_grid_storage_p1 [GB]:    487.98
  Renormalizing the initial density to the exact electron count on the 3D integration grid.
  | Initial density: Formal number of electrons (from input files) :    1280.0000000000
  | Integrated number of electrons on 3D grid     :    1279.9655961913
  | Charge integration error                      :      -0.0344038087
  | Normalization factor for density and gradient :       1.0000268787
  Renormalizing the free-atom superposition density to the exact electron count on the 3D integration grid.
  | Formal number of electrons (from input files) :    1280.0000000000
  | Integrated number of electrons on 3D grid     :    1279.9655961913
  | Charge integration error                      :      -0.0344038087
  | Normalization factor for density and gradient :       1.0000268787
  Obtaining max. number of non-zero basis functions in each batch (get_n_compute_maxes).
  | Maximal number of non-zero basis functions:      831 in task     0
  | Maximal number of non-zero basis functions:      843 in task     1
  | Maximal number of non-zero basis functions:      802 in task     2
  | Maximal number of non-zero basis functions:      797 in task     3
  | Maximal number of non-zero basis functions:      859 in task     4
  | Maximal number of non-zero basis functions:      809 in task     5
  | Maximal number of non-zero basis functions:      795 in task     6
  | Maximal number of non-zero basis functions:      868 in task     7
  | Maximal number of non-zero basis functions:      853 in task     8
  | Maximal number of non-zero basis functions:      783 in task     9
  | Maximal number of non-zero basis functions:      798 in task    10
  | Maximal number of non-zero basis functions:      851 in task    11
  | Maximal number of non-zero basis functions:      795 in task    12
  | Maximal number of non-zero basis functions:      816 in task    13
  | Maximal number of non-zero basis functions:      876 in task    14
  | Maximal number of non-zero basis functions:      809 in task    15
  | Maximal number of non-zero basis functions:      860 in task    16
  | Maximal number of non-zero basis functions:      800 in task    17
  | Maximal number of non-zero basis functions:      795 in task    18
  | Maximal number of non-zero basis functions:      800 in task    19
  | Maximal number of non-zero basis functions:      798 in task    20
  | Maximal number of non-zero basis functions:      851 in task    21
  | Maximal number of non-zero basis functions:      789 in task    22
  | Maximal number of non-zero basis functions:      805 in task    23
  | Maximal number of non-zero basis functions:      859 in task    24
  | Maximal number of non-zero basis functions:      803 in task    25
  | Maximal number of non-zero basis functions:      827 in task    26
  | Maximal number of non-zero basis functions:      799 in task    27
  | Maximal number of non-zero basis functions:      790 in task    28
  | Maximal number of non-zero basis functions:      804 in task    29
  | Maximal number of non-zero basis functions:      843 in task    30
  | Maximal number of non-zero basis functions:      876 in task    31
  | Maximal number of non-zero basis functions:      817 in task    32
  | Maximal number of non-zero basis functions:      791 in task    33
  | Maximal number of non-zero basis functions:      823 in task    34
  | Maximal number of non-zero basis functions:      793 in task    35
  | Maximal number of non-zero basis functions:      825 in task    36
  | Maximal number of non-zero basis functions:      779 in task    37
  | Maximal number of non-zero basis functions:      824 in task    38
  | Maximal number of non-zero basis functions:      792 in task    39
  | Maximal number of non-zero basis functions:      802 in task    40
  | Maximal number of non-zero basis functions:      803 in task    41
  | Maximal number of non-zero basis functions:      795 in task    42
  | Maximal number of non-zero basis functions:      812 in task    43
  | Maximal number of non-zero basis functions:      794 in task    44
  | Maximal number of non-zero basis functions:      809 in task    45
  | Maximal number of non-zero basis functions:      795 in task    46
  | Maximal number of non-zero basis functions:      860 in task    47
  | Maximal number of non-zero basis functions:      859 in task    48
  | Maximal number of non-zero basis functions:      809 in task    49
  | Maximal number of non-zero basis functions:      785 in task    50
  | Maximal number of non-zero basis functions:      821 in task    51
  | Maximal number of non-zero basis functions:      824 in task    52
  | Maximal number of non-zero basis functions:      848 in task    53
  | Maximal number of non-zero basis functions:      843 in task    54
  | Maximal number of non-zero basis functions:      836 in task    55
  | Maximal number of non-zero basis functions:      843 in task    56
  | Maximal number of non-zero basis functions:      796 in task    57
  | Maximal number of non-zero basis functions:      816 in task    58
  | Maximal number of non-zero basis functions:      823 in task    59
  | Maximal number of non-zero basis functions:      791 in task    60
  | Maximal number of non-zero basis functions:      790 in task    61
  | Maximal number of non-zero basis functions:      804 in task    62
  | Maximal number of non-zero basis functions:      794 in task    63
  | Maximal number of non-zero basis functions:      808 in task    64
  | Maximal number of non-zero basis functions:      810 in task    65
  | Maximal number of non-zero basis functions:      887 in task    66
  | Maximal number of non-zero basis functions:      872 in task    67
  | Maximal number of non-zero basis functions:      798 in task    68
  | Maximal number of non-zero basis functions:      815 in task    69
  | Maximal number of non-zero basis functions:      847 in task    70
  | Maximal number of non-zero basis functions:      799 in task    71
  | Maximal number of non-zero basis functions:      825 in task    72
  | Maximal number of non-zero basis functions:      803 in task    73
  | Maximal number of non-zero basis functions:      868 in task    74
  | Maximal number of non-zero basis functions:      783 in task    75
  | Maximal number of non-zero basis functions:      799 in task    76
  | Maximal number of non-zero basis functions:      792 in task    77
  | Maximal number of non-zero basis functions:      808 in task    78
  | Maximal number of non-zero basis functions:      817 in task    79
  | Maximal number of non-zero basis functions:      876 in task    80
  | Maximal number of non-zero basis functions:      868 in task    81
  | Maximal number of non-zero basis functions:      817 in task    82
  | Maximal number of non-zero basis functions:      827 in task    83
  | Maximal number of non-zero basis functions:      799 in task    84
  | Maximal number of non-zero basis functions:      808 in task    85
  | Maximal number of non-zero basis functions:      817 in task    86
  | Maximal number of non-zero basis functions:      797 in task    87
  | Maximal number of non-zero basis functions:      799 in task    88
  | Maximal number of non-zero basis functions:      825 in task    89
  | Maximal number of non-zero basis functions:      825 in task    90
  | Maximal number of non-zero basis functions:      843 in task    91
  | Maximal number of non-zero basis functions:      791 in task    92
  | Maximal number of non-zero basis functions:      795 in task    93
  | Maximal number of non-zero basis functions:      809 in task    94
  | Maximal number of non-zero basis functions:      794 in task    95
  | Maximal number of non-zero basis functions:      805 in task    96
  | Maximal number of non-zero basis functions:      797 in task    97
  | Maximal number of non-zero basis functions:      817 in task    98
  | Maximal number of non-zero basis functions:      776 in task    99
  | Maximal number of non-zero basis functions:      790 in task   100
  | Maximal number of non-zero basis functions:      822 in task   101
  | Maximal number of non-zero basis functions:      816 in task   102
  | Maximal number of non-zero basis functions:      817 in task   103
  | Maximal number of non-zero basis functions:      827 in task   104
  | Maximal number of non-zero basis functions:      847 in task   105
  | Maximal number of non-zero basis functions:      821 in task   106
  | Maximal number of non-zero basis functions:      801 in task   107
  | Maximal number of non-zero basis functions:      804 in task   108
  | Maximal number of non-zero basis functions:      831 in task   109
  | Maximal number of non-zero basis functions:      805 in task   110
  | Maximal number of non-zero basis functions:      830 in task   111
  | Maximal number of non-zero basis functions:      825 in task   112
  | Maximal number of non-zero basis functions:      803 in task   113
  | Maximal number of non-zero basis functions:      813 in task   114
  | Maximal number of non-zero basis functions:      817 in task   115
  | Maximal number of non-zero basis functions:      786 in task   116
  | Maximal number of non-zero basis functions:      824 in task   117
  | Maximal number of non-zero basis functions:      814 in task   118
  | Maximal number of non-zero basis functions:      811 in task   119
  | Maximal number of non-zero basis functions:      787 in task   120
  | Maximal number of non-zero basis functions:      809 in task   121
  | Maximal number of non-zero basis functions:      815 in task   122
  | Maximal number of non-zero basis functions:      854 in task   123
  | Maximal number of non-zero basis functions:      847 in task   124
  | Maximal number of non-zero basis functions:      795 in task   125
  | Maximal number of non-zero basis functions:      799 in task   126
  | Maximal number of non-zero basis functions:      824 in task   127
  | Maximal number of non-zero basis functions:      811 in task   128
  | Maximal number of non-zero basis functions:      806 in task   129
  | Maximal number of non-zero basis functions:      825 in task   130
  | Maximal number of non-zero basis functions:      792 in task   131
  | Maximal number of non-zero basis functions:      809 in task   132
  | Maximal number of non-zero basis functions:      876 in task   133
  | Maximal number of non-zero basis functions:      817 in task   134
  | Maximal number of non-zero basis functions:      805 in task   135
  | Maximal number of non-zero basis functions:      790 in task   136
  | Maximal number of non-zero basis functions:      843 in task   137
  | Maximal number of non-zero basis functions:      808 in task   138
  | Maximal number of non-zero basis functions:      831 in task   139
  | Maximal number of non-zero basis functions:      824 in task   140
  | Maximal number of non-zero basis functions:      820 in task   141
  | Maximal number of non-zero basis functions:      814 in task   142
  | Maximal number of non-zero basis functions:      802 in task   143
  | Maximal number of non-zero basis functions:      800 in task   144
  | Maximal number of non-zero basis functions:      805 in task   145
  | Maximal number of non-zero basis functions:      846 in task   146
  | Maximal number of non-zero basis functions:      821 in task   147
  | Maximal number of non-zero basis functions:      812 in task   148
  | Maximal number of non-zero basis functions:      817 in task   149
  | Maximal number of non-zero basis functions:      834 in task   150
  | Maximal number of non-zero basis functions:      802 in task   151
  | Maximal number of non-zero basis functions:      797 in task   152
  | Maximal number of non-zero basis functions:      803 in task   153
  | Maximal number of non-zero basis functions:      811 in task   154
  | Maximal number of non-zero basis functions:      805 in task   155
  | Maximal number of non-zero basis functions:      831 in task   156
  | Maximal number of non-zero basis functions:      798 in task   157
  | Maximal number of non-zero basis functions:      814 in task   158
  | Maximal number of non-zero basis functions:      809 in task   159
  | Maximal number of non-zero basis functions:      821 in task   160
  | Maximal number of non-zero basis functions:      805 in task   161
  | Maximal number of non-zero basis functions:      796 in task   162
  | Maximal number of non-zero basis functions:      847 in task   163
  | Maximal number of non-zero basis functions:      816 in task   164
  | Maximal number of non-zero basis functions:      843 in task   165
  | Maximal number of non-zero basis functions:      846 in task   166
  | Maximal number of non-zero basis functions:      829 in task   167
  | Maximal number of non-zero basis functions:      810 in task   168
  | Maximal number of non-zero basis functions:      827 in task   169
  | Maximal number of non-zero basis functions:      843 in task   170
  | Maximal number of non-zero basis functions:      825 in task   171
  | Maximal number of non-zero basis functions:      851 in task   172
  | Maximal number of non-zero basis functions:      798 in task   173
  | Maximal number of non-zero basis functions:      797 in task   174
  | Maximal number of non-zero basis functions:      843 in task   175
  | Maximal number of non-zero basis functions:      784 in task   176
  | Maximal number of non-zero basis functions:      821 in task   177
  | Maximal number of non-zero basis functions:      791 in task   178
  | Maximal number of non-zero basis functions:      811 in task   179
  | Maximal number of non-zero basis functions:      825 in task   180
  | Maximal number of non-zero basis functions:      811 in task   181
  | Maximal number of non-zero basis functions:      843 in task   182
  | Maximal number of non-zero basis functions:      805 in task   183
  | Maximal number of non-zero basis functions:      800 in task   184
  | Maximal number of non-zero basis functions:      806 in task   185
  | Maximal number of non-zero basis functions:      828 in task   186
  | Maximal number of non-zero basis functions:      811 in task   187
  | Maximal number of non-zero basis functions:      797 in task   188
  | Maximal number of non-zero basis functions:      816 in task   189
  | Maximal number of non-zero basis functions:      818 in task   190
  | Maximal number of non-zero basis functions:      821 in task   191
  | Maximal number of non-zero basis functions:      798 in task   192
  | Maximal number of non-zero basis functions:      798 in task   193
  | Maximal number of non-zero basis functions:      814 in task   194
  | Maximal number of non-zero basis functions:      796 in task   195
  | Maximal number of non-zero basis functions:      786 in task   196
  | Maximal number of non-zero basis functions:      797 in task   197
  | Maximal number of non-zero basis functions:      846 in task   198
  | Maximal number of non-zero basis functions:      853 in task   199
  | Maximal number of non-zero basis functions:      824 in task   200
  | Maximal number of non-zero basis functions:      815 in task   201
  | Maximal number of non-zero basis functions:      825 in task   202
  | Maximal number of non-zero basis functions:      793 in task   203
  | Maximal number of non-zero basis functions:      840 in task   204
  | Maximal number of non-zero basis functions:      817 in task   205
  | Maximal number of non-zero basis functions:      854 in task   206
  | Maximal number of non-zero basis functions:      803 in task   207
  | Maximal number of non-zero basis functions:      811 in task   208
  | Maximal number of non-zero basis functions:      799 in task   209
  | Maximal number of non-zero basis functions:      789 in task   210
  | Maximal number of non-zero basis functions:      860 in task   211
  | Maximal number of non-zero basis functions:      860 in task   212
  | Maximal number of non-zero basis functions:      817 in task   213
  | Maximal number of non-zero basis functions:      896 in task   214
  | Maximal number of non-zero basis functions:      810 in task   215
  | Maximal number of non-zero basis functions:      789 in task   216
  | Maximal number of non-zero basis functions:      828 in task   217
  | Maximal number of non-zero basis functions:      815 in task   218
  | Maximal number of non-zero basis functions:      896 in task   219
  | Maximal number of non-zero basis functions:      798 in task   220
  | Maximal number of non-zero basis functions:      792 in task   221
  | Maximal number of non-zero basis functions:      800 in task   222
  | Maximal number of non-zero basis functions:      804 in task   223
  | Maximal number of non-zero basis functions:      800 in task   224
  | Maximal number of non-zero basis functions:      814 in task   225
  | Maximal number of non-zero basis functions:      810 in task   226
  | Maximal number of non-zero basis functions:      828 in task   227
  | Maximal number of non-zero basis functions:      797 in task   228
  | Maximal number of non-zero basis functions:      851 in task   229
  | Maximal number of non-zero basis functions:      876 in task   230
  | Maximal number of non-zero basis functions:      805 in task   231
  | Maximal number of non-zero basis functions:      816 in task   232
  | Maximal number of non-zero basis functions:      825 in task   233
  | Maximal number of non-zero basis functions:      816 in task   234
  | Maximal number of non-zero basis functions:      843 in task   235
  | Maximal number of non-zero basis functions:      769 in task   236
  | Maximal number of non-zero basis functions:      788 in task   237
  | Maximal number of non-zero basis functions:      788 in task   238
  | Maximal number of non-zero basis functions:      798 in task   239
  | Maximal number of non-zero basis functions:      798 in task   240
  | Maximal number of non-zero basis functions:      802 in task   241
  | Maximal number of non-zero basis functions:      851 in task   242
  | Maximal number of non-zero basis functions:      786 in task   243
  | Maximal number of non-zero basis functions:      833 in task   244
  | Maximal number of non-zero basis functions:      790 in task   245
  | Maximal number of non-zero basis functions:      788 in task   246
  | Maximal number of non-zero basis functions:      798 in task   247
  | Maximal number of non-zero basis functions:      807 in task   248
  | Maximal number of non-zero basis functions:      843 in task   249
  | Maximal number of non-zero basis functions:      811 in task   250
  | Maximal number of non-zero basis functions:      781 in task   251
  | Maximal number of non-zero basis functions:      831 in task   252
  | Maximal number of non-zero basis functions:      779 in task   253
  | Maximal number of non-zero basis functions:      805 in task   254
  | Maximal number of non-zero basis functions:      792 in task   255
  | Maximal number of non-zero basis functions:      806 in task   256
  | Maximal number of non-zero basis functions:      809 in task   257
  | Maximal number of non-zero basis functions:      851 in task   258
  | Maximal number of non-zero basis functions:      811 in task   259
  | Maximal number of non-zero basis functions:      812 in task   260
  | Maximal number of non-zero basis functions:      806 in task   261
  | Maximal number of non-zero basis functions:      837 in task   262
  | Maximal number of non-zero basis functions:      809 in task   263
  | Maximal number of non-zero basis functions:      821 in task   264
  | Maximal number of non-zero basis functions:      818 in task   265
  | Maximal number of non-zero basis functions:      812 in task   266
  | Maximal number of non-zero basis functions:      802 in task   267
  | Maximal number of non-zero basis functions:      788 in task   268
  | Maximal number of non-zero basis functions:      843 in task   269
  | Maximal number of non-zero basis functions:      846 in task   270
  | Maximal number of non-zero basis functions:      805 in task   271
  | Maximal number of non-zero basis functions:      822 in task   272
  | Maximal number of non-zero basis functions:      805 in task   273
  | Maximal number of non-zero basis functions:      859 in task   274
  | Maximal number of non-zero basis functions:      859 in task   275
  | Maximal number of non-zero basis functions:      797 in task   276
  | Maximal number of non-zero basis functions:      815 in task   277
  | Maximal number of non-zero basis functions:      798 in task   278
  | Maximal number of non-zero basis functions:      825 in task   279
  | Maximal number of non-zero basis functions:      814 in task   280
  | Maximal number of non-zero basis functions:      794 in task   281
  | Maximal number of non-zero basis functions:      795 in task   282
  | Maximal number of non-zero basis functions:      847 in task   283
  | Maximal number of non-zero basis functions:      887 in task   284
  | Maximal number of non-zero basis functions:      793 in task   285
  | Maximal number of non-zero basis functions:      876 in task   286
  | Maximal number of non-zero basis functions:      814 in task   287
  | Maximal number of non-zero basis functions:      843 in task   288
  | Maximal number of non-zero basis functions:      803 in task   289
  | Maximal number of non-zero basis functions:      794 in task   290
  | Maximal number of non-zero basis functions:      811 in task   291
  | Maximal number of non-zero basis functions:      831 in task   292
  | Maximal number of non-zero basis functions:      843 in task   293
  | Maximal number of non-zero basis functions:      820 in task   294
  | Maximal number of non-zero basis functions:      805 in task   295
  | Maximal number of non-zero basis functions:      808 in task   296
  | Maximal number of non-zero basis functions:      816 in task   297
  | Maximal number of non-zero basis functions:      805 in task   298
  | Maximal number of non-zero basis functions:      816 in task   299
  | Maximal number of non-zero basis functions:      817 in task   300
  | Maximal number of non-zero basis functions:      797 in task   301
  | Maximal number of non-zero basis functions:      825 in task   302
  | Maximal number of non-zero basis functions:      807 in task   303
  | Maximal number of non-zero basis functions:      810 in task   304
  | Maximal number of non-zero basis functions:      805 in task   305
  | Maximal number of non-zero basis functions:      811 in task   306
  | Maximal number of non-zero basis functions:      798 in task   307
  | Maximal number of non-zero basis functions:      814 in task   308
  | Maximal number of non-zero basis functions:      847 in task   309
  | Maximal number of non-zero basis functions:      792 in task   310
  | Maximal number of non-zero basis functions:      782 in task   311
  | Maximal number of non-zero basis functions:      806 in task   312
  | Maximal number of non-zero basis functions:      798 in task   313
  | Maximal number of non-zero basis functions:      793 in task   314
  | Maximal number of non-zero basis functions:      791 in task   315
  | Maximal number of non-zero basis functions:      821 in task   316
  | Maximal number of non-zero basis functions:      827 in task   317
  | Maximal number of non-zero basis functions:      817 in task   318
  | Maximal number of non-zero basis functions:      801 in task   319
  | Maximal number of non-zero basis functions:      828 in task   320
  | Maximal number of non-zero basis functions:      847 in task   321
  | Maximal number of non-zero basis functions:      825 in task   322
  | Maximal number of non-zero basis functions:      818 in task   323
  | Maximal number of non-zero basis functions:      859 in task   324
  | Maximal number of non-zero basis functions:      807 in task   325
  | Maximal number of non-zero basis functions:      815 in task   326
  | Maximal number of non-zero basis functions:      827 in task   327
  | Maximal number of non-zero basis functions:      851 in task   328
  | Maximal number of non-zero basis functions:      824 in task   329
  | Maximal number of non-zero basis functions:      792 in task   330
  | Maximal number of non-zero basis functions:      794 in task   331
  | Maximal number of non-zero basis functions:      809 in task   332
  | Maximal number of non-zero basis functions:      844 in task   333
  | Maximal number of non-zero basis functions:      809 in task   334
  | Maximal number of non-zero basis functions:      794 in task   335
  | Maximal number of non-zero basis functions:      822 in task   336
  | Maximal number of non-zero basis functions:      810 in task   337
  | Maximal number of non-zero basis functions:      796 in task   338
  | Maximal number of non-zero basis functions:      809 in task   339
  | Maximal number of non-zero basis functions:      859 in task   340
  | Maximal number of non-zero basis functions:      782 in task   341
  | Maximal number of non-zero basis functions:      808 in task   342
  | Maximal number of non-zero basis functions:      805 in task   343
  | Maximal number of non-zero basis functions:      791 in task   344
  | Maximal number of non-zero basis functions:      799 in task   345
  | Maximal number of non-zero basis functions:      810 in task   346
  | Maximal number of non-zero basis functions:      831 in task   347
  | Maximal number of non-zero basis functions:      814 in task   348
  | Maximal number of non-zero basis functions:      814 in task   349
  | Maximal number of non-zero basis functions:      825 in task   350
  | Maximal number of non-zero basis functions:      806 in task   351
  | Maximal number of non-zero basis functions:      793 in task   352
  | Maximal number of non-zero basis functions:      848 in task   353
  | Maximal number of non-zero basis functions:      795 in task   354
  | Maximal number of non-zero basis functions:      810 in task   355
  | Maximal number of non-zero basis functions:      813 in task   356
  | Maximal number of non-zero basis functions:      784 in task   357
  | Maximal number of non-zero basis functions:      804 in task   358
  | Maximal number of non-zero basis functions:      798 in task   359
  | Maximal number of non-zero basis functions:      805 in task   360
  | Maximal number of non-zero basis functions:      800 in task   361
  | Maximal number of non-zero basis functions:      799 in task   362
  | Maximal number of non-zero basis functions:      820 in task   363
  | Maximal number of non-zero basis functions:      795 in task   364
  | Maximal number of non-zero basis functions:      834 in task   365
  | Maximal number of non-zero basis functions:      807 in task   366
  | Maximal number of non-zero basis functions:      804 in task   367
  | Maximal number of non-zero basis functions:      811 in task   368
  | Maximal number of non-zero basis functions:      798 in task   369
  | Maximal number of non-zero basis functions:      876 in task   370
  | Maximal number of non-zero basis functions:      798 in task   371
  | Maximal number of non-zero basis functions:      828 in task   372
  | Maximal number of non-zero basis functions:      811 in task   373
  | Maximal number of non-zero basis functions:      796 in task   374
  | Maximal number of non-zero basis functions:      805 in task   375
  | Maximal number of non-zero basis functions:      786 in task   376
  | Maximal number of non-zero basis functions:      816 in task   377
  | Maximal number of non-zero basis functions:      809 in task   378
  | Maximal number of non-zero basis functions:      801 in task   379
  | Maximal number of non-zero basis functions:      816 in task   380
  | Maximal number of non-zero basis functions:      825 in task   381
  | Maximal number of non-zero basis functions:      785 in task   382
  | Maximal number of non-zero basis functions:      804 in task   383
  | Maximal number of non-zero basis functions:      825 in task   384
  | Maximal number of non-zero basis functions:      782 in task   385
  | Maximal number of non-zero basis functions:      794 in task   386
  | Maximal number of non-zero basis functions:      817 in task   387
  | Maximal number of non-zero basis functions:      798 in task   388
  | Maximal number of non-zero basis functions:      796 in task   389
  | Maximal number of non-zero basis functions:      807 in task   390
  | Maximal number of non-zero basis functions:      811 in task   391
  | Maximal number of non-zero basis functions:      846 in task   392
  | Maximal number of non-zero basis functions:      825 in task   393
  | Maximal number of non-zero basis functions:      809 in task   394
  | Maximal number of non-zero basis functions:      859 in task   395
  | Maximal number of non-zero basis functions:      829 in task   396
  | Maximal number of non-zero basis functions:      777 in task   397
  | Maximal number of non-zero basis functions:      815 in task   398
  | Maximal number of non-zero basis functions:      814 in task   399
  | Maximal number of non-zero basis functions:      817 in task   400
  | Maximal number of non-zero basis functions:      783 in task   401
  | Maximal number of non-zero basis functions:      813 in task   402
  | Maximal number of non-zero basis functions:      814 in task   403
  | Maximal number of non-zero basis functions:      799 in task   404
  | Maximal number of non-zero basis functions:      818 in task   405
  | Maximal number of non-zero basis functions:      798 in task   406
  | Maximal number of non-zero basis functions:      808 in task   407
  | Maximal number of non-zero basis functions:      793 in task   408
  | Maximal number of non-zero basis functions:      794 in task   409
  | Maximal number of non-zero basis functions:      822 in task   410
  | Maximal number of non-zero basis functions:      807 in task   411
  | Maximal number of non-zero basis functions:      810 in task   412
  | Maximal number of non-zero basis functions:      783 in task   413
  | Maximal number of non-zero basis functions:      817 in task   414
  | Maximal number of non-zero basis functions:      810 in task   415
  | Maximal number of non-zero basis functions:      788 in task   416
  | Maximal number of non-zero basis functions:      816 in task   417
  | Maximal number of non-zero basis functions:      810 in task   418
  | Maximal number of non-zero basis functions:      847 in task   419
  | Maximal number of non-zero basis functions:      790 in task   420
  | Maximal number of non-zero basis functions:      804 in task   421
  | Maximal number of non-zero basis functions:      814 in task   422
  | Maximal number of non-zero basis functions:      805 in task   423
  | Maximal number of non-zero basis functions:      790 in task   424
  | Maximal number of non-zero basis functions:      814 in task   425
  | Maximal number of non-zero basis functions:      844 in task   426
  | Maximal number of non-zero basis functions:      808 in task   427
  | Maximal number of non-zero basis functions:      799 in task   428
  | Maximal number of non-zero basis functions:      800 in task   429
  | Maximal number of non-zero basis functions:      828 in task   430
  | Maximal number of non-zero basis functions:      843 in task   431
  | Maximal number of non-zero basis functions:      797 in task   432
  | Maximal number of non-zero basis functions:      836 in task   433
  | Maximal number of non-zero basis functions:      781 in task   434
  | Maximal number of non-zero basis functions:      806 in task   435
  | Maximal number of non-zero basis functions:      876 in task   436
  | Maximal number of non-zero basis functions:      817 in task   437
  | Maximal number of non-zero basis functions:      797 in task   438
  | Maximal number of non-zero basis functions:      795 in task   439
  | Maximal number of non-zero basis functions:      779 in task   440
  | Maximal number of non-zero basis functions:      812 in task   441
  | Maximal number of non-zero basis functions:      818 in task   442
  | Maximal number of non-zero basis functions:      794 in task   443
  | Maximal number of non-zero basis functions:      812 in task   444
  | Maximal number of non-zero basis functions:      784 in task   445
  | Maximal number of non-zero basis functions:      810 in task   446
  | Maximal number of non-zero basis functions:      811 in task   447
  | Maximal number of non-zero basis functions:      793 in task   448
  | Maximal number of non-zero basis functions:      804 in task   449
  | Maximal number of non-zero basis functions:      782 in task   450
  | Maximal number of non-zero basis functions:      797 in task   451
  | Maximal number of non-zero basis functions:      789 in task   452
  | Maximal number of non-zero basis functions:      791 in task   453
  | Maximal number of non-zero basis functions:      795 in task   454
  | Maximal number of non-zero basis functions:      781 in task   455
  | Maximal number of non-zero basis functions:      798 in task   456
  | Maximal number of non-zero basis functions:      827 in task   457
  | Maximal number of non-zero basis functions:      831 in task   458
  | Maximal number of non-zero basis functions:      821 in task   459
  | Maximal number of non-zero basis functions:      896 in task   460
  | Maximal number of non-zero basis functions:      778 in task   461
  | Maximal number of non-zero basis functions:      795 in task   462
  | Maximal number of non-zero basis functions:      836 in task   463
  | Maximal number of non-zero basis functions:      818 in task   464
  | Maximal number of non-zero basis functions:      798 in task   465
  | Maximal number of non-zero basis functions:      796 in task   466
  | Maximal number of non-zero basis functions:      798 in task   467
  | Maximal number of non-zero basis functions:      853 in task   468
  | Maximal number of non-zero basis functions:      804 in task   469
  | Maximal number of non-zero basis functions:      798 in task   470
  | Maximal number of non-zero basis functions:      796 in task   471
  | Maximal number of non-zero basis functions:      830 in task   472
  | Maximal number of non-zero basis functions:      799 in task   473
  | Maximal number of non-zero basis functions:      847 in task   474
  | Maximal number of non-zero basis functions:      804 in task   475
  | Maximal number of non-zero basis functions:      830 in task   476
  | Maximal number of non-zero basis functions:      789 in task   477
  | Maximal number of non-zero basis functions:      791 in task   478
  | Maximal number of non-zero basis functions:      808 in task   479
  | Maximal number of non-zero basis functions:      793 in task   480
  | Maximal number of non-zero basis functions:      799 in task   481
  | Maximal number of non-zero basis functions:      859 in task   482
  | Maximal number of non-zero basis functions:      816 in task   483
  | Maximal number of non-zero basis functions:      825 in task   484
  | Maximal number of non-zero basis functions:      798 in task   485
  | Maximal number of non-zero basis functions:      788 in task   486
  | Maximal number of non-zero basis functions:      785 in task   487
  | Maximal number of non-zero basis functions:      794 in task   488
  | Maximal number of non-zero basis functions:      819 in task   489
  | Maximal number of non-zero basis functions:      793 in task   490
  | Maximal number of non-zero basis functions:      815 in task   491
  | Maximal number of non-zero basis functions:      814 in task   492
  | Maximal number of non-zero basis functions:      805 in task   493
  | Maximal number of non-zero basis functions:      822 in task   494
  | Maximal number of non-zero basis functions:      783 in task   495
  | Maximal number of non-zero basis functions:      795 in task   496
  | Maximal number of non-zero basis functions:      794 in task   497
  | Maximal number of non-zero basis functions:      779 in task   498
  | Maximal number of non-zero basis functions:      800 in task   499
  | Maximal number of non-zero basis functions:      798 in task   500
  | Maximal number of non-zero basis functions:      843 in task   501
  | Maximal number of non-zero basis functions:      821 in task   502
  | Maximal number of non-zero basis functions:      812 in task   503
  | Maximal number of non-zero basis functions:      825 in task   504
  | Maximal number of non-zero basis functions:      775 in task   505
  | Maximal number of non-zero basis functions:      798 in task   506
  | Maximal number of non-zero basis functions:      784 in task   507
  | Maximal number of non-zero basis functions:      808 in task   508
  | Maximal number of non-zero basis functions:      872 in task   509
  | Maximal number of non-zero basis functions:      785 in task   510
  | Maximal number of non-zero basis functions:      802 in task   511
  Available memory per node after get_n_compute_maxes_p1 [GB]:    487.83
  Allocating        0.000 MB for KS_eigenvector_complex
  Available memory per node after allocate_matrices [GB]:    487.83
  Available memory per node after init_comm_sparse_local_matrix_scalapack [GB]:    487.83
  Integrating Hamiltonian matrix: batch-based integration.
  Time summed over all CPUs for integration: real work      103.192 s, elapsed      110.784 s
  Available memory per node after integrate hamiltonian matrix [GB]:    478.26
  Integrating overlap matrix.
  Time summed over all CPUs for integration: real work       95.167 s, elapsed      101.773 s
  Available memory per node after integrate ovlp matrix [GB]:    473.95
  Available memory per node after save_overlap_scalapack [GB]:    473.95
  Available memory per node after advance_KS_solution [GB]:    473.95
  Calculating total energy contributions from superposition of free atom densities.
  Initialize hartree_potential_storage
  Max. number of atoms included in rho_multipole:          128

  End scf initialization - timings             :  max(cpu_time)    wall_clock(cpu1)
  | Time for scf. initialization                :        2.589 s           3.304 s
  | Boundary condition initialization           :        0.507 s           0.542 s
  | Integration                                 :        2.032 s           2.077 s
  | Grid partitioning                           :        0.302 s           0.238 s
  | Preloading free-atom quantities on grid     :        0.196 s           0.205 s
  | Free-atom superposition energy              :        0.028 s           0.028 s

  Partial memory accounting:
  | Current value for overall tracked memory usage:
  |   Minimum:       84.053 MB (on task   0)
  |   Maximum:      113.053 MB (on task   1)
  |   Average:       86.092 MB
  | Peak value for overall tracked memory usage:
  |   Minimum:       90.571 MB (on task 236 after allocating wave)
  |   Maximum:      121.193 MB (on task  14 after allocating wave)
  |   Average:       93.272 MB
  | Largest tracked array allocation so far:
  |   Minimum:       33.572 MB (overlap_matrix on task   0)
  |   Maximum:       33.572 MB (overlap_matrix on task   0)
  |   Average:       33.572 MB
  Note:  These values currently only include a subset of arrays which are explicitly tracked.
  The "true" memory usage will be greater.
------------------------------------------------------------
  Available memory after initialize_scf [GB]:    473.86
  Available memory after allocating mixing [GB]:    473.85
  Evaluating new KS density using the density matrix
  Evaluating density matrix
  Finished reading density matrices from file
  | Time :      0.000 s

  Time summed over all CPUs for getting density from density matrix: real work      109.861 s, elapsed      119.524 s
  Integration grid: deviation in total charge (<rho> - N_e) =   1.818989E-12

  Time for density update prior                :  max(cpu_time)    wall_clock(cpu1)
  | self-consistency iterative process          :        1.542 s           1.562 s
  Available memory before start of SCF loop [GB]:    472.40

------------------------------------------------------------
          Initial SCF-cycle to compute last known
          density from restart information.

  Date     :  20260819, Time     :  150409.867
------------------------------------------------------------
  Available memory per node after mixing [GB]:    472.40
  Renormalizing the density to the exact electron count on the 3D integration grid.
  | Formal number of electrons (from input files) :    1280.0000000000
  | Integrated number of electrons on 3D grid     :    1280.0000000000
  | Charge integration error                      :       0.0000000000
  | Normalization factor for density and gradient :       1.0000000000

  Evaluating partitioned Hartree potential by multipole expansion.
  | Original multipole sum: apparent total charge =  -0.326658E-12
  | Sum of charges compensated after spline to logarithmic grids =   0.860593E-04
  | Analytical far-field extrapolation by fixed multipoles:
  | Hartree multipole sum: apparent total charge =  -0.316425E-12
  Summing up the Hartree potential.
  Time summed over all CPUs for potential: real work        0.087 s, elapsed        0.097 s
  | RMS charge density error from multipole expansion :   0.842323E-01
  | Average real-space part of the electrostatic potential :      0.56876372 eV

  Integrating Hamiltonian matrix: batch-based integration.
  Time summed over all CPUs for integration: real work      102.776 s, elapsed      113.358 s

  Updating Kohn-Sham eigenvalues and eigenvectors using ELSI and the (modified) LAPACK eigensolver.

  Obtaining occupation numbers and electronic chemical potential using ELSI.
  | Note that, for insulating systems, the printed 'chemical potential' value is not uniquely defined.
  | It can be anywhere in the energy gap, as long as it correctly separates occupied and unoccupied states.
  | In systems with a gap, the physically relevant chemical potential is the VBM or HOMO.

  | Chemical potential (Fermi level):    -7.60200867 eV
  Writing Kohn-Sham eigenvalues.
  K-point:       1 at    0.000000    0.000000    0.000000 (in units of recip. lattice)

  State    Occupation    Eigenvalue [Ha]    Eigenvalue [eV]
      1       2.00000         -46.208628        -1257.40075
      2       2.00000         -46.208628        -1257.40075
      3       2.00000         -46.208628        -1257.40075
      4       2.00000         -46.208628        -1257.40075
      5       2.00000         -46.208628        -1257.40075
      6       2.00000         -46.208628        -1257.40075
      7       2.00000         -46.208628        -1257.40075
      8       2.00000         -46.208628        -1257.40075
      9       2.00000         -46.208628        -1257.40075
     10       2.00000         -46.208628        -1257.40075
     11       2.00000         -46.208628        -1257.40075
     12       2.00000         -46.208628        -1257.40075
     13       2.00000         -46.208628        -1257.40075
     14       2.00000         -46.208628        -1257.40075
     15       2.00000         -46.208628        -1257.40075
     16       2.00000         -46.208628        -1257.40075
     17       2.00000         -46.208628        -1257.40075
     18       2.00000         -46.208628        -1257.40075
     19       2.00000         -46.208628        -1257.40075
     20       2.00000         -46.208628        -1257.40075
     21       2.00000         -46.208628        -1257.40075
     22       2.00000         -46.208628        -1257.40075
     23       2.00000         -46.208628        -1257.40075
     24       2.00000         -46.208628        -1257.40075
     25       2.00000         -46.208628        -1257.40075
     26       2.00000         -46.208628        -1257.40075
     27       2.00000         -46.208628        -1257.40075
     28       2.00000         -46.208628        -1257.40075
     29       2.00000         -46.208628        -1257.40075
     30       2.00000         -46.208628        -1257.40075
     31       2.00000         -46.208628        -1257.40075
     32       2.00000         -46.208628        -1257.40075
     33       2.00000         -46.208628        -1257.40075
     34       2.00000         -46.208628        -1257.40075
     35       2.00000         -46.208628        -1257.40075
     36       2.00000         -46.208628        -1257.40075
     37       2.00000         -46.208628        -1257.40075
     38       2.00000         -46.208628        -1257.40075
     39       2.00000         -46.208628        -1257.40075
     40       2.00000         -46.208628        -1257.40075
     41       2.00000         -46.208628        -1257.40075
     42       2.00000         -46.208628        -1257.40075
     43       2.00000         -46.208628        -1257.40075
     44       2.00000         -46.208628        -1257.40075
     45       2.00000         -46.208628        -1257.40075
     46       2.00000         -46.208628        -1257.40075
     47       2.00000         -46.208628        -1257.40075
     48       2.00000         -46.208628        -1257.40075
     49       2.00000         -46.208628        -1257.40075
     50       2.00000         -46.208628        -1257.40075
     51       2.00000         -46.208628        -1257.40075
     52       2.00000         -46.208628        -1257.40075
     53       2.00000         -46.208628        -1257.40075
     54       2.00000         -46.208628        -1257.40075
     55       2.00000         -46.208628        -1257.40075
     56       2.00000         -46.208628        -1257.40075
     57       2.00000         -46.208628        -1257.40075
     58       2.00000         -46.208628        -1257.40075
     59       2.00000         -46.208628        -1257.40075
     60       2.00000         -46.208628        -1257.40075
     61       2.00000         -46.208628        -1257.40075
     62       2.00000         -46.208628        -1257.40075
     63       2.00000         -46.208628        -1257.40075
     64       2.00000         -46.208628        -1257.40075
     65       2.00000         -18.727866         -509.61116
     66       2.00000         -18.727866         -509.61116
     67       2.00000         -18.727866         -509.61116
     68       2.00000         -18.727866         -509.61116
     69       2.00000         -18.727866         -509.61116
     70       2.00000         -18.727866         -509.61116
     71       2.00000         -18.727866         -509.61116
     72       2.00000         -18.727866         -509.61116
     73       2.00000         -18.727866         -509.61116
     74       2.00000         -18.727866         -509.61116
     75       2.00000         -18.727866         -509.61116
     76       2.00000         -18.727866         -509.61116
     77       2.00000         -18.727866         -509.61116
     78       2.00000         -18.727866         -509.61116
     79       2.00000         -18.727866         -509.61116
     80       2.00000         -18.727866         -509.61116
     81       2.00000         -18.727866         -509.61116
     82       2.00000         -18.727866         -509.61116
     83       2.00000         -18.727866         -509.61116
     84       2.00000         -18.727866         -509.61116
     85       2.00000         -18.727866         -509.61116
     86       2.00000         -18.727866         -509.61116
     87       2.00000         -18.727866         -509.61116
     88       2.00000         -18.727866         -509.61116
     89       2.00000         -18.727866         -509.61116
     90       2.00000         -18.727866         -509.61116
     91       2.00000         -18.727866         -509.61116
     92       2.00000         -18.727866         -509.61116
     93       2.00000         -18.727866         -509.61116
     94       2.00000         -18.727866         -509.61116
     95       2.00000         -18.727866         -509.61116
     96       2.00000         -18.727866         -509.61116
     97       2.00000         -18.727866         -509.61116
     98       2.00000         -18.727866         -509.61116
     99       2.00000         -18.727866         -509.61116
    100       2.00000         -18.727866         -509.61116
    101       2.00000         -18.727866         -509.61116
    102       2.00000         -18.727866         -509.61116
    103       2.00000         -18.727866         -509.61116
    104       2.00000         -18.727866         -509.61116
    105       2.00000         -18.727866         -509.61116
    106       2.00000         -18.727866         -509.61116
    107       2.00000         -18.727866         -509.61116
    108       2.00000         -18.727866         -509.61116
    109       2.00000         -18.727866         -509.61116
    110       2.00000         -18.727866         -509.61116
    111       2.00000         -18.727866         -509.61116
    112       2.00000         -18.727866         -509.61116
    113       2.00000         -18.727866         -509.61116
    114       2.00000         -18.727866         -509.61116
    115       2.00000         -18.727866         -509.61116
    116       2.00000         -18.727866         -509.61116
    117       2.00000         -18.727866         -509.61116
    118       2.00000         -18.727866         -509.61116
    119       2.00000         -18.727866         -509.61116
    120       2.00000         -18.727866         -509.61116
    121       2.00000         -18.727866         -509.61116
    122       2.00000         -18.727866         -509.61116
    123       2.00000         -18.727866         -509.61116
    124       2.00000         -18.727866         -509.61116
    125       2.00000         -18.727866         -509.61116
    126       2.00000         -18.727866         -509.61116
    127       2.00000         -18.727866         -509.61116
    128       2.00000         -18.727866         -509.61116
    129       2.00000          -2.994303          -81.47913
    130       2.00000          -2.994134          -81.47454
    131       2.00000          -2.994134          -81.47454
    132       2.00000          -2.994134          -81.47454
    133       2.00000          -2.994134          -81.47454
    134       2.00000          -2.994134          -81.47454
    135       2.00000          -2.994134          -81.47454
    136       2.00000          -2.994134          -81.47454
    137       2.00000          -2.994134          -81.47454
    138       2.00000          -2.994079          -81.47303
    139       2.00000          -2.994079          -81.47303
    140       2.00000          -2.994079          -81.47303
    141       2.00000          -2.994079          -81.47303
    142       2.00000          -2.994079          -81.47303
    143       2.00000          -2.994079          -81.47303
    144       2.00000          -2.993966          -81.46996
    145       2.00000          -2.993966          -81.46996
    146       2.00000          -2.993966          -81.46996
    147       2.00000          -2.993966          -81.46996
    148       2.00000          -2.993966          -81.46996
    149       2.00000          -2.993966          -81.46996
    150       2.00000          -2.993966          -81.46996
    151       2.00000          -2.993966          -81.46996
    152       2.00000          -2.993966          -81.46996
    153       2.00000          -2.993966          -81.46996
    154       2.00000          -2.993966          -81.46996
    155       2.00000          -2.993966          -81.46996
    156       2.00000          -2.993965          -81.46993
    157       2.00000          -2.993965          -81.46993
    158       2.00000          -2.993965          -81.46993
    159       2.00000          -2.993965          -81.46993
    160       2.00000          -2.993910          -81.46844
    161       2.00000          -2.993910          -81.46844
    162       2.00000          -2.993910          -81.46844
    163       2.00000          -2.993910          -81.46844
    164       2.00000          -2.993910          -81.46844
    165       2.00000          -2.993910          -81.46844
    166       2.00000          -2.993910          -81.46844
    167       2.00000          -2.993910          -81.46844
    168       2.00000          -2.993910          -81.46844
    169       2.00000          -2.993910          -81.46844
    170       2.00000          -2.993910          -81.46844
    171       2.00000          -2.993910          -81.46844
    172       2.00000          -2.993910          -81.46844
    173       2.00000          -2.993910          -81.46844
    174       2.00000          -2.993910          -81.46844
    175       2.00000          -2.993910          -81.46844
    176       2.00000          -2.993910          -81.46844
    177       2.00000          -2.993910          -81.46844
    178       2.00000          -2.993910          -81.46844
    179       2.00000          -2.993910          -81.46844
    180       2.00000          -2.993910          -81.46844
    181       2.00000          -2.993910          -81.46844
    182       2.00000          -2.993910          -81.46844
    183       2.00000          -2.993910          -81.46844
    184       2.00000          -2.993855          -81.46694
    185       2.00000          -2.993855          -81.46694
    186       2.00000          -2.993855          -81.46694
    187       2.00000          -2.993854          -81.46693
    188       2.00000          -2.993854          -81.46693
    189       2.00000          -2.993854          -81.46693
    190       2.00000          -2.993854          -81.46693
    191       2.00000          -2.993854          -81.46692
    192       2.00000          -2.993854          -81.46692
    193       2.00000          -1.798925          -48.95124
    194       2.00000          -1.798925          -48.95123
    195       2.00000          -1.798924          -48.95121
    196       2.00000          -1.798924          -48.95121
    197       2.00000          -1.798445          -48.93818
    198       2.00000          -1.798445          -48.93817
    199       2.00000          -1.798445          -48.93817
    200       2.00000          -1.798253          -48.93295
    201       2.00000          -1.798253          -48.93295
    202       2.00000          -1.798253          -48.93295
    203       2.00000          -1.798253          -48.93295
    204       2.00000          -1.798253          -48.93295
    205       2.00000          -1.798253          -48.93295
    206       2.00000          -1.798253          -48.93294
    207       2.00000          -1.798253          -48.93294
    208       2.00000          -1.798253          -48.93294
    209       2.00000          -1.798253          -48.93294
    210       2.00000          -1.798253          -48.93294
    211       2.00000          -1.798253          -48.93294
    212       2.00000          -1.798252          -48.93293
    213       2.00000          -1.798252          -48.93293
    214       2.00000          -1.798252          -48.93293
    215       2.00000          -1.798252          -48.93293
    216       2.00000          -1.798252          -48.93292
    217       2.00000          -1.798252          -48.93292
    218       2.00000          -1.798252          -48.93292
    219       2.00000          -1.798252          -48.93292
    220       2.00000          -1.798252          -48.93292
    221       2.00000          -1.798252          -48.93292
    222       2.00000          -1.798252          -48.93292
    223       2.00000          -1.798252          -48.93292
    224       2.00000          -1.797971          -48.92529
    225       2.00000          -1.797971          -48.92529
    226       2.00000          -1.797971          -48.92528
    227       2.00000          -1.797971          -48.92528
    228       2.00000          -1.797971          -48.92528
    229       2.00000          -1.797971          -48.92528
    230       2.00000          -1.797971          -48.92527
    231       2.00000          -1.797971          -48.92527
    232       2.00000          -1.797971          -48.92527
    233       2.00000          -1.797971          -48.92527
    234       2.00000          -1.797970          -48.92524
    235       2.00000          -1.797970          -48.92524
    236       2.00000          -1.797612          -48.91552
    237       2.00000          -1.797612          -48.91552
    238       2.00000          -1.797612          -48.91552
    239       2.00000          -1.797612          -48.91552
    240       2.00000          -1.797612          -48.91552
    241       2.00000          -1.797612          -48.91552
    242       2.00000          -1.797612          -48.91550
    243       2.00000          -1.797612          -48.91550
    244       2.00000          -1.797612          -48.91550
    245       2.00000          -1.797612          -48.91550
    246       2.00000          -1.797611          -48.91549
    247       2.00000          -1.797611          -48.91549
    248       2.00000          -1.797325          -48.90769
    249       2.00000          -1.797325          -48.90769
    250       2.00000          -1.797324          -48.90768
    251       2.00000          -1.797324          -48.90768
    252       2.00000          -1.797323          -48.90766
    253       2.00000          -1.797323          -48.90766
    254       2.00000          -1.797323          -48.90766
    255       2.00000          -1.797323          -48.90766
    256       2.00000          -1.797163          -48.90330
    257       2.00000          -1.797163          -48.90330
    258       2.00000          -1.797163          -48.90328
    259       2.00000          -1.797163          -48.90328
    260       2.00000          -1.797163          -48.90328
    261       2.00000          -1.797163          -48.90328
    262       2.00000          -1.796925          -48.89681
    263       2.00000          -1.796925          -48.89681
    264       2.00000          -1.796925          -48.89681
    265       2.00000          -1.796925          -48.89681
    266       2.00000          -1.796924          -48.89679
    267       2.00000          -1.796924          -48.89679
    268       2.00000          -1.796924          -48.89679
    269       2.00000          -1.796924          -48.89679
    270       2.00000          -1.796924          -48.89679
    271       2.00000          -1.796924          -48.89679
    272       2.00000          -1.796924          -48.89679
    273       2.00000          -1.796924          -48.89679
    274       2.00000          -1.796859          -48.89501
    275       2.00000          -1.796859          -48.89501
    276       2.00000          -1.796858          -48.89500
    277       2.00000          -1.796858          -48.89500
    278       2.00000          -1.796858          -48.89500
    279       2.00000          -1.796858          -48.89500
    280       2.00000          -1.796847          -48.89468
    281       2.00000          -1.796847          -48.89468
    282       2.00000          -1.796847          -48.89468
    283       2.00000          -1.796847          -48.89468
    284       2.00000          -1.796847          -48.89468
    285       2.00000          -1.796847          -48.89468
    286       2.00000          -1.796846          -48.89467
    287       2.00000          -1.796846          -48.89467
    288       2.00000          -1.796846          -48.89467
    289       2.00000          -1.796846          -48.89467
    290       2.00000          -1.796846          -48.89467
    291       2.00000          -1.796846          -48.89467
    292       2.00000          -1.796846          -48.89465
    293       2.00000          -1.796846          -48.89465
    294       2.00000          -1.796846          -48.89465
    295       2.00000          -1.796846          -48.89465
    296       2.00000          -1.796845          -48.89465
    297       2.00000          -1.796845          -48.89465
    298       2.00000          -1.796845          -48.89465
    299       2.00000          -1.796845          -48.89465
    300       2.00000          -1.796845          -48.89465
    301       2.00000          -1.796845          -48.89465
    302       2.00000          -1.796845          -48.89465
    303       2.00000          -1.796845          -48.89465
    304       2.00000          -1.796784          -48.89297
    305       2.00000          -1.796784          -48.89297
    306       2.00000          -1.796784          -48.89297
    307       2.00000          -1.796783          -48.89295
    308       2.00000          -1.796783          -48.89295
    309       2.00000          -1.796782          -48.89293
    310       2.00000          -1.796411          -48.88283
    311       2.00000          -1.796411          -48.88283
    312       2.00000          -1.796411          -48.88283
    313       2.00000          -1.796411          -48.88283
    314       2.00000          -1.796411          -48.88282
    315       2.00000          -1.796411          -48.88282
    316       2.00000          -1.796411          -48.88282
    317       2.00000          -1.796411          -48.88282
    318       2.00000          -1.796411          -48.88282
    319       2.00000          -1.796411          -48.88282
    320       2.00000          -1.796411          -48.88282
    321       2.00000          -1.796411          -48.88282
    322       2.00000          -1.796410          -48.88282
    323       2.00000          -1.796410          -48.88282
    324       2.00000          -1.796410          -48.88282
    325       2.00000          -1.796410          -48.88282
    326       2.00000          -1.796410          -48.88282
    327       2.00000          -1.796410          -48.88282
    328       2.00000          -1.796410          -48.88282
    329       2.00000          -1.796410          -48.88282
    330       2.00000          -1.796410          -48.88279
    331       2.00000          -1.796410          -48.88279
    332       2.00000          -1.796410          -48.88279
    333       2.00000          -1.796410          -48.88279
    334       2.00000          -1.796241          -48.87821
    335       2.00000          -1.796241          -48.87821
    336       2.00000          -1.796241          -48.87820
    337       2.00000          -1.796241          -48.87820
    338       2.00000          -1.796241          -48.87820
    339       2.00000          -1.796241          -48.87820
    340       2.00000          -1.796240          -48.87819
    341       2.00000          -1.796240          -48.87819
    342       2.00000          -1.796240          -48.87819
    343       2.00000          -1.796240          -48.87819
    344       2.00000          -1.796240          -48.87817
    345       2.00000          -1.796240          -48.87817
    346       2.00000          -1.796041          -48.87275
    347       2.00000          -1.796041          -48.87275
    348       2.00000          -1.796040          -48.87274
    349       2.00000          -1.796040          -48.87274
    350       2.00000          -1.796040          -48.87274
    351       2.00000          -1.796040          -48.87274
    352       2.00000          -1.796040          -48.87273
    353       2.00000          -1.796040          -48.87273
    354       2.00000          -1.796040          -48.87273
    355       2.00000          -1.796040          -48.87273
    356       2.00000          -1.796039          -48.87271
    357       2.00000          -1.796039          -48.87271
    358       2.00000          -1.796038          -48.87268
    359       2.00000          -1.796038          -48.87268
    360       2.00000          -1.796038          -48.87268
    361       2.00000          -1.796038          -48.87267
    362       2.00000          -1.796037          -48.87266
    363       2.00000          -1.796037          -48.87266
    364       2.00000          -1.796037          -48.87264
    365       2.00000          -1.796037          -48.87264
    366       2.00000          -1.795870          -48.86812
    367       2.00000          -1.795870          -48.86812
    368       2.00000          -1.795870          -48.86812
    369       2.00000          -1.795870          -48.86812
    370       2.00000          -1.795870          -48.86812
    371       2.00000          -1.795870          -48.86812
    372       2.00000          -1.795870          -48.86811
    373       2.00000          -1.795870          -48.86811
    374       2.00000          -1.795870          -48.86810
    375       2.00000          -1.795870          -48.86810
    376       2.00000          -1.795870          -48.86810
    377       2.00000          -1.795870          -48.86810
    378       2.00000          -1.795869          -48.86808
    379       2.00000          -1.795869          -48.86808
    380       2.00000          -1.795869          -48.86808
    381       2.00000          -1.795869          -48.86808
    382       2.00000          -1.795702          -48.86355
    383       2.00000          -1.795702          -48.86354
    384       2.00000          -1.795701          -48.86351
    385       2.00000          -0.987863          -26.88112
    386       2.00000          -0.964860          -26.25517
    387       2.00000          -0.964860          -26.25517
    388       2.00000          -0.964860          -26.25517
    389       2.00000          -0.964860          -26.25517
    390       2.00000          -0.964859          -26.25515
    391       2.00000          -0.964859          -26.25515
    392       2.00000          -0.964858          -26.25513
    393       2.00000          -0.964858          -26.25513
    394       2.00000          -0.958834          -26.09119
    395       2.00000          -0.958834          -26.09119
    396       2.00000          -0.958831          -26.09113
    397       2.00000          -0.958831          -26.09113
    398       2.00000          -0.958831          -26.09113
    399       2.00000          -0.958831          -26.09113
    400       2.00000          -0.940637          -25.59604
    401       2.00000          -0.940637          -25.59604
    402       2.00000          -0.940636          -25.59601
    403       2.00000          -0.940636          -25.59601
    404       2.00000          -0.940636          -25.59601
    405       2.00000          -0.940636          -25.59601
    406       2.00000          -0.940636          -25.59601
    407       2.00000          -0.940636          -25.59601
    408       2.00000          -0.940636          -25.59600
    409       2.00000          -0.940636          -25.59600
    410       2.00000          -0.940636          -25.59600
    411       2.00000          -0.940636          -25.59600
    412       2.00000          -0.937265          -25.50427
    413       2.00000          -0.937265          -25.50427
    414       2.00000          -0.937264          -25.50426
    415       2.00000          -0.937264          -25.50426
    416       2.00000          -0.933496          -25.40173
    417       2.00000          -0.933496          -25.40173
    418       2.00000          -0.933496          -25.40171
    419       2.00000          -0.933496          -25.40171
    420       2.00000          -0.933496          -25.40171
    421       2.00000          -0.933496          -25.40171
    422       2.00000          -0.933496          -25.40170
    423       2.00000          -0.933496          -25.40170
    424       2.00000          -0.933496          -25.40170
    425       2.00000          -0.933496          -25.40170
    426       2.00000          -0.933495          -25.40170
    427       2.00000          -0.933495          -25.40170
    428       2.00000          -0.933495          -25.40170
    429       2.00000          -0.933495          -25.40170
    430       2.00000          -0.933495          -25.40168
    431       2.00000          -0.933495          -25.40168
    432       2.00000          -0.933495          -25.40168
    433       2.00000          -0.933495          -25.40168
    434       2.00000          -0.933495          -25.40168
    435       2.00000          -0.933495          -25.40168
    436       2.00000          -0.933495          -25.40168
    437       2.00000          -0.933495          -25.40168
    438       2.00000          -0.933495          -25.40168
    439       2.00000          -0.933495          -25.40168
    440       2.00000          -0.928905          -25.27679
    441       2.00000          -0.928904          -25.27676
    442       2.00000          -0.928904          -25.27676
    443       2.00000          -0.926412          -25.20895
    444       2.00000          -0.926412          -25.20895
    445       2.00000          -0.926412          -25.20895
    446       2.00000          -0.926412          -25.20895
    447       2.00000          -0.926410          -25.20890
    448       2.00000          -0.926410          -25.20890
    449       2.00000          -0.535709          -14.57739
    450       2.00000          -0.535708          -14.57735
    451       2.00000          -0.535705          -14.57727
    452       2.00000          -0.535705          -14.57727
    453       2.00000          -0.515032          -14.01474
    454       2.00000          -0.515032          -14.01474
    455       2.00000          -0.515027          -14.01460
    456       2.00000          -0.505616          -13.75852
    457       2.00000          -0.505616          -13.75852
    458       2.00000          -0.505616          -13.75852
    459       2.00000          -0.505616          -13.75852
    460       2.00000          -0.505615          -13.75849
    461       2.00000          -0.505615          -13.75849
    462       2.00000          -0.505615          -13.75849
    463       2.00000          -0.505615          -13.75849
    464       2.00000          -0.505614          -13.75846
    465       2.00000          -0.505614          -13.75846
    466       2.00000          -0.505614          -13.75846
    467       2.00000          -0.505614          -13.75846
    468       2.00000          -0.505614          -13.75846
    469       2.00000          -0.505614          -13.75846
    470       2.00000          -0.505614          -13.75846
    471       2.00000          -0.505614          -13.75846
    472       2.00000          -0.505614          -13.75845
    473       2.00000          -0.505614          -13.75845
    474       2.00000          -0.505612          -13.75839
    475       2.00000          -0.505612          -13.75839
    476       2.00000          -0.505612          -13.75839
    477       2.00000          -0.505612          -13.75839
    478       2.00000          -0.505609          -13.75833
    479       2.00000          -0.505609          -13.75833
    480       2.00000          -0.494013          -13.44277
    481       2.00000          -0.494013          -13.44277
    482       2.00000          -0.494011          -13.44272
    483       2.00000          -0.494011          -13.44272
    484       2.00000          -0.494011          -13.44272
    485       2.00000          -0.494011          -13.44272
    486       2.00000          -0.494011          -13.44272
    487       2.00000          -0.494011          -13.44272
    488       2.00000          -0.494011          -13.44272
    489       2.00000          -0.494011          -13.44272
    490       2.00000          -0.494005          -13.44255
    491       2.00000          -0.494005          -13.44255
    492       2.00000          -0.473437          -12.88287
    493       2.00000          -0.473437          -12.88287
    494       2.00000          -0.473434          -12.88280
    495       2.00000          -0.473434          -12.88280
    496       2.00000          -0.473434          -12.88280
    497       2.00000          -0.473434          -12.88280
    498       2.00000          -0.473434          -12.88279
    499       2.00000          -0.473434          -12.88279
    500       2.00000          -0.473430          -12.88268
    501       2.00000          -0.473430          -12.88268
    502       2.00000          -0.473430          -12.88268
    503       2.00000          -0.473430          -12.88268
    504       2.00000          -0.462447          -12.58381
    505       2.00000          -0.462447          -12.58381
    506       2.00000          -0.462446          -12.58380
    507       2.00000          -0.462446          -12.58380
    508       2.00000          -0.462446          -12.58380
    509       2.00000          -0.462446          -12.58380
    510       2.00000          -0.462446          -12.58380
    511       2.00000          -0.462446          -12.58380
    512       2.00000          -0.461536          -12.55904
    513       2.00000          -0.461536          -12.55904
    514       2.00000          -0.461536          -12.55904
    515       2.00000          -0.461536          -12.55904
    516       2.00000          -0.461533          -12.55894
    517       2.00000          -0.461533          -12.55894
    518       2.00000          -0.438068          -11.92042
    519       2.00000          -0.438068          -11.92042
    520       2.00000          -0.438067          -11.92040
    521       2.00000          -0.438067          -11.92040
    522       2.00000          -0.438067          -11.92040
    523       2.00000          -0.438067          -11.92040
    524       2.00000          -0.438064          -11.92034
    525       2.00000          -0.438064          -11.92034
    526       2.00000          -0.438064          -11.92033
    527       2.00000          -0.438064          -11.92033
    528       2.00000          -0.438064          -11.92033
    529       2.00000          -0.438064          -11.92033
    530       2.00000          -0.435124          -11.84031
    531       2.00000          -0.435124          -11.84031
    532       2.00000          -0.435124          -11.84031
    533       2.00000          -0.435124          -11.84031
    534       2.00000          -0.435122          -11.84028
    535       2.00000          -0.435122          -11.84028
    536       2.00000          -0.435122          -11.84028
    537       2.00000          -0.435122          -11.84028
    538       2.00000          -0.435122          -11.84028
    539       2.00000          -0.435122          -11.84028
    540       2.00000          -0.435122          -11.84028
    541       2.00000          -0.435122          -11.84028
    542       2.00000          -0.435122          -11.84028
    543       2.00000          -0.435122          -11.84028
    544       2.00000          -0.435120          -11.84022
    545       2.00000          -0.435120          -11.84022
    546       2.00000          -0.435120          -11.84022
    547       2.00000          -0.435120          -11.84022
    548       2.00000          -0.435119          -11.84020
    549       2.00000          -0.435119          -11.84020
    550       2.00000          -0.435119          -11.84020
    551       2.00000          -0.435119          -11.84020
    552       2.00000          -0.435117          -11.84013
    553       2.00000          -0.435117          -11.84013
    554       2.00000          -0.430112          -11.70395
    555       2.00000          -0.430112          -11.70395
    556       2.00000          -0.430112          -11.70395
    557       2.00000          -0.430112          -11.70395
    558       2.00000          -0.430111          -11.70392
    559       2.00000          -0.430111          -11.70392
    560       2.00000          -0.413586          -11.25424
    561       2.00000          -0.413586          -11.25424
    562       2.00000          -0.413585          -11.25422
    563       2.00000          -0.413583          -11.25417
    564       2.00000          -0.413583          -11.25417
    565       2.00000          -0.413582          -11.25415
    566       2.00000          -0.401589          -10.92779
    567       2.00000          -0.401589          -10.92779
    568       2.00000          -0.401589          -10.92779
    569       2.00000          -0.401589          -10.92779
    570       2.00000          -0.401588          -10.92778
    571       2.00000          -0.401588          -10.92778
    572       2.00000          -0.401588          -10.92778
    573       2.00000          -0.401588          -10.92778
    574       2.00000          -0.401588          -10.92776
    575       2.00000          -0.401588          -10.92776
    576       2.00000          -0.401588          -10.92776
    577       2.00000          -0.401588          -10.92776
    578       2.00000          -0.401587          -10.92774
    579       2.00000          -0.401587          -10.92774
    580       2.00000          -0.401587          -10.92774
    581       2.00000          -0.401587          -10.92774
    582       2.00000          -0.401587          -10.92774
    583       2.00000          -0.401587          -10.92774
    584       2.00000          -0.401587          -10.92774
    585       2.00000          -0.401587          -10.92774
    586       2.00000          -0.401585          -10.92769
    587       2.00000          -0.401585          -10.92769
    588       2.00000          -0.401585          -10.92769
    589       2.00000          -0.401585          -10.92769
    590       2.00000          -0.390942          -10.63807
    591       2.00000          -0.390942          -10.63807
    592       2.00000          -0.390942          -10.63807
    593       2.00000          -0.390942          -10.63807
    594       2.00000          -0.390941          -10.63803
    595       2.00000          -0.390941          -10.63803
    596       2.00000          -0.390940          -10.63803
    597       2.00000          -0.390940          -10.63803
    598       2.00000          -0.390940          -10.63802
    599       2.00000          -0.390940          -10.63802
    600       2.00000          -0.390940          -10.63802
    601       2.00000          -0.390940          -10.63802
    602       2.00000          -0.388328          -10.56694
    603       2.00000          -0.388328          -10.56693
    604       2.00000          -0.388328          -10.56693
    605       2.00000          -0.388326          -10.56688
    606       2.00000          -0.388324          -10.56684
    607       2.00000          -0.388323          -10.56682
    608       2.00000          -0.388323          -10.56682
    609       2.00000          -0.388321          -10.56675
    610       2.00000          -0.388274          -10.56547
    611       2.00000          -0.388274          -10.56547
    612       2.00000          -0.388273          -10.56544
    613       2.00000          -0.388273          -10.56544
    614       2.00000          -0.388272          -10.56541
    615       2.00000          -0.388272          -10.56541
    616       2.00000          -0.388272          -10.56541
    617       2.00000          -0.388272          -10.56541
    618       2.00000          -0.388271          -10.56540
    619       2.00000          -0.388271          -10.56540
    620       2.00000          -0.388271          -10.56540
    621       2.00000          -0.388271          -10.56540
    622       2.00000          -0.376288          -10.23933
    623       2.00000          -0.376288          -10.23933
    624       2.00000          -0.376288          -10.23933
    625       2.00000          -0.376288          -10.23933
    626       2.00000          -0.376287          -10.23930
    627       2.00000          -0.376287          -10.23930
    628       2.00000          -0.376286          -10.23925
    629       2.00000          -0.376286          -10.23925
    630       2.00000          -0.376285          -10.23924
    631       2.00000          -0.376285          -10.23924
    632       2.00000          -0.376285          -10.23924
    633       2.00000          -0.376285          -10.23924
    634       2.00000          -0.376285          -10.23924
    635       2.00000          -0.376285          -10.23924
    636       2.00000          -0.376284          -10.23922
    637       2.00000          -0.376284          -10.23922
    638       2.00000          -0.363240           -9.88428
    639       2.00000          -0.363238           -9.88422
    640       2.00000          -0.363237           -9.88418
    641       0.00000          -0.195500           -5.31984
    642       0.00000          -0.108740           -2.95897
    643       0.00000          -0.108740           -2.95897
    644       0.00000          -0.108730           -2.95869
    645       0.00000          -0.108730           -2.95869
    646       0.00000          -0.108728           -2.95864
    647       0.00000          -0.108728           -2.95864
    648       0.00000          -0.108728           -2.95864
    649       0.00000          -0.108728           -2.95864
    650       0.00000          -0.074293           -2.02162
    651       0.00000          -0.074293           -2.02162
    652       0.00000          -0.074293           -2.02162
    653       0.00000          -0.074293           -2.02162
    654       0.00000          -0.074276           -2.02116
    655       0.00000          -0.074276           -2.02116
    656       0.00000          -0.070346           -1.91421
    657       0.00000          -0.070334           -1.91389
    658       0.00000          -0.070329           -1.91374
    659       0.00000          -0.070329           -1.91374
    660       0.00000          -0.036327           -0.98850
    661       0.00000          -0.036327           -0.98850
    662       0.00000          -0.036265           -0.98681
    663       0.00000          -0.018987           -0.51667
    664       0.00000          -0.018987           -0.51667
    665       0.00000          -0.018976           -0.51638
    666       0.00000          -0.018976           -0.51638
    667       0.00000          -0.018976           -0.51638
    668       0.00000          -0.018976           -0.51638
    669       0.00000          -0.018974           -0.51630
    670       0.00000          -0.018974           -0.51630
    671       0.00000          -0.018974           -0.51630
    672       0.00000          -0.018974           -0.51630
    673       0.00000          -0.018968           -0.51614
    674       0.00000          -0.018968           -0.51614
    675       0.00000          -0.010596           -0.28832
    676       0.00000          -0.010596           -0.28832
    677       0.00000          -0.010587           -0.28809
    678       0.00000          -0.010587           -0.28809
    679       0.00000          -0.010576           -0.28778
    680       0.00000          -0.010576           -0.28778
    681       0.00000          -0.010576           -0.28778
    682       0.00000          -0.010576           -0.28778
    683       0.00000          -0.010571           -0.28765
    684       0.00000          -0.010571           -0.28765
    685       0.00000          -0.010571           -0.28765
    686       0.00000          -0.010571           -0.28765
    687       0.00000          -0.010569           -0.28760
    688       0.00000          -0.010569           -0.28760
    689       0.00000          -0.010569           -0.28760
    690       0.00000          -0.010569           -0.28760
    691       0.00000          -0.010566           -0.28753
    692       0.00000          -0.010566           -0.28753
    693       0.00000          -0.010566           -0.28753
    694       0.00000          -0.010566           -0.28753
    695       0.00000          -0.010566           -0.28752
    696       0.00000          -0.010566           -0.28752
    697       0.00000          -0.010566           -0.28752
    698       0.00000          -0.010566           -0.28752
    699       0.00000          -0.008762           -0.23844
    700       0.00000          -0.008724           -0.23740
    701       0.00000          -0.008724           -0.23740
    702       0.00000           0.049448            1.34555
    703       0.00000           0.049448            1.34555
    704       0.00000           0.049448            1.34555
    705       0.00000           0.049448            1.34555
    706       0.00000           0.049492            1.34675
    707       0.00000           0.049492            1.34675
    708       0.00000           0.055624            1.51361
    709       0.00000           0.055624            1.51361
    710       0.00000           0.055624            1.51361
    711       0.00000           0.055624            1.51361
    712       0.00000           0.055626            1.51365
    713       0.00000           0.055626            1.51365
    714       0.00000           0.055638            1.51400
    715       0.00000           0.055638            1.51400
    716       0.00000           0.055638            1.51400
    717       0.00000           0.055638            1.51400
    718       0.00000           0.055639            1.51403
    719       0.00000           0.055639            1.51403
    720       0.00000           0.055639            1.51403
    721       0.00000           0.055639            1.51403
    722       0.00000           0.055642            1.51408
    723       0.00000           0.055642            1.51408
    724       0.00000           0.055648            1.51427
    725       0.00000           0.055648            1.51427
    726       0.00000           0.055648            1.51427
    727       0.00000           0.055648            1.51427
    728       0.00000           0.055686            1.51530
    729       0.00000           0.055686            1.51530
    730       0.00000           0.055686            1.51530
    731       0.00000           0.055686            1.51530
    732       0.00000           0.063010            1.71458
    733       0.00000           0.063010            1.71458
    734       0.00000           0.063010            1.71458
    735       0.00000           0.063010            1.71458
    736       0.00000           0.063017            1.71477
    737       0.00000           0.063017            1.71477
    738       0.00000           0.063044            1.71551
    739       0.00000           0.063044            1.71551
    740       0.00000           0.063057            1.71586
    741       0.00000           0.063057            1.71586
    742       0.00000           0.063057            1.71586
    743       0.00000           0.063057            1.71586
    744       0.00000           0.073566            2.00182
    745       0.00000           0.073566            2.00182
    746       0.00000           0.073566            2.00182
    747       0.00000           0.073566            2.00182
    748       0.00000           0.073606            2.00293
    749       0.00000           0.073606            2.00293
    750       0.00000           0.074068            2.01550
    751       0.00000           0.074068            2.01550
    752       0.00000           0.074076            2.01572
    753       0.00000           0.074076            2.01572
    754       0.00000           0.074076            2.01572
    755       0.00000           0.074076            2.01572
    756       0.00000           0.074081            2.01584
    757       0.00000           0.074081            2.01584
    758       0.00000           0.074081            2.01584
    759       0.00000           0.074081            2.01584
    760       0.00000           0.074091            2.01613
    761       0.00000           0.074091            2.01613
    762       0.00000           0.090508            2.46284
    763       0.00000           0.090512            2.46295
    764       0.00000           0.090525            2.46331
    765       0.00000           0.090525            2.46331
    766       0.00000           0.109450            2.97830
    767       0.00000           0.109450            2.97830
    768       0.00000           0.109450            2.97830
    769       0.00000           0.109450            2.97830
    770       0.00000           0.109488            2.97931
    771       0.00000           0.109488            2.97931
    772       0.00000           0.109504            2.97975
    773       0.00000           0.109504            2.97975
    774       0.00000           0.121176            3.29736
    775       0.00000           0.121176            3.29736
    776       0.00000           0.121195            3.29790
    777       0.00000           0.129271            3.51765
    778       0.00000           0.129271            3.51765
    779       0.00000           0.129291            3.51820
    780       0.00000           0.129291            3.51820
    781       0.00000           0.129306            3.51859
    782       0.00000           0.129306            3.51859
    783       0.00000           0.129306            3.51859
    784       0.00000           0.129306            3.51859
    785       0.00000           0.129308            3.51866
    786       0.00000           0.129308            3.51866
    787       0.00000           0.129308            3.51866
    788       0.00000           0.129308            3.51866
    789       0.00000           0.129315            3.51883
    790       0.00000           0.129315            3.51883
    791       0.00000           0.129315            3.51883
    792       0.00000           0.129315            3.51883
    793       0.00000           0.129329            3.51922
    794       0.00000           0.129329            3.51922
    795       0.00000           0.129329            3.51922
    796       0.00000           0.129329            3.51922
    797       0.00000           0.129337            3.51943
    798       0.00000           0.129337            3.51943
    799       0.00000           0.129337            3.51943
    800       0.00000           0.129337            3.51943
    801       0.00000           0.157696            4.29114
    802       0.00000           0.157696            4.29114
    803       0.00000           0.157712            4.29157
    804       0.00000           0.157712            4.29157
    805       0.00000           0.157712            4.29157
    806       0.00000           0.157712            4.29157
    807       0.00000           0.157726            4.29195
    808       0.00000           0.157726            4.29195
    809       0.00000           0.157726            4.29195
    810       0.00000           0.157726            4.29195
    811       0.00000           0.157760            4.29286
    812       0.00000           0.157760            4.29286
    813       0.00000           0.207776            5.65388
    814       0.00000           0.207776            5.65388
    815       0.00000           0.207776            5.65388
    816       0.00000           0.207776            5.65388
    817       0.00000           0.207784            5.65410
    818       0.00000           0.207784            5.65410
    819       0.00000           0.215385            5.86091
    820       0.00000           0.215385            5.86091
    821       0.00000           0.215424            5.86200
    822       0.00000           0.215424            5.86200
    823       0.00000           0.215424            5.86200
    824       0.00000           0.215424            5.86200
    825       0.00000           0.216054            5.87913
    826       0.00000           0.216249            5.88444
    827       0.00000           0.216311            5.88612
    828       0.00000           0.262535            7.14394
    829       0.00000           0.262535            7.14394
    830       0.00000           0.262535            7.14394
    831       0.00000           0.262535            7.14394
    832       0.00000           0.262634            7.14664
    833       0.00000           0.262634            7.14664
    834       0.00000           0.262636            7.14669
    835       0.00000           0.262636            7.14669
    836       0.00000           0.262647            7.14700
    837       0.00000           0.262647            7.14700
    838       0.00000           0.262669            7.14758
    839       0.00000           0.262669            7.14758
    840       0.00000           0.262703            7.14850
    841       0.00000           0.262703            7.14850
    842       0.00000           0.262703            7.14850
    843       0.00000           0.262703            7.14850
    844       0.00000           0.274666            7.47405
    845       0.00000           0.274666            7.47405
    846       0.00000           0.274713            7.47533
    847       0.00000           0.274752            7.47637
    848       0.00000           0.274759            7.47657
    849       0.00000           0.274791            7.47743
    850       0.00000           0.274825            7.47836
    851       0.00000           0.274825            7.47837
    852       0.00000           0.293826            7.99541
    853       0.00000           0.293826            7.99541
    854       0.00000           0.293914            7.99780
    855       0.00000           0.293914            7.99780
    856       0.00000           0.293914            7.99780
    857       0.00000           0.293914            7.99780
    858       0.00000           0.293962            7.99911
    859       0.00000           0.293962            7.99911
    860       0.00000           0.293984            7.99972
    861       0.00000           0.293984            7.99972
    862       0.00000           0.293984            7.99972
    863       0.00000           0.293984            7.99972
    864       0.00000           0.298509            8.12284
    865       0.00000           0.298509            8.12284
    866       0.00000           0.298597            8.12524
    867       0.00000           0.298597            8.12524
    868       0.00000           0.298607            8.12551
    869       0.00000           0.298607            8.12551
    870       0.00000           0.298607            8.12551
    871       0.00000           0.298607            8.12551
    872       0.00000           0.298630            8.12615
    873       0.00000           0.298630            8.12615
    874       0.00000           0.298631            8.12615
    875       0.00000           0.298631            8.12615
    876       0.00000           0.309648            8.42595
    877       0.00000           0.309648            8.42595
    878       0.00000           0.309648            8.42595
    879       0.00000           0.309648            8.42595
    880       0.00000           0.309748            8.42866
    881       0.00000           0.309748            8.42866
    882       0.00000           0.309748            8.42866
    883       0.00000           0.309748            8.42866
    884       0.00000           0.309748            8.42867
    885       0.00000           0.309748            8.42867
    886       0.00000           0.309750            8.42873
    887       0.00000           0.309750            8.42873
    888       0.00000           0.309750            8.42873
    889       0.00000           0.309750            8.42873
    890       0.00000           0.309752            8.42878
    891       0.00000           0.309752            8.42878
    892       0.00000           0.309752            8.42878
    893       0.00000           0.309752            8.42878
    894       0.00000           0.309760            8.42900
    895       0.00000           0.309760            8.42900
    896       0.00000           0.309776            8.42943
    897       0.00000           0.309776            8.42943
    898       0.00000           0.309776            8.42943
    899       0.00000           0.309776            8.42943
    900       0.00000           0.332364            9.04408
    901       0.00000           0.332364            9.04408
    902       0.00000           0.332373            9.04433
    903       0.00000           0.332373            9.04433
    904       0.00000           0.332432            9.04594
    905       0.00000           0.332432            9.04594
    906       0.00000           0.332432            9.04594
    907       0.00000           0.332432            9.04594
    908       0.00000           0.332441            9.04617
    909       0.00000           0.332441            9.04617
    910       0.00000           0.332441            9.04617
    911       0.00000           0.332441            9.04617
    912       0.00000           0.332441            9.04617
    913       0.00000           0.332441            9.04617
    914       0.00000           0.332441            9.04617
    915       0.00000           0.332441            9.04617
    916       0.00000           0.332449            9.04640
    917       0.00000           0.332449            9.04640
    918       0.00000           0.332449            9.04640
    919       0.00000           0.332449            9.04640
    920       0.00000           0.332489            9.04748
    921       0.00000           0.332489            9.04748
    922       0.00000           0.332489            9.04748
    923       0.00000           0.332489            9.04748
    924       0.00000           0.349490            9.51010
    925       0.00000           0.349585            9.51269
    926       0.00000           0.349585            9.51269
    927       0.00000           0.349628            9.51386
    928       0.00000           0.349652            9.51452
    929       0.00000           0.349652            9.51452
    930       0.00000           0.381980           10.39420
    931       0.00000           0.381980           10.39420
    932       0.00000           0.381991           10.39450
    933       0.00000           0.381991           10.39450
    934       0.00000           0.381991           10.39450
    935       0.00000           0.381991           10.39450
    936       0.00000           0.382070           10.39666
    937       0.00000           0.382070           10.39666
    938       0.00000           0.382099           10.39745
    939       0.00000           0.382099           10.39745
    940       0.00000           0.382126           10.39817
    941       0.00000           0.382126           10.39817
    942       0.00000           0.382136           10.39845
    943       0.00000           0.382136           10.39845
    944       0.00000           0.382136           10.39845
    945       0.00000           0.382136           10.39845
    946       0.00000           0.394620           10.73815
    947       0.00000           0.394620           10.73815
    948       0.00000           0.394732           10.74120
    949       0.00000           0.394732           10.74120
    950       0.00000           0.394732           10.74120
    951       0.00000           0.394732           10.74120
    952       0.00000           0.394735           10.74129
    953       0.00000           0.394735           10.74129
    954       0.00000           0.394763           10.74205
    955       0.00000           0.394763           10.74205
    956       0.00000           0.394763           10.74205
    957       0.00000           0.394763           10.74205
    958       0.00000           0.409738           11.14954
    959       0.00000           0.409738           11.14954
    960       0.00000           0.409738           11.14954
    961       0.00000           0.409738           11.14954
    962       0.00000           0.409760           11.15013
    963       0.00000           0.409760           11.15013
    964       0.00000           0.409760           11.15013
    965       0.00000           0.409760           11.15013
    966       0.00000           0.409769           11.15039
    967       0.00000           0.409769           11.15039
    968       0.00000           0.409864           11.15297
    969       0.00000           0.409864           11.15297
    970       0.00000           0.414598           11.28179
    971       0.00000           0.414598           11.28179
    972       0.00000           0.414688           11.28422
    973       0.00000           0.414749           11.28589
    974       0.00000           0.419580           11.41736
    975       0.00000           0.419699           11.42059
    976       0.00000           0.463395           12.60961
    977       0.00000           0.463395           12.60961
    978       0.00000           0.463512           12.61281
    979       0.00000           0.463523           12.61309
    980       0.00000           0.463572           12.61444
    981       0.00000           0.463572           12.61444
    982       0.00000           0.463580           12.61465
    983       0.00000           0.463594           12.61503
    984       0.00000           0.474847           12.92124
    985       0.00000           0.474847           12.92124
    986       0.00000           0.474847           12.92124
    987       0.00000           0.474847           12.92124
    988       0.00000           0.474942           12.92383
    989       0.00000           0.474942           12.92383
    990       0.00000           0.474942           12.92383
    991       0.00000           0.474942           12.92383
    992       0.00000           0.474960           12.92431
    993       0.00000           0.474960           12.92431
    994       0.00000           0.475006           12.92557
    995       0.00000           0.475006           12.92557
    996       0.00000           0.489294           13.31437
    997       0.00000           0.489294           13.31437
    998       0.00000           0.489327           13.31526
    999       0.00000           0.489327           13.31526
   1000       0.00000           0.489327           13.31526
   1001       0.00000           0.489327           13.31526
   1002       0.00000           0.489359           13.31615
   1003       0.00000           0.489359           13.31615
   1004       0.00000           0.494486           13.45565
   1005       0.00000           0.494486           13.45565
   1006       0.00000           0.494486           13.45565
   1007       0.00000           0.494486           13.45565
   1008       0.00000           0.494625           13.45944
   1009       0.00000           0.494625           13.45944
   1010       0.00000           0.544408           14.81408
   1011       0.00000           0.544479           14.81603
   1012       0.00000           0.544534           14.81753
   1013       0.00000           0.552785           15.04204
   1014       0.00000           0.552785           15.04204
   1015       0.00000           0.552785           15.04204
   1016       0.00000           0.552785           15.04204
   1017       0.00000           0.552790           15.04218
   1018       0.00000           0.552790           15.04218
   1019       0.00000           0.552825           15.04315
   1020       0.00000           0.552825           15.04315
   1021       0.00000           0.552825           15.04315
   1022       0.00000           0.552825           15.04315
   1023       0.00000           0.552832           15.04332
   1024       0.00000           0.552832           15.04332

  What follows are estimated values for band gap, HOMO, LUMO, etc.
  | They are estimated on a discrete k-point grid and not necessarily exact.
  | For converged numbers, create a DOS and/or band structure plot on a denser k-grid.

  Highest occupied state (VBM) at     -9.88418050 eV (relative to internal zero)
  | Occupation number:      2.00000000
  | K-point:       1 at    0.000000    0.000000    0.000000 (in units of recip. lattice)

  Lowest unoccupied state (CBM) at    -5.31983683 eV (relative to internal zero)
  | Occupation number:      0.00000000
  | K-point:       1 at    0.000000    0.000000    0.000000 (in units of recip. lattice)

  The gap value is above 0.2 eV. Unless you are using a very sparse k-point grid,
  this system is most likely an insulator or a semiconductor.
  ESTIMATED overall HOMO-LUMO gap:      4.56434368 eV between HOMO at k-point 1 and LUMO at k-point 1
  | This appears to be a direct band gap.

  Total energy components:
  | Sum of eigenvalues            :       -9673.39390393 Ha     -263226.44093989 eV
  | XC energy correction          :       -1524.34891071 Ha      -41479.64432161 eV
  | XC potential correction       :        2011.43129669 Ha       54733.83040962 eV
  | Free-atom electrostatic energy:       -8364.06599103 Ha     -227597.81566519 eV
  | Hartree energy correction     :         -27.98069411 Ha        -761.39342597 eV
  | Entropy correction            :           0.00000000 Ha           0.00000000 eV
  | ---------------------------
  | Total energy                  :      -17578.35820309 Ha     -478331.46394303 eV
  | Total energy, T -> 0          :      -17578.35820309 Ha     -478331.46394303 eV  <-- do not rely on this value for anything but (periodic) metals
  | Electronic free energy        :      -17578.35820309 Ha     -478331.46394303 eV

  Derived energy quantities:
  | Kinetic energy                :       17553.31093085 Ha      477649.89298753 eV
  | Electrostatic energy          :      -33607.32022323 Ha     -914501.71260896 eV
  | Energy correction for multipole
  | error in Hartree potential    :           0.19825228 Ha           5.39471906 eV
  | Sum of eigenvalues per atom                           :       -2056.45656984 eV
  | Total energy (T->0) per atom                          :       -3736.96456205 eV  <-- do not rely on this value for anything but (periodic) metals
  | Electronic free energy per atom                       :       -3736.96456205 eV
  Evaluating new KS density using the density matrix
  Evaluating density matrix
  Time summed over all CPUs for getting density from density matrix: real work      109.363 s, elapsed      116.206 s
  Integration grid: deviation in total charge (<rho> - N_e) =   2.501110E-12

  Self-consistency convergence accuracy:
  | Change of charge density      :  0.9499E+00
  | Change of unmixed KS density  :  0.1587E+03
  | Change of sum of eigenvalues  : -0.2632E+06 eV
  | Change of total energy        : -0.4783E+06 eV


------------------------------------------------------------
  End self-consistency iteration #     0       :  max(cpu_time)    wall_clock(cpu1)
  | Time for this iteration                     :       15.217 s          15.396 s
  | Charge density update                       :        1.471 s           1.487 s
  | Density mixing                              :        0.003 s           0.004 s
  | Hartree multipole update                    :        0.040 s           0.041 s
  | Hartree multipole summation                 :        0.117 s           0.125 s
  | Integration                                 :        1.013 s           1.027 s
  | Solution of K.-S. eqns.                     :       12.575 s          12.704 s
  | Total energy evaluation                     :        0.001 s           0.003 s

  Partial memory accounting:
  | Current value for overall tracked memory usage:
  |   Minimum:       84.263 MB (on task 263)
  |   Maximum:      113.276 MB (on task  33)
  |   Average:       86.309 MB
  | Peak value for overall tracked memory usage:
  |   Minimum:      136.825 MB (on task 263 after allocating kdm)
  |   Maximum:      323.569 MB (on task  33 after allocating eval_tmp)
  |   Average:      149.961 MB
  | Largest tracked array allocation so far:
  |   Minimum:       52.562 MB (kdm_complex on task   0)
  |   Maximum:       52.562 MB (kdm_complex on task   0)
  |   Average:       52.562 MB
  Note:  These values currently only include a subset of arrays which are explicitly tracked.
  The "true" memory usage will be greater.
------------------------------------------------------------

------------------------------------------------------------
          Begin self-consistency iteration #    1

  Date     :  20260819, Time     :  150425.275
------------------------------------------------------------
  Pulay mixing of updated and previous charge densities.
  Available memory per node after mixing [GB]:    466.29
  Renormalizing the density to the exact electron count on the 3D integration grid.
  | Formal number of electrons (from input files) :    1280.0000000000
  | Integrated number of electrons on 3D grid     :    1280.0000000000
  | Charge integration error                      :       0.0000000000
  | Normalization factor for density and gradient :       1.0000000000

  Evaluating partitioned Hartree potential by multipole expansion.
  | Original multipole sum: apparent total charge =  -0.162050E-12
  | Sum of charges compensated after spline to logarithmic grids =   0.860593E-04
  | Analytical far-field extrapolation by fixed multipoles:
  | Hartree multipole sum: apparent total charge =  -0.149505E-12
  Summing up the Hartree potential.
  Time summed over all CPUs for potential: real work        0.086 s, elapsed        0.096 s
  | RMS charge density error from multipole expansion :   0.842323E-01
  | Average real-space part of the electrostatic potential :      0.56876372 eV

  Integrating Hamiltonian matrix: batch-based integration.
  Time summed over all CPUs for integration: real work      102.557 s, elapsed      113.338 s

  Updating Kohn-Sham eigenvalues and eigenvectors using ELSI and the (modified) LAPACK eigensolver.

  Obtaining occupation numbers and electronic chemical potential using ELSI.
  | Note that, for insulating systems, the printed 'chemical potential' value is not uniquely defined.
  | It can be anywhere in the energy gap, as long as it correctly separates occupied and unoccupied states.
  | In systems with a gap, the physically relevant chemical potential is the VBM or HOMO.

  | Chemical potential (Fermi level):    -7.60200867 eV
  Writing Kohn-Sham eigenvalues.
  K-point:       1 at    0.000000    0.000000    0.000000 (in units of recip. lattice)

  State    Occupation    Eigenvalue [Ha]    Eigenvalue [eV]
      1       2.00000         -46.208628        -1257.40075
      2       2.00000         -46.208628        -1257.40075
      3       2.00000         -46.208628        -1257.40075
      4       2.00000         -46.208628        -1257.40075
      5       2.00000         -46.208628        -1257.40075
      6       2.00000         -46.208628        -1257.40075
      7       2.00000         -46.208628        -1257.40075
      8       2.00000         -46.208628        -1257.40075
      9       2.00000         -46.208628        -1257.40075
     10       2.00000         -46.208628        -1257.40075
     11       2.00000         -46.208628        -1257.40075
     12       2.00000         -46.208628        -1257.40075
     13       2.00000         -46.208628        -1257.40075
     14       2.00000         -46.208628        -1257.40075
     15       2.00000         -46.208628        -1257.40075
     16       2.00000         -46.208628        -1257.40075
     17       2.00000         -46.208628        -1257.40075
     18       2.00000         -46.208628        -1257.40075
     19       2.00000         -46.208628        -1257.40075
     20       2.00000         -46.208628        -1257.40075
     21       2.00000         -46.208628        -1257.40075
     22       2.00000         -46.208628        -1257.40075
     23       2.00000         -46.208628        -1257.40075
     24       2.00000         -46.208628        -1257.40075
     25       2.00000         -46.208628        -1257.40075
     26       2.00000         -46.208628        -1257.40075
     27       2.00000         -46.208628        -1257.40075
     28       2.00000         -46.208628        -1257.40075
     29       2.00000         -46.208628        -1257.40075
     30       2.00000         -46.208628        -1257.40075
     31       2.00000         -46.208628        -1257.40075
     32       2.00000         -46.208628        -1257.40075
     33       2.00000         -46.208628        -1257.40075
     34       2.00000         -46.208628        -1257.40075
     35       2.00000         -46.208628        -1257.40075
     36       2.00000         -46.208628        -1257.40075
     37       2.00000         -46.208628        -1257.40075
     38       2.00000         -46.208628        -1257.40075
     39       2.00000         -46.208628        -1257.40075
     40       2.00000         -46.208628        -1257.40075
     41       2.00000         -46.208628        -1257.40075
     42       2.00000         -46.208628        -1257.40075
     43       2.00000         -46.208628        -1257.40075
     44       2.00000         -46.208628        -1257.40075
     45       2.00000         -46.208628        -1257.40075
     46       2.00000         -46.208628        -1257.40075
     47       2.00000         -46.208628        -1257.40075
     48       2.00000         -46.208628        -1257.40075
     49       2.00000         -46.208628        -1257.40075
     50       2.00000         -46.208628        -1257.40075
     51       2.00000         -46.208628        -1257.40075
     52       2.00000         -46.208628        -1257.40075
     53       2.00000         -46.208628        -1257.40075
     54       2.00000         -46.208628        -1257.40075
     55       2.00000         -46.208628        -1257.40075
     56       2.00000         -46.208628        -1257.40075
     57       2.00000         -46.208628        -1257.40075
     58       2.00000         -46.208628        -1257.40075
     59       2.00000         -46.208628        -1257.40075
     60       2.00000         -46.208628        -1257.40075
     61       2.00000         -46.208628        -1257.40075
     62       2.00000         -46.208628        -1257.40075
     63       2.00000         -46.208628        -1257.40075
     64       2.00000         -46.208628        -1257.40075
     65       2.00000         -18.727866         -509.61116
     66       2.00000         -18.727866         -509.61116
     67       2.00000         -18.727866         -509.61116
     68       2.00000         -18.727866         -509.61116
     69       2.00000         -18.727866         -509.61116
     70       2.00000         -18.727866         -509.61116
     71       2.00000         -18.727866         -509.61116
     72       2.00000         -18.727866         -509.61116
     73       2.00000         -18.727866         -509.61116
     74       2.00000         -18.727866         -509.61116
     75       2.00000         -18.727866         -509.61116
     76       2.00000         -18.727866         -509.61116
     77       2.00000         -18.727866         -509.61116
     78       2.00000         -18.727866         -509.61116
     79       2.00000         -18.727866         -509.61116
     80       2.00000         -18.727866         -509.61116
     81       2.00000         -18.727866         -509.61116
     82       2.00000         -18.727866         -509.61116
     83       2.00000         -18.727866         -509.61116
     84       2.00000         -18.727866         -509.61116
     85       2.00000         -18.727866         -509.61116
     86       2.00000         -18.727866         -509.61116
     87       2.00000         -18.727866         -509.61116
     88       2.00000         -18.727866         -509.61116
     89       2.00000         -18.727866         -509.61116
     90       2.00000         -18.727866         -509.61116
     91       2.00000         -18.727866         -509.61116
     92       2.00000         -18.727866         -509.61116
     93       2.00000         -18.727866         -509.61116
     94       2.00000         -18.727866         -509.61116
     95       2.00000         -18.727866         -509.61116
     96       2.00000         -18.727866         -509.61116
     97       2.00000         -18.727866         -509.61116
     98       2.00000         -18.727866         -509.61116
     99       2.00000         -18.727866         -509.61116
    100       2.00000         -18.727866         -509.61116
    101       2.00000         -18.727866         -509.61116
    102       2.00000         -18.727866         -509.61116
    103       2.00000         -18.727866         -509.61116
    104       2.00000         -18.727866         -509.61116
    105       2.00000         -18.727866         -509.61116
    106       2.00000         -18.727866         -509.61116
    107       2.00000         -18.727866         -509.61116
    108       2.00000         -18.727866         -509.61116
    109       2.00000         -18.727866         -509.61116
    110       2.00000         -18.727866         -509.61116
    111       2.00000         -18.727866         -509.61116
    112       2.00000         -18.727866         -509.61116
    113       2.00000         -18.727866         -509.61116
    114       2.00000         -18.727866         -509.61116
    115       2.00000         -18.727866         -509.61116
    116       2.00000         -18.727866         -509.61116
    117       2.00000         -18.727866         -509.61116
    118       2.00000         -18.727866         -509.61116
    119       2.00000         -18.727866         -509.61116
    120       2.00000         -18.727866         -509.61116
    121       2.00000         -18.727866         -509.61116
    122       2.00000         -18.727866         -509.61116
    123       2.00000         -18.727866         -509.61116
    124       2.00000         -18.727866         -509.61116
    125       2.00000         -18.727866         -509.61116
    126       2.00000         -18.727866         -509.61116
    127       2.00000         -18.727866         -509.61116
    128       2.00000         -18.727866         -509.61116
    129       2.00000          -2.994303          -81.47913
    130       2.00000          -2.994134          -81.47454
    131       2.00000          -2.994134          -81.47454
    132       2.00000          -2.994134          -81.47454
    133       2.00000          -2.994134          -81.47454
    134       2.00000          -2.994134          -81.47454
    135       2.00000          -2.994134          -81.47454
    136       2.00000          -2.994134          -81.47454
    137       2.00000          -2.994134          -81.47454
    138       2.00000          -2.994079          -81.47303
    139       2.00000          -2.994079          -81.47303
    140       2.00000          -2.994079          -81.47303
    141       2.00000          -2.994079          -81.47303
    142       2.00000          -2.994079          -81.47303
    143       2.00000          -2.994079          -81.47303
    144       2.00000          -2.993966          -81.46996
    145       2.00000          -2.993966          -81.46996
    146       2.00000          -2.993966          -81.46996
    147       2.00000          -2.993966          -81.46996
    148       2.00000          -2.993966          -81.46996
    149       2.00000          -2.993966          -81.46996
    150       2.00000          -2.993966          -81.46996
    151       2.00000          -2.993966          -81.46996
    152       2.00000          -2.993966          -81.46996
    153       2.00000          -2.993966          -81.46996
    154       2.00000          -2.993966          -81.46996
    155       2.00000          -2.993966          -81.46996
    156       2.00000          -2.993965          -81.46993
    157       2.00000          -2.993965          -81.46993
    158       2.00000          -2.993965          -81.46993
    159       2.00000          -2.993965          -81.46993
    160       2.00000          -2.993910          -81.46844
    161       2.00000          -2.993910          -81.46844
    162       2.00000          -2.993910          -81.46844
    163       2.00000          -2.993910          -81.46844
    164       2.00000          -2.993910          -81.46844
    165       2.00000          -2.993910          -81.46844
    166       2.00000          -2.993910          -81.46844
    167       2.00000          -2.993910          -81.46844
    168       2.00000          -2.993910          -81.46844
    169       2.00000          -2.993910          -81.46844
    170       2.00000          -2.993910          -81.46844
    171       2.00000          -2.993910          -81.46844
    172       2.00000          -2.993910          -81.46844
    173       2.00000          -2.993910          -81.46844
    174       2.00000          -2.993910          -81.46844
    175       2.00000          -2.993910          -81.46844
    176       2.00000          -2.993910          -81.46844
    177       2.00000          -2.993910          -81.46844
    178       2.00000          -2.993910          -81.46844
    179       2.00000          -2.993910          -81.46844
    180       2.00000          -2.993910          -81.46844
    181       2.00000          -2.993910          -81.46844
    182       2.00000          -2.993910          -81.46844
    183       2.00000          -2.993910          -81.46844
    184       2.00000          -2.993855          -81.46694
    185       2.00000          -2.993855          -81.46694
    186       2.00000          -2.993855          -81.46694
    187       2.00000          -2.993854          -81.46693
    188       2.00000          -2.993854          -81.46693
    189       2.00000          -2.993854          -81.46693
    190       2.00000          -2.993854          -81.46693
    191       2.00000          -2.993854          -81.46692
    192       2.00000          -2.993854          -81.46692
    193       2.00000          -1.798925          -48.95124
    194       2.00000          -1.798925          -48.95123
    195       2.00000          -1.798924          -48.95121
    196       2.00000          -1.798924          -48.95121
    197       2.00000          -1.798445          -48.93818
    198       2.00000          -1.798445          -48.93817
    199       2.00000          -1.798445          -48.93817
    200       2.00000          -1.798253          -48.93295
    201       2.00000          -1.798253          -48.93295
    202       2.00000          -1.798253          -48.93295
    203       2.00000          -1.798253          -48.93295
    204       2.00000          -1.798253          -48.93295
    205       2.00000          -1.798253          -48.93295
    206       2.00000          -1.798253          -48.93294
    207       2.00000          -1.798253          -48.93294
    208       2.00000          -1.798253          -48.93294
    209       2.00000          -1.798253          -48.93294
    210       2.00000          -1.798253          -48.93294
    211       2.00000          -1.798253          -48.93294
    212       2.00000          -1.798252          -48.93293
    213       2.00000          -1.798252          -48.93293
    214       2.00000          -1.798252          -48.93293
    215       2.00000          -1.798252          -48.93293
    216       2.00000          -1.798252          -48.93292
    217       2.00000          -1.798252          -48.93292
    218       2.00000          -1.798252          -48.93292
    219       2.00000          -1.798252          -48.93292
    220       2.00000          -1.798252          -48.93292
    221       2.00000          -1.798252          -48.93292
    222       2.00000          -1.798252          -48.93292
    223       2.00000          -1.798252          -48.93292
    224       2.00000          -1.797971          -48.92529
    225       2.00000          -1.797971          -48.92529
    226       2.00000          -1.797971          -48.92528
    227       2.00000          -1.797971          -48.92528
    228       2.00000          -1.797971          -48.92528
    229       2.00000          -1.797971          -48.92528
    230       2.00000          -1.797971          -48.92527
    231       2.00000          -1.797971          -48.92527
    232       2.00000          -1.797971          -48.92527
    233       2.00000          -1.797971          -48.92527
    234       2.00000          -1.797970          -48.92524
    235       2.00000          -1.797970          -48.92524
    236       2.00000          -1.797612          -48.91552
    237       2.00000          -1.797612          -48.91552
    238       2.00000          -1.797612          -48.91552
    239       2.00000          -1.797612          -48.91552
    240       2.00000          -1.797612          -48.91552
    241       2.00000          -1.797612          -48.91552
    242       2.00000          -1.797612          -48.91550
    243       2.00000          -1.797612          -48.91550
    244       2.00000          -1.797612          -48.91550
    245       2.00000          -1.797612          -48.91550
    246       2.00000          -1.797611          -48.91549
    247       2.00000          -1.797611          -48.91549
    248       2.00000          -1.797325          -48.90769
    249       2.00000          -1.797325          -48.90769
    250       2.00000          -1.797324          -48.90768
    251       2.00000          -1.797324          -48.90768
    252       2.00000          -1.797323          -48.90766
    253       2.00000          -1.797323          -48.90766
    254       2.00000          -1.797323          -48.90766
    255       2.00000          -1.797323          -48.90766
    256       2.00000          -1.797163          -48.90330
    257       2.00000          -1.797163          -48.90330
    258       2.00000          -1.797163          -48.90328
    259       2.00000          -1.797163          -48.90328
    260       2.00000          -1.797163          -48.90328
    261       2.00000          -1.797163          -48.90328
    262       2.00000          -1.796925          -48.89681
    263       2.00000          -1.796925          -48.89681
    264       2.00000          -1.796925          -48.89681
    265       2.00000          -1.796925          -48.89681
    266       2.00000          -1.796924          -48.89679
    267       2.00000          -1.796924          -48.89679
    268       2.00000          -1.796924          -48.89679
    269       2.00000          -1.796924          -48.89679
    270       2.00000          -1.796924          -48.89679
    271       2.00000          -1.796924          -48.89679
    272       2.00000          -1.796924          -48.89679
    273       2.00000          -1.796924          -48.89679
    274       2.00000          -1.796859          -48.89501
    275       2.00000          -1.796859          -48.89501
    276       2.00000          -1.796858          -48.89500
    277       2.00000          -1.796858          -48.89500
    278       2.00000          -1.796858          -48.89500
    279       2.00000          -1.796858          -48.89500
    280       2.00000          -1.796847          -48.89468
    281       2.00000          -1.796847          -48.89468
    282       2.00000          -1.796847          -48.89468
    283       2.00000          -1.796847          -48.89468
    284       2.00000          -1.796847          -48.89468
    285       2.00000          -1.796847          -48.89468
    286       2.00000          -1.796846          -48.89467
    287       2.00000          -1.796846          -48.89467
    288       2.00000          -1.796846          -48.89467
    289       2.00000          -1.796846          -48.89467
    290       2.00000          -1.796846          -48.89467
    291       2.00000          -1.796846          -48.89467
    292       2.00000          -1.796846          -48.89465
    293       2.00000          -1.796846          -48.89465
    294       2.00000          -1.796846          -48.89465
    295       2.00000          -1.796846          -48.89465
    296       2.00000          -1.796845          -48.89465
    297       2.00000          -1.796845          -48.89465
    298       2.00000          -1.796845          -48.89465
    299       2.00000          -1.796845          -48.89465
    300       2.00000          -1.796845          -48.89465
    301       2.00000          -1.796845          -48.89465
    302       2.00000          -1.796845          -48.89465
    303       2.00000          -1.796845          -48.89465
    304       2.00000          -1.796784          -48.89297
    305       2.00000          -1.796784          -48.89297
    306       2.00000          -1.796784          -48.89297
    307       2.00000          -1.796783          -48.89295
    308       2.00000          -1.796783          -48.89295
    309       2.00000          -1.796782          -48.89293
    310       2.00000          -1.796411          -48.88283
    311       2.00000          -1.796411          -48.88283
    312       2.00000          -1.796411          -48.88283
    313       2.00000          -1.796411          -48.88283
    314       2.00000          -1.796411          -48.88282
    315       2.00000          -1.796411          -48.88282
    316       2.00000          -1.796411          -48.88282
    317       2.00000          -1.796411          -48.88282
    318       2.00000          -1.796411          -48.88282
    319       2.00000          -1.796411          -48.88282
    320       2.00000          -1.796411          -48.88282
    321       2.00000          -1.796411          -48.88282
    322       2.00000          -1.796410          -48.88282
    323       2.00000          -1.796410          -48.88282
    324       2.00000          -1.796410          -48.88282
    325       2.00000          -1.796410          -48.88282
    326       2.00000          -1.796410          -48.88282
    327       2.00000          -1.796410          -48.88282
    328       2.00000          -1.796410          -48.88282
    329       2.00000          -1.796410          -48.88282
    330       2.00000          -1.796410          -48.88279
    331       2.00000          -1.796410          -48.88279
    332       2.00000          -1.796410          -48.88279
    333       2.00000          -1.796410          -48.88279
    334       2.00000          -1.796241          -48.87821
    335       2.00000          -1.796241          -48.87821
    336       2.00000          -1.796241          -48.87820
    337       2.00000          -1.796241          -48.87820
    338       2.00000          -1.796241          -48.87820
    339       2.00000          -1.796241          -48.87820
    340       2.00000          -1.796240          -48.87819
    341       2.00000          -1.796240          -48.87819
    342       2.00000          -1.796240          -48.87819
    343       2.00000          -1.796240          -48.87819
    344       2.00000          -1.796240          -48.87817
    345       2.00000          -1.796240          -48.87817
    346       2.00000          -1.796041          -48.87275
    347       2.00000          -1.796041          -48.87275
    348       2.00000          -1.796040          -48.87274
    349       2.00000          -1.796040          -48.87274
    350       2.00000          -1.796040          -48.87274
    351       2.00000          -1.796040          -48.87274
    352       2.00000          -1.796040          -48.87273
    353       2.00000          -1.796040          -48.87273
    354       2.00000          -1.796040          -48.87273
    355       2.00000          -1.796040          -48.87273
    356       2.00000          -1.796039          -48.87271
    357       2.00000          -1.796039          -48.87271
    358       2.00000          -1.796038          -48.87268
    359       2.00000          -1.796038          -48.87268
    360       2.00000          -1.796038          -48.87268
    361       2.00000          -1.796038          -48.87267
    362       2.00000          -1.796037          -48.87266
    363       2.00000          -1.796037          -48.87266
    364       2.00000          -1.796037          -48.87264
    365       2.00000          -1.796037          -48.87264
    366       2.00000          -1.795870          -48.86812
    367       2.00000          -1.795870          -48.86812
    368       2.00000          -1.795870          -48.86812
    369       2.00000          -1.795870          -48.86812
    370       2.00000          -1.795870          -48.86812
    371       2.00000          -1.795870          -48.86812
    372       2.00000          -1.795870          -48.86811
    373       2.00000          -1.795870          -48.86811
    374       2.00000          -1.795870          -48.86810
    375       2.00000          -1.795870          -48.86810
    376       2.00000          -1.795870          -48.86810
    377       2.00000          -1.795870          -48.86810
    378       2.00000          -1.795869          -48.86808
    379       2.00000          -1.795869          -48.86808
    380       2.00000          -1.795869          -48.86808
    381       2.00000          -1.795869          -48.86808
    382       2.00000          -1.795702          -48.86355
    383       2.00000          -1.795702          -48.86354
    384       2.00000          -1.795701          -48.86351
    385       2.00000          -0.987863          -26.88112
    386       2.00000          -0.964860          -26.25517
    387       2.00000          -0.964860          -26.25517
    388       2.00000          -0.964860          -26.25517
    389       2.00000          -0.964860          -26.25517
    390       2.00000          -0.964859          -26.25515
    391       2.00000          -0.964859          -26.25515
    392       2.00000          -0.964858          -26.25513
    393       2.00000          -0.964858          -26.25513
    394       2.00000          -0.958834          -26.09119
    395       2.00000          -0.958834          -26.09119
    396       2.00000          -0.958831          -26.09113
    397       2.00000          -0.958831          -26.09113
    398       2.00000          -0.958831          -26.09113
    399       2.00000          -0.958831          -26.09113
    400       2.00000          -0.940637          -25.59604
    401       2.00000          -0.940637          -25.59604
    402       2.00000          -0.940636          -25.59601
    403       2.00000          -0.940636          -25.59601
    404       2.00000          -0.940636          -25.59601
    405       2.00000          -0.940636          -25.59601
    406       2.00000          -0.940636          -25.59601
    407       2.00000          -0.940636          -25.59601
    408       2.00000          -0.940636          -25.59600
    409       2.00000          -0.940636          -25.59600
    410       2.00000          -0.940636          -25.59600
    411       2.00000          -0.940636          -25.59600
    412       2.00000          -0.937265          -25.50427
    413       2.00000          -0.937265          -25.50427
    414       2.00000          -0.937264          -25.50426
    415       2.00000          -0.937264          -25.50426
    416       2.00000          -0.933496          -25.40173
    417       2.00000          -0.933496          -25.40173
    418       2.00000          -0.933496          -25.40171
    419       2.00000          -0.933496          -25.40171
    420       2.00000          -0.933496          -25.40171
    421       2.00000          -0.933496          -25.40171
    422       2.00000          -0.933496          -25.40170
    423       2.00000          -0.933496          -25.40170
    424       2.00000          -0.933496          -25.40170
    425       2.00000          -0.933496          -25.40170
    426       2.00000          -0.933495          -25.40170
    427       2.00000          -0.933495          -25.40170
    428       2.00000          -0.933495          -25.40170
    429       2.00000          -0.933495          -25.40170
    430       2.00000          -0.933495          -25.40168
    431       2.00000          -0.933495          -25.40168
    432       2.00000          -0.933495          -25.40168
    433       2.00000          -0.933495          -25.40168
    434       2.00000          -0.933495          -25.40168
    435       2.00000          -0.933495          -25.40168
    436       2.00000          -0.933495          -25.40168
    437       2.00000          -0.933495          -25.40168
    438       2.00000          -0.933495          -25.40168
    439       2.00000          -0.933495          -25.40168
    440       2.00000          -0.928905          -25.27679
    441       2.00000          -0.928904          -25.27676
    442       2.00000          -0.928904          -25.27676
    443       2.00000          -0.926412          -25.20895
    444       2.00000          -0.926412          -25.20895
    445       2.00000          -0.926412          -25.20895
    446       2.00000          -0.926412          -25.20895
    447       2.00000          -0.926410          -25.20890
    448       2.00000          -0.926410          -25.20890
    449       2.00000          -0.535709          -14.57739
    450       2.00000          -0.535708          -14.57735
    451       2.00000          -0.535705          -14.57727
    452       2.00000          -0.535705          -14.57727
    453       2.00000          -0.515032          -14.01474
    454       2.00000          -0.515032          -14.01474
    455       2.00000          -0.515027          -14.01460
    456       2.00000          -0.505616          -13.75852
    457       2.00000          -0.505616          -13.75852
    458       2.00000          -0.505616          -13.75852
    459       2.00000          -0.505616          -13.75852
    460       2.00000          -0.505615          -13.75849
    461       2.00000          -0.505615          -13.75849
    462       2.00000          -0.505615          -13.75849
    463       2.00000          -0.505615          -13.75849
    464       2.00000          -0.505614          -13.75846
    465       2.00000          -0.505614          -13.75846
    466       2.00000          -0.505614          -13.75846
    467       2.00000          -0.505614          -13.75846
    468       2.00000          -0.505614          -13.75846
    469       2.00000          -0.505614          -13.75846
    470       2.00000          -0.505614          -13.75846
    471       2.00000          -0.505614          -13.75846
    472       2.00000          -0.505614          -13.75845
    473       2.00000          -0.505614          -13.75845
    474       2.00000          -0.505612          -13.75839
    475       2.00000          -0.505612          -13.75839
    476       2.00000          -0.505612          -13.75839
    477       2.00000          -0.505612          -13.75839
    478       2.00000          -0.505609          -13.75833
    479       2.00000          -0.505609          -13.75833
    480       2.00000          -0.494013          -13.44277
    481       2.00000          -0.494013          -13.44277
    482       2.00000          -0.494011          -13.44272
    483       2.00000          -0.494011          -13.44272
    484       2.00000          -0.494011          -13.44272
    485       2.00000          -0.494011          -13.44272
    486       2.00000          -0.494011          -13.44272
    487       2.00000          -0.494011          -13.44272
    488       2.00000          -0.494011          -13.44272
    489       2.00000          -0.494011          -13.44272
    490       2.00000          -0.494005          -13.44255
    491       2.00000          -0.494005          -13.44255
    492       2.00000          -0.473437          -12.88287
    493       2.00000          -0.473437          -12.88287
    494       2.00000          -0.473434          -12.88280
    495       2.00000          -0.473434          -12.88280
    496       2.00000          -0.473434          -12.88280
    497       2.00000          -0.473434          -12.88280
    498       2.00000          -0.473434          -12.88279
    499       2.00000          -0.473434          -12.88279
    500       2.00000          -0.473430          -12.88268
    501       2.00000          -0.473430          -12.88268
    502       2.00000          -0.473430          -12.88268
    503       2.00000          -0.473430          -12.88268
    504       2.00000          -0.462447          -12.58381
    505       2.00000          -0.462447          -12.58381
    506       2.00000          -0.462446          -12.58380
    507       2.00000          -0.462446          -12.58380
    508       2.00000          -0.462446          -12.58380
    509       2.00000          -0.462446          -12.58380
    510       2.00000          -0.462446          -12.58380
    511       2.00000          -0.462446          -12.58380
    512       2.00000          -0.461536          -12.55904
    513       2.00000          -0.461536          -12.55904
    514       2.00000          -0.461536          -12.55904
    515       2.00000          -0.461536          -12.55904
    516       2.00000          -0.461533          -12.55894
    517       2.00000          -0.461533          -12.55894
    518       2.00000          -0.438068          -11.92042
    519       2.00000          -0.438068          -11.92042
    520       2.00000          -0.438067          -11.92040
    521       2.00000          -0.438067          -11.92040
    522       2.00000          -0.438067          -11.92040
    523       2.00000          -0.438067          -11.92040
    524       2.00000          -0.438064          -11.92034
    525       2.00000          -0.438064          -11.92034
    526       2.00000          -0.438064          -11.92033
    527       2.00000          -0.438064          -11.92033
    528       2.00000          -0.438064          -11.92033
    529       2.00000          -0.438064          -11.92033
    530       2.00000          -0.435124          -11.84031
    531       2.00000          -0.435124          -11.84031
    532       2.00000          -0.435124          -11.84031
    533       2.00000          -0.435124          -11.84031
    534       2.00000          -0.435122          -11.84028
    535       2.00000          -0.435122          -11.84028
    536       2.00000          -0.435122          -11.84028
    537       2.00000          -0.435122          -11.84028
    538       2.00000          -0.435122          -11.84028
    539       2.00000          -0.435122          -11.84028
    540       2.00000          -0.435122          -11.84028
    541       2.00000          -0.435122          -11.84028
    542       2.00000          -0.435122          -11.84028
    543       2.00000          -0.435122          -11.84028
    544       2.00000          -0.435120          -11.84022
    545       2.00000          -0.435120          -11.84022
    546       2.00000          -0.435120          -11.84022
    547       2.00000          -0.435120          -11.84022
    548       2.00000          -0.435119          -11.84020
    549       2.00000          -0.435119          -11.84020
    550       2.00000          -0.435119          -11.84020
    551       2.00000          -0.435119          -11.84020
    552       2.00000          -0.435117          -11.84013
    553       2.00000          -0.435117          -11.84013
    554       2.00000          -0.430112          -11.70395
    555       2.00000          -0.430112          -11.70395
    556       2.00000          -0.430112          -11.70395
    557       2.00000          -0.430112          -11.70395
    558       2.00000          -0.430111          -11.70392
    559       2.00000          -0.430111          -11.70392
    560       2.00000          -0.413586          -11.25424
    561       2.00000          -0.413586          -11.25424
    562       2.00000          -0.413585          -11.25422
    563       2.00000          -0.413583          -11.25417
    564       2.00000          -0.413583          -11.25417
    565       2.00000          -0.413582          -11.25415
    566       2.00000          -0.401589          -10.92779
    567       2.00000          -0.401589          -10.92779
    568       2.00000          -0.401589          -10.92779
    569       2.00000          -0.401589          -10.92779
    570       2.00000          -0.401588          -10.92778
    571       2.00000          -0.401588          -10.92778
    572       2.00000          -0.401588          -10.92778
    573       2.00000          -0.401588          -10.92778
    574       2.00000          -0.401588          -10.92776
    575       2.00000          -0.401588          -10.92776
    576       2.00000          -0.401588          -10.92776
    577       2.00000          -0.401588          -10.92776
    578       2.00000          -0.401587          -10.92774
    579       2.00000          -0.401587          -10.92774
    580       2.00000          -0.401587          -10.92774
    581       2.00000          -0.401587          -10.92774
    582       2.00000          -0.401587          -10.92774
    583       2.00000          -0.401587          -10.92774
    584       2.00000          -0.401587          -10.92774
    585       2.00000          -0.401587          -10.92774
    586       2.00000          -0.401585          -10.92769
    587       2.00000          -0.401585          -10.92769
    588       2.00000          -0.401585          -10.92769
    589       2.00000          -0.401585          -10.92769
    590       2.00000          -0.390942          -10.63807
    591       2.00000          -0.390942          -10.63807
    592       2.00000          -0.390942          -10.63807
    593       2.00000          -0.390942          -10.63807
    594       2.00000          -0.390941          -10.63803
    595       2.00000          -0.390941          -10.63803
    596       2.00000          -0.390940          -10.63803
    597       2.00000          -0.390940          -10.63803
    598       2.00000          -0.390940          -10.63802
    599       2.00000          -0.390940          -10.63802
    600       2.00000          -0.390940          -10.63802
    601       2.00000          -0.390940          -10.63802
    602       2.00000          -0.388328          -10.56694
    603       2.00000          -0.388328          -10.56693
    604       2.00000          -0.388328          -10.56693
    605       2.00000          -0.388326          -10.56688
    606       2.00000          -0.388324          -10.56684
    607       2.00000          -0.388323          -10.56682
    608       2.00000          -0.388323          -10.56682
    609       2.00000          -0.388321          -10.56675
    610       2.00000          -0.388274          -10.56547
    611       2.00000          -0.388274          -10.56547
    612       2.00000          -0.388273          -10.56544
    613       2.00000          -0.388273          -10.56544
    614       2.00000          -0.388272          -10.56541
    615       2.00000          -0.388272          -10.56541
    616       2.00000          -0.388272          -10.56541
    617       2.00000          -0.388272          -10.56541
    618       2.00000          -0.388271          -10.56540
    619       2.00000          -0.388271          -10.56540
    620       2.00000          -0.388271          -10.56540
    621       2.00000          -0.388271          -10.56540
    622       2.00000          -0.376288          -10.23933
    623       2.00000          -0.376288          -10.23933
    624       2.00000          -0.376288          -10.23933
    625       2.00000          -0.376288          -10.23933
    626       2.00000          -0.376287          -10.23930
    627       2.00000          -0.376287          -10.23930
    628       2.00000          -0.376286          -10.23925
    629       2.00000          -0.376286          -10.23925
    630       2.00000          -0.376285          -10.23924
    631       2.00000          -0.376285          -10.23924
    632       2.00000          -0.376285          -10.23924
    633       2.00000          -0.376285          -10.23924
    634       2.00000          -0.376285          -10.23924
    635       2.00000          -0.376285          -10.23924
    636       2.00000          -0.376284          -10.23922
    637       2.00000          -0.376284          -10.23922
    638       2.00000          -0.363240           -9.88428
    639       2.00000          -0.363238           -9.88422
    640       2.00000          -0.363237           -9.88418
    641       0.00000          -0.195500           -5.31984
    642       0.00000          -0.108740           -2.95897
    643       0.00000          -0.108740           -2.95897
    644       0.00000          -0.108730           -2.95869
    645       0.00000          -0.108730           -2.95869
    646       0.00000          -0.108728           -2.95864
    647       0.00000          -0.108728           -2.95864
    648       0.00000          -0.108728           -2.95864
    649       0.00000          -0.108728           -2.95864
    650       0.00000          -0.074293           -2.02162
    651       0.00000          -0.074293           -2.02162
    652       0.00000          -0.074293           -2.02162
    653       0.00000          -0.074293           -2.02162
    654       0.00000          -0.074276           -2.02116
    655       0.00000          -0.074276           -2.02116
    656       0.00000          -0.070346           -1.91421
    657       0.00000          -0.070334           -1.91389
    658       0.00000          -0.070329           -1.91374
    659       0.00000          -0.070329           -1.91374
    660       0.00000          -0.036327           -0.98850
    661       0.00000          -0.036327           -0.98850
    662       0.00000          -0.036265           -0.98681
    663       0.00000          -0.018987           -0.51667
    664       0.00000          -0.018987           -0.51667
    665       0.00000          -0.018976           -0.51638
    666       0.00000          -0.018976           -0.51638
    667       0.00000          -0.018976           -0.51638
    668       0.00000          -0.018976           -0.51638
    669       0.00000          -0.018974           -0.51630
    670       0.00000          -0.018974           -0.51630
    671       0.00000          -0.018974           -0.51630
    672       0.00000          -0.018974           -0.51630
    673       0.00000          -0.018968           -0.51614
    674       0.00000          -0.018968           -0.51614
    675       0.00000          -0.010596           -0.28832
    676       0.00000          -0.010596           -0.28832
    677       0.00000          -0.010587           -0.28809
    678       0.00000          -0.010587           -0.28809
    679       0.00000          -0.010576           -0.28778
    680       0.00000          -0.010576           -0.28778
    681       0.00000          -0.010576           -0.28778
    682       0.00000          -0.010576           -0.28778
    683       0.00000          -0.010571           -0.28765
    684       0.00000          -0.010571           -0.28765
    685       0.00000          -0.010571           -0.28765
    686       0.00000          -0.010571           -0.28765
    687       0.00000          -0.010569           -0.28760
    688       0.00000          -0.010569           -0.28760
    689       0.00000          -0.010569           -0.28760
    690       0.00000          -0.010569           -0.28760
    691       0.00000          -0.010566           -0.28753
    692       0.00000          -0.010566           -0.28753
    693       0.00000          -0.010566           -0.28753
    694       0.00000          -0.010566           -0.28753
    695       0.00000          -0.010566           -0.28752
    696       0.00000          -0.010566           -0.28752
    697       0.00000          -0.010566           -0.28752
    698       0.00000          -0.010566           -0.28752
    699       0.00000          -0.008762           -0.23844
    700       0.00000          -0.008724           -0.23740
    701       0.00000          -0.008724           -0.23740
    702       0.00000           0.049448            1.34555
    703       0.00000           0.049448            1.34555
    704       0.00000           0.049448            1.34555
    705       0.00000           0.049448            1.34555
    706       0.00000           0.049492            1.34675
    707       0.00000           0.049492            1.34675
    708       0.00000           0.055624            1.51361
    709       0.00000           0.055624            1.51361
    710       0.00000           0.055624            1.51361
    711       0.00000           0.055624            1.51361
    712       0.00000           0.055626            1.51365
    713       0.00000           0.055626            1.51365
    714       0.00000           0.055638            1.51400
    715       0.00000           0.055638            1.51400
    716       0.00000           0.055638            1.51400
    717       0.00000           0.055638            1.51400
    718       0.00000           0.055639            1.51403
    719       0.00000           0.055639            1.51403
    720       0.00000           0.055639            1.51403
    721       0.00000           0.055639            1.51403
    722       0.00000           0.055642            1.51408
    723       0.00000           0.055642            1.51408
    724       0.00000           0.055648            1.51427
    725       0.00000           0.055648            1.51427
    726       0.00000           0.055648            1.51427
    727       0.00000           0.055648            1.51427
    728       0.00000           0.055686            1.51530
    729       0.00000           0.055686            1.51530
    730       0.00000           0.055686            1.51530
    731       0.00000           0.055686            1.51530
    732       0.00000           0.063010            1.71458
    733       0.00000           0.063010            1.71458
    734       0.00000           0.063010            1.71458
    735       0.00000           0.063010            1.71458
    736       0.00000           0.063017            1.71477
    737       0.00000           0.063017            1.71477
    738       0.00000           0.063044            1.71551
    739       0.00000           0.063044            1.71551
    740       0.00000           0.063057            1.71586
    741       0.00000           0.063057            1.71586
    742       0.00000           0.063057            1.71586
    743       0.00000           0.063057            1.71586
    744       0.00000           0.073566            2.00182
    745       0.00000           0.073566            2.00182
    746       0.00000           0.073566            2.00182
    747       0.00000           0.073566            2.00182
    748       0.00000           0.073606            2.00293
    749       0.00000           0.073606            2.00293
    750       0.00000           0.074068            2.01550
    751       0.00000           0.074068            2.01550
    752       0.00000           0.074076            2.01572
    753       0.00000           0.074076            2.01572
    754       0.00000           0.074076            2.01572
    755       0.00000           0.074076            2.01572
    756       0.00000           0.074081            2.01584
    757       0.00000           0.074081            2.01584
    758       0.00000           0.074081            2.01584
    759       0.00000           0.074081            2.01584
    760       0.00000           0.074091            2.01613
    761       0.00000           0.074091            2.01613
    762       0.00000           0.090508            2.46284
    763       0.00000           0.090512            2.46295
    764       0.00000           0.090525            2.46331
    765       0.00000           0.090525            2.46331
    766       0.00000           0.109450            2.97830
    767       0.00000           0.109450            2.97830
    768       0.00000           0.109450            2.97830
    769       0.00000           0.109450            2.97830
    770       0.00000           0.109488            2.97931
    771       0.00000           0.109488            2.97931
    772       0.00000           0.109504            2.97975
    773       0.00000           0.109504            2.97975
    774       0.00000           0.121176            3.29736
    775       0.00000           0.121176            3.29736
    776       0.00000           0.121195            3.29790
    777       0.00000           0.129271            3.51765
    778       0.00000           0.129271            3.51765
    779       0.00000           0.129291            3.51820
    780       0.00000           0.129291            3.51820
    781       0.00000           0.129306            3.51859
    782       0.00000           0.129306            3.51859
    783       0.00000           0.129306            3.51859
    784       0.00000           0.129306            3.51859
    785       0.00000           0.129308            3.51866
    786       0.00000           0.129308            3.51866
    787       0.00000           0.129308            3.51866
    788       0.00000           0.129308            3.51866
    789       0.00000           0.129315            3.51883
    790       0.00000           0.129315            3.51883
    791       0.00000           0.129315            3.51883
    792       0.00000           0.129315            3.51883
    793       0.00000           0.129329            3.51922
    794       0.00000           0.129329            3.51922
    795       0.00000           0.129329            3.51922
    796       0.00000           0.129329            3.51922
    797       0.00000           0.129337            3.51943
    798       0.00000           0.129337            3.51943
    799       0.00000           0.129337            3.51943
    800       0.00000           0.129337            3.51943
    801       0.00000           0.157696            4.29114
    802       0.00000           0.157696            4.29114
    803       0.00000           0.157712            4.29157
    804       0.00000           0.157712            4.29157
    805       0.00000           0.157712            4.29157
    806       0.00000           0.157712            4.29157
    807       0.00000           0.157726            4.29195
    808       0.00000           0.157726            4.29195
    809       0.00000           0.157726            4.29195
    810       0.00000           0.157726            4.29195
    811       0.00000           0.157760            4.29286
    812       0.00000           0.157760            4.29286
    813       0.00000           0.207776            5.65388
    814       0.00000           0.207776            5.65388
    815       0.00000           0.207776            5.65388
    816       0.00000           0.207776            5.65388
    817       0.00000           0.207784            5.65410
    818       0.00000           0.207784            5.65410
    819       0.00000           0.215385            5.86091
    820       0.00000           0.215385            5.86091
    821       0.00000           0.215424            5.86200
    822       0.00000           0.215424            5.86200
    823       0.00000           0.215424            5.86200
    824       0.00000           0.215424            5.86200
    825       0.00000           0.216054            5.87913
    826       0.00000           0.216249            5.88444
    827       0.00000           0.216311            5.88612
    828       0.00000           0.262535            7.14394
    829       0.00000           0.262535            7.14394
    830       0.00000           0.262535            7.14394
    831       0.00000           0.262535            7.14394
    832       0.00000           0.262634            7.14664
    833       0.00000           0.262634            7.14664
    834       0.00000           0.262636            7.14669
    835       0.00000           0.262636            7.14669
    836       0.00000           0.262647            7.14700
    837       0.00000           0.262647            7.14700
    838       0.00000           0.262669            7.14758
    839       0.00000           0.262669            7.14758
    840       0.00000           0.262703            7.14850
    841       0.00000           0.262703            7.14850
    842       0.00000           0.262703            7.14850
    843       0.00000           0.262703            7.14850
    844       0.00000           0.274666            7.47405
    845       0.00000           0.274666            7.47405
    846       0.00000           0.274713            7.47533
    847       0.00000           0.274752            7.47637
    848       0.00000           0.274759            7.47657
    849       0.00000           0.274791            7.47743
    850       0.00000           0.274825            7.47836
    851       0.00000           0.274825            7.47837
    852       0.00000           0.293826            7.99541
    853       0.00000           0.293826            7.99541
    854       0.00000           0.293914            7.99780
    855       0.00000           0.293914            7.99780
    856       0.00000           0.293914            7.99780
    857       0.00000           0.293914            7.99780
    858       0.00000           0.293962            7.99911
    859       0.00000           0.293962            7.99911
    860       0.00000           0.293984            7.99972
    861       0.00000           0.293984            7.99972
    862       0.00000           0.293984            7.99972
    863       0.00000           0.293984            7.99972
    864       0.00000           0.298509            8.12284
    865       0.00000           0.298509            8.12284
    866       0.00000           0.298597            8.12524
    867       0.00000           0.298597            8.12524
    868       0.00000           0.298607            8.12551
    869       0.00000           0.298607            8.12551
    870       0.00000           0.298607            8.12551
    871       0.00000           0.298607            8.12551
    872       0.00000           0.298630            8.12615
    873       0.00000           0.298630            8.12615
    874       0.00000           0.298631            8.12615
    875       0.00000           0.298631            8.12615
    876       0.00000           0.309648            8.42595
    877       0.00000           0.309648            8.42595
    878       0.00000           0.309648            8.42595
    879       0.00000           0.309648            8.42595
    880       0.00000           0.309748            8.42866
    881       0.00000           0.309748            8.42866
    882       0.00000           0.309748            8.42866
    883       0.00000           0.309748            8.42866
    884       0.00000           0.309748            8.42867
    885       0.00000           0.309748            8.42867
    886       0.00000           0.309750            8.42873
    887       0.00000           0.309750            8.42873
    888       0.00000           0.309750            8.42873
    889       0.00000           0.309750            8.42873
    890       0.00000           0.309752            8.42878
    891       0.00000           0.309752            8.42878
    892       0.00000           0.309752            8.42878
    893       0.00000           0.309752            8.42878
    894       0.00000           0.309760            8.42900
    895       0.00000           0.309760            8.42900
    896       0.00000           0.309776            8.42943
    897       0.00000           0.309776            8.42943
    898       0.00000           0.309776            8.42943
    899       0.00000           0.309776            8.42943
    900       0.00000           0.332364            9.04408
    901       0.00000           0.332364            9.04408
    902       0.00000           0.332373            9.04433
    903       0.00000           0.332373            9.04433
    904       0.00000           0.332432            9.04594
    905       0.00000           0.332432            9.04594
    906       0.00000           0.332432            9.04594
    907       0.00000           0.332432            9.04594
    908       0.00000           0.332441            9.04617
    909       0.00000           0.332441            9.04617
    910       0.00000           0.332441            9.04617
    911       0.00000           0.332441            9.04617
    912       0.00000           0.332441            9.04617
    913       0.00000           0.332441            9.04617
    914       0.00000           0.332441            9.04617
    915       0.00000           0.332441            9.04617
    916       0.00000           0.332449            9.04640
    917       0.00000           0.332449            9.04640
    918       0.00000           0.332449            9.04640
    919       0.00000           0.332449            9.04640
    920       0.00000           0.332489            9.04748
    921       0.00000           0.332489            9.04748
    922       0.00000           0.332489            9.04748
    923       0.00000           0.332489            9.04748
    924       0.00000           0.349490            9.51010
    925       0.00000           0.349585            9.51269
    926       0.00000           0.349585            9.51269
    927       0.00000           0.349628            9.51386
    928       0.00000           0.349652            9.51452
    929       0.00000           0.349652            9.51452
    930       0.00000           0.381980           10.39420
    931       0.00000           0.381980           10.39420
    932       0.00000           0.381991           10.39450
    933       0.00000           0.381991           10.39450
    934       0.00000           0.381991           10.39450
    935       0.00000           0.381991           10.39450
    936       0.00000           0.382070           10.39666
    937       0.00000           0.382070           10.39666
    938       0.00000           0.382099           10.39745
    939       0.00000           0.382099           10.39745
    940       0.00000           0.382126           10.39817
    941       0.00000           0.382126           10.39817
    942       0.00000           0.382136           10.39845
    943       0.00000           0.382136           10.39845
    944       0.00000           0.382136           10.39845
    945       0.00000           0.382136           10.39845
    946       0.00000           0.394620           10.73815
    947       0.00000           0.394620           10.73815
    948       0.00000           0.394732           10.74120
    949       0.00000           0.394732           10.74120
    950       0.00000           0.394732           10.74120
    951       0.00000           0.394732           10.74120
    952       0.00000           0.394735           10.74129
    953       0.00000           0.394735           10.74129
    954       0.00000           0.394763           10.74205
    955       0.00000           0.394763           10.74205
    956       0.00000           0.394763           10.74205
    957       0.00000           0.394763           10.74205
    958       0.00000           0.409738           11.14954
    959       0.00000           0.409738           11.14954
    960       0.00000           0.409738           11.14954
    961       0.00000           0.409738           11.14954
    962       0.00000           0.409760           11.15013
    963       0.00000           0.409760           11.15013
    964       0.00000           0.409760           11.15013
    965       0.00000           0.409760           11.15013
    966       0.00000           0.409769           11.15039
    967       0.00000           0.409769           11.15039
    968       0.00000           0.409864           11.15297
    969       0.00000           0.409864           11.15297
    970       0.00000           0.414598           11.28179
    971       0.00000           0.414598           11.28179
    972       0.00000           0.414688           11.28422
    973       0.00000           0.414749           11.28589
    974       0.00000           0.419580           11.41736
    975       0.00000           0.419699           11.42059
    976       0.00000           0.463395           12.60961
    977       0.00000           0.463395           12.60961
    978       0.00000           0.463512           12.61281
    979       0.00000           0.463523           12.61309
    980       0.00000           0.463572           12.61444
    981       0.00000           0.463572           12.61444
    982       0.00000           0.463580           12.61465
    983       0.00000           0.463594           12.61503
    984       0.00000           0.474847           12.92124
    985       0.00000           0.474847           12.92124
    986       0.00000           0.474847           12.92124
    987       0.00000           0.474847           12.92124
    988       0.00000           0.474942           12.92383
    989       0.00000           0.474942           12.92383
    990       0.00000           0.474942           12.92383
    991       0.00000           0.474942           12.92383
    992       0.00000           0.474960           12.92431
    993       0.00000           0.474960           12.92431
    994       0.00000           0.475006           12.92557
    995       0.00000           0.475006           12.92557
    996       0.00000           0.489294           13.31437
    997       0.00000           0.489294           13.31437
    998       0.00000           0.489327           13.31526
    999       0.00000           0.489327           13.31526
   1000       0.00000           0.489327           13.31526
   1001       0.00000           0.489327           13.31526
   1002       0.00000           0.489359           13.31615
   1003       0.00000           0.489359           13.31615
   1004       0.00000           0.494486           13.45565
   1005       0.00000           0.494486           13.45565
   1006       0.00000           0.494486           13.45565
   1007       0.00000           0.494486           13.45565
   1008       0.00000           0.494625           13.45944
   1009       0.00000           0.494625           13.45944
   1010       0.00000           0.544408           14.81408
   1011       0.00000           0.544479           14.81603
   1012       0.00000           0.544534           14.81753
   1013       0.00000           0.552785           15.04204
   1014       0.00000           0.552785           15.04204
   1015       0.00000           0.552785           15.04204
   1016       0.00000           0.552785           15.04204
   1017       0.00000           0.552790           15.04218
   1018       0.00000           0.552790           15.04218
   1019       0.00000           0.552825           15.04315
   1020       0.00000           0.552825           15.04315
   1021       0.00000           0.552825           15.04315
   1022       0.00000           0.552825           15.04315
   1023       0.00000           0.552832           15.04332
   1024       0.00000           0.552832           15.04332

  What follows are estimated values for band gap, HOMO, LUMO, etc.
  | They are estimated on a discrete k-point grid and not necessarily exact.
  | For converged numbers, create a DOS and/or band structure plot on a denser k-grid.

  Highest occupied state (VBM) at     -9.88418050 eV (relative to internal zero)
  | Occupation number:      2.00000000
  | K-point:       1 at    0.000000    0.000000    0.000000 (in units of recip. lattice)

  Lowest unoccupied state (CBM) at    -5.31983683 eV (relative to internal zero)
  | Occupation number:      0.00000000
  | K-point:       1 at    0.000000    0.000000    0.000000 (in units of recip. lattice)

  The gap value is above 0.2 eV. Unless you are using a very sparse k-point grid,
  this system is most likely an insulator or a semiconductor.
  ESTIMATED overall HOMO-LUMO gap:      4.56434368 eV between HOMO at k-point 1 and LUMO at k-point 1
  | This appears to be a direct band gap.

  Total energy components:
  | Sum of eigenvalues            :       -9673.39390394 Ha     -263226.44094002 eV
  | XC energy correction          :       -1524.34891071 Ha      -41479.64432157 eV
  | XC potential correction       :        2011.43129669 Ha       54733.83040958 eV
  | Free-atom electrostatic energy:       -8364.06599103 Ha     -227597.81566519 eV
  | Hartree energy correction     :         -27.98069410 Ha        -761.39342582 eV
  | Entropy correction            :           0.00000000 Ha           0.00000000 eV
  | ---------------------------
  | Total energy                  :      -17578.35820309 Ha     -478331.46394303 eV
  | Total energy, T -> 0          :      -17578.35820309 Ha     -478331.46394303 eV  <-- do not rely on this value for anything but (periodic) metals
  | Electronic free energy        :      -17578.35820309 Ha     -478331.46394303 eV

  Derived energy quantities:
  | Kinetic energy                :       17553.31093085 Ha      477649.89298745 eV
  | Electrostatic energy          :      -33607.32022323 Ha     -914501.71260890 eV
  | Energy correction for multipole
  | error in Hartree potential    :           0.19825228 Ha           5.39471906 eV
  | Sum of eigenvalues per atom                           :       -2056.45656984 eV
  | Total energy (T->0) per atom                          :       -3736.96456205 eV  <-- do not rely on this value for anything but (periodic) metals
  | Electronic free energy per atom                       :       -3736.96456205 eV

  Self-consistency convergence accuracy:
  | Change of charge density      :  0.4036E-08
  | Change of unmixed KS density  :  0.4036E-08
  | Change of sum of eigenvalues  : -0.1316E-06 eV
  | Change of total energy        :  0.4554E-08 eV

  Writing Kohn-Sham eigenvalues.
  K-point:       1 at    0.000000    0.000000    0.000000 (in units of recip. lattice)

  State    Occupation    Eigenvalue [Ha]    Eigenvalue [eV]
      1       2.00000         -46.208628        -1257.40075
      2       2.00000         -46.208628        -1257.40075
      3       2.00000         -46.208628        -1257.40075
      4       2.00000         -46.208628        -1257.40075
      5       2.00000         -46.208628        -1257.40075
      6       2.00000         -46.208628        -1257.40075
      7       2.00000         -46.208628        -1257.40075
      8       2.00000         -46.208628        -1257.40075
      9       2.00000         -46.208628        -1257.40075
     10       2.00000         -46.208628        -1257.40075
     11       2.00000         -46.208628        -1257.40075
     12       2.00000         -46.208628        -1257.40075
     13       2.00000         -46.208628        -1257.40075
     14       2.00000         -46.208628        -1257.40075
     15       2.00000         -46.208628        -1257.40075
     16       2.00000         -46.208628        -1257.40075
     17       2.00000         -46.208628        -1257.40075
     18       2.00000         -46.208628        -1257.40075
     19       2.00000         -46.208628        -1257.40075
     20       2.00000         -46.208628        -1257.40075
     21       2.00000         -46.208628        -1257.40075
     22       2.00000         -46.208628        -1257.40075
     23       2.00000         -46.208628        -1257.40075
     24       2.00000         -46.208628        -1257.40075
     25       2.00000         -46.208628        -1257.40075
     26       2.00000         -46.208628        -1257.40075
     27       2.00000         -46.208628        -1257.40075
     28       2.00000         -46.208628        -1257.40075
     29       2.00000         -46.208628        -1257.40075
     30       2.00000         -46.208628        -1257.40075
     31       2.00000         -46.208628        -1257.40075
     32       2.00000         -46.208628        -1257.40075
     33       2.00000         -46.208628        -1257.40075
     34       2.00000         -46.208628        -1257.40075
     35       2.00000         -46.208628        -1257.40075
     36       2.00000         -46.208628        -1257.40075
     37       2.00000         -46.208628        -1257.40075
     38       2.00000         -46.208628        -1257.40075
     39       2.00000         -46.208628        -1257.40075
     40       2.00000         -46.208628        -1257.40075
     41       2.00000         -46.208628        -1257.40075
     42       2.00000         -46.208628        -1257.40075
     43       2.00000         -46.208628        -1257.40075
     44       2.00000         -46.208628        -1257.40075
     45       2.00000         -46.208628        -1257.40075
     46       2.00000         -46.208628        -1257.40075
     47       2.00000         -46.208628        -1257.40075
     48       2.00000         -46.208628        -1257.40075
     49       2.00000         -46.208628        -1257.40075
     50       2.00000         -46.208628        -1257.40075
     51       2.00000         -46.208628        -1257.40075
     52       2.00000         -46.208628        -1257.40075
     53       2.00000         -46.208628        -1257.40075
     54       2.00000         -46.208628        -1257.40075
     55       2.00000         -46.208628        -1257.40075
     56       2.00000         -46.208628        -1257.40075
     57       2.00000         -46.208628        -1257.40075
     58       2.00000         -46.208628        -1257.40075
     59       2.00000         -46.208628        -1257.40075
     60       2.00000         -46.208628        -1257.40075
     61       2.00000         -46.208628        -1257.40075
     62       2.00000         -46.208628        -1257.40075
     63       2.00000         -46.208628        -1257.40075
     64       2.00000         -46.208628        -1257.40075
     65       2.00000         -18.727866         -509.61116
     66       2.00000         -18.727866         -509.61116
     67       2.00000         -18.727866         -509.61116
     68       2.00000         -18.727866         -509.61116
     69       2.00000         -18.727866         -509.61116
     70       2.00000         -18.727866         -509.61116
     71       2.00000         -18.727866         -509.61116
     72       2.00000         -18.727866         -509.61116
     73       2.00000         -18.727866         -509.61116
     74       2.00000         -18.727866         -509.61116
     75       2.00000         -18.727866         -509.61116
     76       2.00000         -18.727866         -509.61116
     77       2.00000         -18.727866         -509.61116
     78       2.00000         -18.727866         -509.61116
     79       2.00000         -18.727866         -509.61116
     80       2.00000         -18.727866         -509.61116
     81       2.00000         -18.727866         -509.61116
     82       2.00000         -18.727866         -509.61116
     83       2.00000         -18.727866         -509.61116
     84       2.00000         -18.727866         -509.61116
     85       2.00000         -18.727866         -509.61116
     86       2.00000         -18.727866         -509.61116
     87       2.00000         -18.727866         -509.61116
     88       2.00000         -18.727866         -509.61116
     89       2.00000         -18.727866         -509.61116
     90       2.00000         -18.727866         -509.61116
     91       2.00000         -18.727866         -509.61116
     92       2.00000         -18.727866         -509.61116
     93       2.00000         -18.727866         -509.61116
     94       2.00000         -18.727866         -509.61116
     95       2.00000         -18.727866         -509.61116
     96       2.00000         -18.727866         -509.61116
     97       2.00000         -18.727866         -509.61116
     98       2.00000         -18.727866         -509.61116
     99       2.00000         -18.727866         -509.61116
    100       2.00000         -18.727866         -509.61116
    101       2.00000         -18.727866         -509.61116
    102       2.00000         -18.727866         -509.61116
    103       2.00000         -18.727866         -509.61116
    104       2.00000         -18.727866         -509.61116
    105       2.00000         -18.727866         -509.61116
    106       2.00000         -18.727866         -509.61116
    107       2.00000         -18.727866         -509.61116
    108       2.00000         -18.727866         -509.61116
    109       2.00000         -18.727866         -509.61116
    110       2.00000         -18.727866         -509.61116
    111       2.00000         -18.727866         -509.61116
    112       2.00000         -18.727866         -509.61116
    113       2.00000         -18.727866         -509.61116
    114       2.00000         -18.727866         -509.61116
    115       2.00000         -18.727866         -509.61116
    116       2.00000         -18.727866         -509.61116
    117       2.00000         -18.727866         -509.61116
    118       2.00000         -18.727866         -509.61116
    119       2.00000         -18.727866         -509.61116
    120       2.00000         -18.727866         -509.61116
    121       2.00000         -18.727866         -509.61116
    122       2.00000         -18.727866         -509.61116
    123       2.00000         -18.727866         -509.61116
    124       2.00000         -18.727866         -509.61116
    125       2.00000         -18.727866         -509.61116
    126       2.00000         -18.727866         -509.61116
    127       2.00000         -18.727866         -509.61116
    128       2.00000         -18.727866         -509.61116
    129       2.00000          -2.994303          -81.47913
    130       2.00000          -2.994134          -81.47454
    131       2.00000          -2.994134          -81.47454
    132       2.00000          -2.994134          -81.47454
    133       2.00000          -2.994134          -81.47454
    134       2.00000          -2.994134          -81.47454
    135       2.00000          -2.994134          -81.47454
    136       2.00000          -2.994134          -81.47454
    137       2.00000          -2.994134          -81.47454
    138       2.00000          -2.994079          -81.47303
    139       2.00000          -2.994079          -81.47303
    140       2.00000          -2.994079          -81.47303
    141       2.00000          -2.994079          -81.47303
    142       2.00000          -2.994079          -81.47303
    143       2.00000          -2.994079          -81.47303
    144       2.00000          -2.993966          -81.46996
    145       2.00000          -2.993966          -81.46996
    146       2.00000          -2.993966          -81.46996
    147       2.00000          -2.993966          -81.46996
    148       2.00000          -2.993966          -81.46996
    149       2.00000          -2.993966          -81.46996
    150       2.00000          -2.993966          -81.46996
    151       2.00000          -2.993966          -81.46996
    152       2.00000          -2.993966          -81.46996
    153       2.00000          -2.993966          -81.46996
    154       2.00000          -2.993966          -81.46996
    155       2.00000          -2.993966          -81.46996
    156       2.00000          -2.993965          -81.46993
    157       2.00000          -2.993965          -81.46993
    158       2.00000          -2.993965          -81.46993
    159       2.00000          -2.993965          -81.46993
    160       2.00000          -2.993910          -81.46844
    161       2.00000          -2.993910          -81.46844
    162       2.00000          -2.993910          -81.46844
    163       2.00000          -2.993910          -81.46844
    164       2.00000          -2.993910          -81.46844
    165       2.00000          -2.993910          -81.46844
    166       2.00000          -2.993910          -81.46844
    167       2.00000          -2.993910          -81.46844
    168       2.00000          -2.993910          -81.46844
    169       2.00000          -2.993910          -81.46844
    170       2.00000          -2.993910          -81.46844
    171       2.00000          -2.993910          -81.46844
    172       2.00000          -2.993910          -81.46844
    173       2.00000          -2.993910          -81.46844
    174       2.00000          -2.993910          -81.46844
    175       2.00000          -2.993910          -81.46844
    176       2.00000          -2.993910          -81.46844
    177       2.00000          -2.993910          -81.46844
    178       2.00000          -2.993910          -81.46844
    179       2.00000          -2.993910          -81.46844
    180       2.00000          -2.993910          -81.46844
    181       2.00000          -2.993910          -81.46844
    182       2.00000          -2.993910          -81.46844
    183       2.00000          -2.993910          -81.46844
    184       2.00000          -2.993855          -81.46694
    185       2.00000          -2.993855          -81.46694
    186       2.00000          -2.993855          -81.46694
    187       2.00000          -2.993854          -81.46693
    188       2.00000          -2.993854          -81.46693
    189       2.00000          -2.993854          -81.46693
    190       2.00000          -2.993854          -81.46693
    191       2.00000          -2.993854          -81.46692
    192       2.00000          -2.993854          -81.46692
    193       2.00000          -1.798925          -48.95124
    194       2.00000          -1.798925          -48.95123
    195       2.00000          -1.798924          -48.95121
    196       2.00000          -1.798924          -48.95121
    197       2.00000          -1.798445          -48.93818
    198       2.00000          -1.798445          -48.93817
    199       2.00000          -1.798445          -48.93817
    200       2.00000          -1.798253          -48.93295
    201       2.00000          -1.798253          -48.93295
    202       2.00000          -1.798253          -48.93295
    203       2.00000          -1.798253          -48.93295
    204       2.00000          -1.798253          -48.93295
    205       2.00000          -1.798253          -48.93295
    206       2.00000          -1.798253          -48.93294
    207       2.00000          -1.798253          -48.93294
    208       2.00000          -1.798253          -48.93294
    209       2.00000          -1.798253          -48.93294
    210       2.00000          -1.798253          -48.93294
    211       2.00000          -1.798253          -48.93294
    212       2.00000          -1.798252          -48.93293
    213       2.00000          -1.798252          -48.93293
    214       2.00000          -1.798252          -48.93293
    215       2.00000          -1.798252          -48.93293
    216       2.00000          -1.798252          -48.93292
    217       2.00000          -1.798252          -48.93292
    218       2.00000          -1.798252          -48.93292
    219       2.00000          -1.798252          -48.93292
    220       2.00000          -1.798252          -48.93292
    221       2.00000          -1.798252          -48.93292
    222       2.00000          -1.798252          -48.93292
    223       2.00000          -1.798252          -48.93292
    224       2.00000          -1.797971          -48.92529
    225       2.00000          -1.797971          -48.92529
    226       2.00000          -1.797971          -48.92528
    227       2.00000          -1.797971          -48.92528
    228       2.00000          -1.797971          -48.92528
    229       2.00000          -1.797971          -48.92528
    230       2.00000          -1.797971          -48.92527
    231       2.00000          -1.797971          -48.92527
    232       2.00000          -1.797971          -48.92527
    233       2.00000          -1.797971          -48.92527
    234       2.00000          -1.797970          -48.92524
    235       2.00000          -1.797970          -48.92524
    236       2.00000          -1.797612          -48.91552
    237       2.00000          -1.797612          -48.91552
    238       2.00000          -1.797612          -48.91552
    239       2.00000          -1.797612          -48.91552
    240       2.00000          -1.797612          -48.91552
    241       2.00000          -1.797612          -48.91552
    242       2.00000          -1.797612          -48.91550
    243       2.00000          -1.797612          -48.91550
    244       2.00000          -1.797612          -48.91550
    245       2.00000          -1.797612          -48.91550
    246       2.00000          -1.797611          -48.91549
    247       2.00000          -1.797611          -48.91549
    248       2.00000          -1.797325          -48.90769
    249       2.00000          -1.797325          -48.90769
    250       2.00000          -1.797324          -48.90768
    251       2.00000          -1.797324          -48.90768
    252       2.00000          -1.797323          -48.90766
    253       2.00000          -1.797323          -48.90766
    254       2.00000          -1.797323          -48.90766
    255       2.00000          -1.797323          -48.90766
    256       2.00000          -1.797163          -48.90330
    257       2.00000          -1.797163          -48.90330
    258       2.00000          -1.797163          -48.90328
    259       2.00000          -1.797163          -48.90328
    260       2.00000          -1.797163          -48.90328
    261       2.00000          -1.797163          -48.90328
    262       2.00000          -1.796925          -48.89681
    263       2.00000          -1.796925          -48.89681
    264       2.00000          -1.796925          -48.89681
    265       2.00000          -1.796925          -48.89681
    266       2.00000          -1.796924          -48.89679
    267       2.00000          -1.796924          -48.89679
    268       2.00000          -1.796924          -48.89679
    269       2.00000          -1.796924          -48.89679
    270       2.00000          -1.796924          -48.89679
    271       2.00000          -1.796924          -48.89679
    272       2.00000          -1.796924          -48.89679
    273       2.00000          -1.796924          -48.89679
    274       2.00000          -1.796859          -48.89501
    275       2.00000          -1.796859          -48.89501
    276       2.00000          -1.796858          -48.89500
    277       2.00000          -1.796858          -48.89500
    278       2.00000          -1.796858          -48.89500
    279       2.00000          -1.796858          -48.89500
    280       2.00000          -1.796847          -48.89468
    281       2.00000          -1.796847          -48.89468
    282       2.00000          -1.796847          -48.89468
    283       2.00000          -1.796847          -48.89468
    284       2.00000          -1.796847          -48.89468
    285       2.00000          -1.796847          -48.89468
    286       2.00000          -1.796846          -48.89467
    287       2.00000          -1.796846          -48.89467
    288       2.00000          -1.796846          -48.89467
    289       2.00000          -1.796846          -48.89467
    290       2.00000          -1.796846          -48.89467
    291       2.00000          -1.796846          -48.89467
    292       2.00000          -1.796846          -48.89465
    293       2.00000          -1.796846          -48.89465
    294       2.00000          -1.796846          -48.89465
    295       2.00000          -1.796846          -48.89465
    296       2.00000          -1.796845          -48.89465
    297       2.00000          -1.796845          -48.89465
    298       2.00000          -1.796845          -48.89465
    299       2.00000          -1.796845          -48.89465
    300       2.00000          -1.796845          -48.89465
    301       2.00000          -1.796845          -48.89465
    302       2.00000          -1.796845          -48.89465
    303       2.00000          -1.796845          -48.89465
    304       2.00000          -1.796784          -48.89297
    305       2.00000          -1.796784          -48.89297
    306       2.00000          -1.796784          -48.89297
    307       2.00000          -1.796783          -48.89295
    308       2.00000          -1.796783          -48.89295
    309       2.00000          -1.796782          -48.89293
    310       2.00000          -1.796411          -48.88283
    311       2.00000          -1.796411          -48.88283
    312       2.00000          -1.796411          -48.88283
    313       2.00000          -1.796411          -48.88283
    314       2.00000          -1.796411          -48.88282
    315       2.00000          -1.796411          -48.88282
    316       2.00000          -1.796411          -48.88282
    317       2.00000          -1.796411          -48.88282
    318       2.00000          -1.796411          -48.88282
    319       2.00000          -1.796411          -48.88282
    320       2.00000          -1.796411          -48.88282
    321       2.00000          -1.796411          -48.88282
    322       2.00000          -1.796410          -48.88282
    323       2.00000          -1.796410          -48.88282
    324       2.00000          -1.796410          -48.88282
    325       2.00000          -1.796410          -48.88282
    326       2.00000          -1.796410          -48.88282
    327       2.00000          -1.796410          -48.88282
    328       2.00000          -1.796410          -48.88282
    329       2.00000          -1.796410          -48.88282
    330       2.00000          -1.796410          -48.88279
    331       2.00000          -1.796410          -48.88279
    332       2.00000          -1.796410          -48.88279
    333       2.00000          -1.796410          -48.88279
    334       2.00000          -1.796241          -48.87821
    335       2.00000          -1.796241          -48.87821
    336       2.00000          -1.796241          -48.87820
    337       2.00000          -1.796241          -48.87820
    338       2.00000          -1.796241          -48.87820
    339       2.00000          -1.796241          -48.87820
    340       2.00000          -1.796240          -48.87819
    341       2.00000          -1.796240          -48.87819
    342       2.00000          -1.796240          -48.87819
    343       2.00000          -1.796240          -48.87819
    344       2.00000          -1.796240          -48.87817
    345       2.00000          -1.796240          -48.87817
    346       2.00000          -1.796041          -48.87275
    347       2.00000          -1.796041          -48.87275
    348       2.00000          -1.796040          -48.87274
    349       2.00000          -1.796040          -48.87274
    350       2.00000          -1.796040          -48.87274
    351       2.00000          -1.796040          -48.87274
    352       2.00000          -1.796040          -48.87273
    353       2.00000          -1.796040          -48.87273
    354       2.00000          -1.796040          -48.87273
    355       2.00000          -1.796040          -48.87273
    356       2.00000          -1.796039          -48.87271
    357       2.00000          -1.796039          -48.87271
    358       2.00000          -1.796038          -48.87268
    359       2.00000          -1.796038          -48.87268
    360       2.00000          -1.796038          -48.87268
    361       2.00000          -1.796038          -48.87267
    362       2.00000          -1.796037          -48.87266
    363       2.00000          -1.796037          -48.87266
    364       2.00000          -1.796037          -48.87264
    365       2.00000          -1.796037          -48.87264
    366       2.00000          -1.795870          -48.86812
    367       2.00000          -1.795870          -48.86812
    368       2.00000          -1.795870          -48.86812
    369       2.00000          -1.795870          -48.86812
    370       2.00000          -1.795870          -48.86812
    371       2.00000          -1.795870          -48.86812
    372       2.00000          -1.795870          -48.86811
    373       2.00000          -1.795870          -48.86811
    374       2.00000          -1.795870          -48.86810
    375       2.00000          -1.795870          -48.86810
    376       2.00000          -1.795870          -48.86810
    377       2.00000          -1.795870          -48.86810
    378       2.00000          -1.795869          -48.86808
    379       2.00000          -1.795869          -48.86808
    380       2.00000          -1.795869          -48.86808
    381       2.00000          -1.795869          -48.86808
    382       2.00000          -1.795702          -48.86355
    383       2.00000          -1.795702          -48.86354
    384       2.00000          -1.795701          -48.86351
    385       2.00000          -0.987863          -26.88112
    386       2.00000          -0.964860          -26.25517
    387       2.00000          -0.964860          -26.25517
    388       2.00000          -0.964860          -26.25517
    389       2.00000          -0.964860          -26.25517
    390       2.00000          -0.964859          -26.25515
    391       2.00000          -0.964859          -26.25515
    392       2.00000          -0.964858          -26.25513
    393       2.00000          -0.964858          -26.25513
    394       2.00000          -0.958834          -26.09119
    395       2.00000          -0.958834          -26.09119
    396       2.00000          -0.958831          -26.09113
    397       2.00000          -0.958831          -26.09113
    398       2.00000          -0.958831          -26.09113
    399       2.00000          -0.958831          -26.09113
    400       2.00000          -0.940637          -25.59604
    401       2.00000          -0.940637          -25.59604
    402       2.00000          -0.940636          -25.59601
    403       2.00000          -0.940636          -25.59601
    404       2.00000          -0.940636          -25.59601
    405       2.00000          -0.940636          -25.59601
    406       2.00000          -0.940636          -25.59601
    407       2.00000          -0.940636          -25.59601
    408       2.00000          -0.940636          -25.59600
    409       2.00000          -0.940636          -25.59600
    410       2.00000          -0.940636          -25.59600
    411       2.00000          -0.940636          -25.59600
    412       2.00000          -0.937265          -25.50427
    413       2.00000          -0.937265          -25.50427
    414       2.00000          -0.937264          -25.50426
    415       2.00000          -0.937264          -25.50426
    416       2.00000          -0.933496          -25.40173
    417       2.00000          -0.933496          -25.40173
    418       2.00000          -0.933496          -25.40171
    419       2.00000          -0.933496          -25.40171
    420       2.00000          -0.933496          -25.40171
    421       2.00000          -0.933496          -25.40171
    422       2.00000          -0.933496          -25.40170
    423       2.00000          -0.933496          -25.40170
    424       2.00000          -0.933496          -25.40170
    425       2.00000          -0.933496          -25.40170
    426       2.00000          -0.933495          -25.40170
    427       2.00000          -0.933495          -25.40170
    428       2.00000          -0.933495          -25.40170
    429       2.00000          -0.933495          -25.40170
    430       2.00000          -0.933495          -25.40168
    431       2.00000          -0.933495          -25.40168
    432       2.00000          -0.933495          -25.40168
    433       2.00000          -0.933495          -25.40168
    434       2.00000          -0.933495          -25.40168
    435       2.00000          -0.933495          -25.40168
    436       2.00000          -0.933495          -25.40168
    437       2.00000          -0.933495          -25.40168
    438       2.00000          -0.933495          -25.40168
    439       2.00000          -0.933495          -25.40168
    440       2.00000          -0.928905          -25.27679
    441       2.00000          -0.928904          -25.27676
    442       2.00000          -0.928904          -25.27676
    443       2.00000          -0.926412          -25.20895
    444       2.00000          -0.926412          -25.20895
    445       2.00000          -0.926412          -25.20895
    446       2.00000          -0.926412          -25.20895
    447       2.00000          -0.926410          -25.20890
    448       2.00000          -0.926410          -25.20890
    449       2.00000          -0.535709          -14.57739
    450       2.00000          -0.535708          -14.57735
    451       2.00000          -0.535705          -14.57727
    452       2.00000          -0.535705          -14.57727
    453       2.00000          -0.515032          -14.01474
    454       2.00000          -0.515032          -14.01474
    455       2.00000          -0.515027          -14.01460
    456       2.00000          -0.505616          -13.75852
    457       2.00000          -0.505616          -13.75852
    458       2.00000          -0.505616          -13.75852
    459       2.00000          -0.505616          -13.75852
    460       2.00000          -0.505615          -13.75849
    461       2.00000          -0.505615          -13.75849
    462       2.00000          -0.505615          -13.75849
    463       2.00000          -0.505615          -13.75849
    464       2.00000          -0.505614          -13.75846
    465       2.00000          -0.505614          -13.75846
    466       2.00000          -0.505614          -13.75846
    467       2.00000          -0.505614          -13.75846
    468       2.00000          -0.505614          -13.75846
    469       2.00000          -0.505614          -13.75846
    470       2.00000          -0.505614          -13.75846
    471       2.00000          -0.505614          -13.75846
    472       2.00000          -0.505614          -13.75845
    473       2.00000          -0.505614          -13.75845
    474       2.00000          -0.505612          -13.75839
    475       2.00000          -0.505612          -13.75839
    476       2.00000          -0.505612          -13.75839
    477       2.00000          -0.505612          -13.75839
    478       2.00000          -0.505609          -13.75833
    479       2.00000          -0.505609          -13.75833
    480       2.00000          -0.494013          -13.44277
    481       2.00000          -0.494013          -13.44277
    482       2.00000          -0.494011          -13.44272
    483       2.00000          -0.494011          -13.44272
    484       2.00000          -0.494011          -13.44272
    485       2.00000          -0.494011          -13.44272
    486       2.00000          -0.494011          -13.44272
    487       2.00000          -0.494011          -13.44272
    488       2.00000          -0.494011          -13.44272
    489       2.00000          -0.494011          -13.44272
    490       2.00000          -0.494005          -13.44255
    491       2.00000          -0.494005          -13.44255
    492       2.00000          -0.473437          -12.88287
    493       2.00000          -0.473437          -12.88287
    494       2.00000          -0.473434          -12.88280
    495       2.00000          -0.473434          -12.88280
    496       2.00000          -0.473434          -12.88280
    497       2.00000          -0.473434          -12.88280
    498       2.00000          -0.473434          -12.88279
    499       2.00000          -0.473434          -12.88279
    500       2.00000          -0.473430          -12.88268
    501       2.00000          -0.473430          -12.88268
    502       2.00000          -0.473430          -12.88268
    503       2.00000          -0.473430          -12.88268
    504       2.00000          -0.462447          -12.58381
    505       2.00000          -0.462447          -12.58381
    506       2.00000          -0.462446          -12.58380
    507       2.00000          -0.462446          -12.58380
    508       2.00000          -0.462446          -12.58380
    509       2.00000          -0.462446          -12.58380
    510       2.00000          -0.462446          -12.58380
    511       2.00000          -0.462446          -12.58380
    512       2.00000          -0.461536          -12.55904
    513       2.00000          -0.461536          -12.55904
    514       2.00000          -0.461536          -12.55904
    515       2.00000          -0.461536          -12.55904
    516       2.00000          -0.461533          -12.55894
    517       2.00000          -0.461533          -12.55894
    518       2.00000          -0.438068          -11.92042
    519       2.00000          -0.438068          -11.92042
    520       2.00000          -0.438067          -11.92040
    521       2.00000          -0.438067          -11.92040
    522       2.00000          -0.438067          -11.92040
    523       2.00000          -0.438067          -11.92040
    524       2.00000          -0.438064          -11.92034
    525       2.00000          -0.438064          -11.92034
    526       2.00000          -0.438064          -11.92033
    527       2.00000          -0.438064          -11.92033
    528       2.00000          -0.438064          -11.92033
    529       2.00000          -0.438064          -11.92033
    530       2.00000          -0.435124          -11.84031
    531       2.00000          -0.435124          -11.84031
    532       2.00000          -0.435124          -11.84031
    533       2.00000          -0.435124          -11.84031
    534       2.00000          -0.435122          -11.84028
    535       2.00000          -0.435122          -11.84028
    536       2.00000          -0.435122          -11.84028
    537       2.00000          -0.435122          -11.84028
    538       2.00000          -0.435122          -11.84028
    539       2.00000          -0.435122          -11.84028
    540       2.00000          -0.435122          -11.84028
    541       2.00000          -0.435122          -11.84028
    542       2.00000          -0.435122          -11.84028
    543       2.00000          -0.435122          -11.84028
    544       2.00000          -0.435120          -11.84022
    545       2.00000          -0.435120          -11.84022
    546       2.00000          -0.435120          -11.84022
    547       2.00000          -0.435120          -11.84022
    548       2.00000          -0.435119          -11.84020
    549       2.00000          -0.435119          -11.84020
    550       2.00000          -0.435119          -11.84020
    551       2.00000          -0.435119          -11.84020
    552       2.00000          -0.435117          -11.84013
    553       2.00000          -0.435117          -11.84013
    554       2.00000          -0.430112          -11.70395
    555       2.00000          -0.430112          -11.70395
    556       2.00000          -0.430112          -11.70395
    557       2.00000          -0.430112          -11.70395
    558       2.00000          -0.430111          -11.70392
    559       2.00000          -0.430111          -11.70392
    560       2.00000          -0.413586          -11.25424
    561       2.00000          -0.413586          -11.25424
    562       2.00000          -0.413585          -11.25422
    563       2.00000          -0.413583          -11.25417
    564       2.00000          -0.413583          -11.25417
    565       2.00000          -0.413582          -11.25415
    566       2.00000          -0.401589          -10.92779
    567       2.00000          -0.401589          -10.92779
    568       2.00000          -0.401589          -10.92779
    569       2.00000          -0.401589          -10.92779
    570       2.00000          -0.401588          -10.92778
    571       2.00000          -0.401588          -10.92778
    572       2.00000          -0.401588          -10.92778
    573       2.00000          -0.401588          -10.92778
    574       2.00000          -0.401588          -10.92776
    575       2.00000          -0.401588          -10.92776
    576       2.00000          -0.401588          -10.92776
    577       2.00000          -0.401588          -10.92776
    578       2.00000          -0.401587          -10.92774
    579       2.00000          -0.401587          -10.92774
    580       2.00000          -0.401587          -10.92774
    581       2.00000          -0.401587          -10.92774
    582       2.00000          -0.401587          -10.92774
    583       2.00000          -0.401587          -10.92774
    584       2.00000          -0.401587          -10.92774
    585       2.00000          -0.401587          -10.92774
    586       2.00000          -0.401585          -10.92769
    587       2.00000          -0.401585          -10.92769
    588       2.00000          -0.401585          -10.92769
    589       2.00000          -0.401585          -10.92769
    590       2.00000          -0.390942          -10.63807
    591       2.00000          -0.390942          -10.63807
    592       2.00000          -0.390942          -10.63807
    593       2.00000          -0.390942          -10.63807
    594       2.00000          -0.390941          -10.63803
    595       2.00000          -0.390941          -10.63803
    596       2.00000          -0.390940          -10.63803
    597       2.00000          -0.390940          -10.63803
    598       2.00000          -0.390940          -10.63802
    599       2.00000          -0.390940          -10.63802
    600       2.00000          -0.390940          -10.63802
    601       2.00000          -0.390940          -10.63802
    602       2.00000          -0.388328          -10.56694
    603       2.00000          -0.388328          -10.56693
    604       2.00000          -0.388328          -10.56693
    605       2.00000          -0.388326          -10.56688
    606       2.00000          -0.388324          -10.56684
    607       2.00000          -0.388323          -10.56682
    608       2.00000          -0.388323          -10.56682
    609       2.00000          -0.388321          -10.56675
    610       2.00000          -0.388274          -10.56547
    611       2.00000          -0.388274          -10.56547
    612       2.00000          -0.388273          -10.56544
    613       2.00000          -0.388273          -10.56544
    614       2.00000          -0.388272          -10.56541
    615       2.00000          -0.388272          -10.56541
    616       2.00000          -0.388272          -10.56541
    617       2.00000          -0.388272          -10.56541
    618       2.00000          -0.388271          -10.56540
    619       2.00000          -0.388271          -10.56540
    620       2.00000          -0.388271          -10.56540
    621       2.00000          -0.388271          -10.56540
    622       2.00000          -0.376288          -10.23933
    623       2.00000          -0.376288          -10.23933
    624       2.00000          -0.376288          -10.23933
    625       2.00000          -0.376288          -10.23933
    626       2.00000          -0.376287          -10.23930
    627       2.00000          -0.376287          -10.23930
    628       2.00000          -0.376286          -10.23925
    629       2.00000          -0.376286          -10.23925
    630       2.00000          -0.376285          -10.23924
    631       2.00000          -0.376285          -10.23924
    632       2.00000          -0.376285          -10.23924
    633       2.00000          -0.376285          -10.23924
    634       2.00000          -0.376285          -10.23924
    635       2.00000          -0.376285          -10.23924
    636       2.00000          -0.376284          -10.23922
    637       2.00000          -0.376284          -10.23922
    638       2.00000          -0.363240           -9.88428
    639       2.00000          -0.363238           -9.88422
    640       2.00000          -0.363237           -9.88418
    641       0.00000          -0.195500           -5.31984
    642       0.00000          -0.108740           -2.95897
    643       0.00000          -0.108740           -2.95897
    644       0.00000          -0.108730           -2.95869
    645       0.00000          -0.108730           -2.95869
    646       0.00000          -0.108728           -2.95864
    647       0.00000          -0.108728           -2.95864
    648       0.00000          -0.108728           -2.95864
    649       0.00000          -0.108728           -2.95864
    650       0.00000          -0.074293           -2.02162
    651       0.00000          -0.074293           -2.02162
    652       0.00000          -0.074293           -2.02162
    653       0.00000          -0.074293           -2.02162
    654       0.00000          -0.074276           -2.02116
    655       0.00000          -0.074276           -2.02116
    656       0.00000          -0.070346           -1.91421
    657       0.00000          -0.070334           -1.91389
    658       0.00000          -0.070329           -1.91374
    659       0.00000          -0.070329           -1.91374
    660       0.00000          -0.036327           -0.98850
    661       0.00000          -0.036327           -0.98850
    662       0.00000          -0.036265           -0.98681
    663       0.00000          -0.018987           -0.51667
    664       0.00000          -0.018987           -0.51667
    665       0.00000          -0.018976           -0.51638
    666       0.00000          -0.018976           -0.51638
    667       0.00000          -0.018976           -0.51638
    668       0.00000          -0.018976           -0.51638
    669       0.00000          -0.018974           -0.51630
    670       0.00000          -0.018974           -0.51630
    671       0.00000          -0.018974           -0.51630
    672       0.00000          -0.018974           -0.51630
    673       0.00000          -0.018968           -0.51614
    674       0.00000          -0.018968           -0.51614
    675       0.00000          -0.010596           -0.28832
    676       0.00000          -0.010596           -0.28832
    677       0.00000          -0.010587           -0.28809
    678       0.00000          -0.010587           -0.28809
    679       0.00000          -0.010576           -0.28778
    680       0.00000          -0.010576           -0.28778
    681       0.00000          -0.010576           -0.28778
    682       0.00000          -0.010576           -0.28778
    683       0.00000          -0.010571           -0.28765
    684       0.00000          -0.010571           -0.28765
    685       0.00000          -0.010571           -0.28765
    686       0.00000          -0.010571           -0.28765
    687       0.00000          -0.010569           -0.28760
    688       0.00000          -0.010569           -0.28760
    689       0.00000          -0.010569           -0.28760
    690       0.00000          -0.010569           -0.28760
    691       0.00000          -0.010566           -0.28753
    692       0.00000          -0.010566           -0.28753
    693       0.00000          -0.010566           -0.28753
    694       0.00000          -0.010566           -0.28753
    695       0.00000          -0.010566           -0.28752
    696       0.00000          -0.010566           -0.28752
    697       0.00000          -0.010566           -0.28752
    698       0.00000          -0.010566           -0.28752
    699       0.00000          -0.008762           -0.23844
    700       0.00000          -0.008724           -0.23740
    701       0.00000          -0.008724           -0.23740
    702       0.00000           0.049448            1.34555
    703       0.00000           0.049448            1.34555
    704       0.00000           0.049448            1.34555
    705       0.00000           0.049448            1.34555
    706       0.00000           0.049492            1.34675
    707       0.00000           0.049492            1.34675
    708       0.00000           0.055624            1.51361
    709       0.00000           0.055624            1.51361
    710       0.00000           0.055624            1.51361
    711       0.00000           0.055624            1.51361
    712       0.00000           0.055626            1.51365
    713       0.00000           0.055626            1.51365
    714       0.00000           0.055638            1.51400
    715       0.00000           0.055638            1.51400
    716       0.00000           0.055638            1.51400
    717       0.00000           0.055638            1.51400
    718       0.00000           0.055639            1.51403
    719       0.00000           0.055639            1.51403
    720       0.00000           0.055639            1.51403
    721       0.00000           0.055639            1.51403
    722       0.00000           0.055642            1.51408
    723       0.00000           0.055642            1.51408
    724       0.00000           0.055648            1.51427
    725       0.00000           0.055648            1.51427
    726       0.00000           0.055648            1.51427
    727       0.00000           0.055648            1.51427
    728       0.00000           0.055686            1.51530
    729       0.00000           0.055686            1.51530
    730       0.00000           0.055686            1.51530
    731       0.00000           0.055686            1.51530
    732       0.00000           0.063010            1.71458
    733       0.00000           0.063010            1.71458
    734       0.00000           0.063010            1.71458
    735       0.00000           0.063010            1.71458
    736       0.00000           0.063017            1.71477
    737       0.00000           0.063017            1.71477
    738       0.00000           0.063044            1.71551
    739       0.00000           0.063044            1.71551
    740       0.00000           0.063057            1.71586
    741       0.00000           0.063057            1.71586
    742       0.00000           0.063057            1.71586
    743       0.00000           0.063057            1.71586
    744       0.00000           0.073566            2.00182
    745       0.00000           0.073566            2.00182
    746       0.00000           0.073566            2.00182
    747       0.00000           0.073566            2.00182
    748       0.00000           0.073606            2.00293
    749       0.00000           0.073606            2.00293
    750       0.00000           0.074068            2.01550
    751       0.00000           0.074068            2.01550
    752       0.00000           0.074076            2.01572
    753       0.00000           0.074076            2.01572
    754       0.00000           0.074076            2.01572
    755       0.00000           0.074076            2.01572
    756       0.00000           0.074081            2.01584
    757       0.00000           0.074081            2.01584
    758       0.00000           0.074081            2.01584
    759       0.00000           0.074081            2.01584
    760       0.00000           0.074091            2.01613
    761       0.00000           0.074091            2.01613
    762       0.00000           0.090508            2.46284
    763       0.00000           0.090512            2.46295
    764       0.00000           0.090525            2.46331
    765       0.00000           0.090525            2.46331
    766       0.00000           0.109450            2.97830
    767       0.00000           0.109450            2.97830
    768       0.00000           0.109450            2.97830
    769       0.00000           0.109450            2.97830
    770       0.00000           0.109488            2.97931
    771       0.00000           0.109488            2.97931
    772       0.00000           0.109504            2.97975
    773       0.00000           0.109504            2.97975
    774       0.00000           0.121176            3.29736
    775       0.00000           0.121176            3.29736
    776       0.00000           0.121195            3.29790
    777       0.00000           0.129271            3.51765
    778       0.00000           0.129271            3.51765
    779       0.00000           0.129291            3.51820
    780       0.00000           0.129291            3.51820
    781       0.00000           0.129306            3.51859
    782       0.00000           0.129306            3.51859
    783       0.00000           0.129306            3.51859
    784       0.00000           0.129306            3.51859
    785       0.00000           0.129308            3.51866
    786       0.00000           0.129308            3.51866
    787       0.00000           0.129308            3.51866
    788       0.00000           0.129308            3.51866
    789       0.00000           0.129315            3.51883
    790       0.00000           0.129315            3.51883
    791       0.00000           0.129315            3.51883
    792       0.00000           0.129315            3.51883
    793       0.00000           0.129329            3.51922
    794       0.00000           0.129329            3.51922
    795       0.00000           0.129329            3.51922
    796       0.00000           0.129329            3.51922
    797       0.00000           0.129337            3.51943
    798       0.00000           0.129337            3.51943
    799       0.00000           0.129337            3.51943
    800       0.00000           0.129337            3.51943
    801       0.00000           0.157696            4.29114
    802       0.00000           0.157696            4.29114
    803       0.00000           0.157712            4.29157
    804       0.00000           0.157712            4.29157
    805       0.00000           0.157712            4.29157
    806       0.00000           0.157712            4.29157
    807       0.00000           0.157726            4.29195
    808       0.00000           0.157726            4.29195
    809       0.00000           0.157726            4.29195
    810       0.00000           0.157726            4.29195
    811       0.00000           0.157760            4.29286
    812       0.00000           0.157760            4.29286
    813       0.00000           0.207776            5.65388
    814       0.00000           0.207776            5.65388
    815       0.00000           0.207776            5.65388
    816       0.00000           0.207776            5.65388
    817       0.00000           0.207784            5.65410
    818       0.00000           0.207784            5.65410
    819       0.00000           0.215385            5.86091
    820       0.00000           0.215385            5.86091
    821       0.00000           0.215424            5.86200
    822       0.00000           0.215424            5.86200
    823       0.00000           0.215424            5.86200
    824       0.00000           0.215424            5.86200
    825       0.00000           0.216054            5.87913
    826       0.00000           0.216249            5.88444
    827       0.00000           0.216311            5.88612
    828       0.00000           0.262535            7.14394
    829       0.00000           0.262535            7.14394
    830       0.00000           0.262535            7.14394
    831       0.00000           0.262535            7.14394
    832       0.00000           0.262634            7.14664
    833       0.00000           0.262634            7.14664
    834       0.00000           0.262636            7.14669
    835       0.00000           0.262636            7.14669
    836       0.00000           0.262647            7.14700
    837       0.00000           0.262647            7.14700
    838       0.00000           0.262669            7.14758
    839       0.00000           0.262669            7.14758
    840       0.00000           0.262703            7.14850
    841       0.00000           0.262703            7.14850
    842       0.00000           0.262703            7.14850
    843       0.00000           0.262703            7.14850
    844       0.00000           0.274666            7.47405
    845       0.00000           0.274666            7.47405
    846       0.00000           0.274713            7.47533
    847       0.00000           0.274752            7.47637
    848       0.00000           0.274759            7.47657
    849       0.00000           0.274791            7.47743
    850       0.00000           0.274825            7.47836
    851       0.00000           0.274825            7.47837
    852       0.00000           0.293826            7.99541
    853       0.00000           0.293826            7.99541
    854       0.00000           0.293914            7.99780
    855       0.00000           0.293914            7.99780
    856       0.00000           0.293914            7.99780
    857       0.00000           0.293914            7.99780
    858       0.00000           0.293962            7.99911
    859       0.00000           0.293962            7.99911
    860       0.00000           0.293984            7.99972
    861       0.00000           0.293984            7.99972
    862       0.00000           0.293984            7.99972
    863       0.00000           0.293984            7.99972
    864       0.00000           0.298509            8.12284
    865       0.00000           0.298509            8.12284
    866       0.00000           0.298597            8.12524
    867       0.00000           0.298597            8.12524
    868       0.00000           0.298607            8.12551
    869       0.00000           0.298607            8.12551
    870       0.00000           0.298607            8.12551
    871       0.00000           0.298607            8.12551
    872       0.00000           0.298630            8.12615
    873       0.00000           0.298630            8.12615
    874       0.00000           0.298631            8.12615
    875       0.00000           0.298631            8.12615
    876       0.00000           0.309648            8.42595
    877       0.00000           0.309648            8.42595
    878       0.00000           0.309648            8.42595
    879       0.00000           0.309648            8.42595
    880       0.00000           0.309748            8.42866
    881       0.00000           0.309748            8.42866
    882       0.00000           0.309748            8.42866
    883       0.00000           0.309748            8.42866
    884       0.00000           0.309748            8.42867
    885       0.00000           0.309748            8.42867
    886       0.00000           0.309750            8.42873
    887       0.00000           0.309750            8.42873
    888       0.00000           0.309750            8.42873
    889       0.00000           0.309750            8.42873
    890       0.00000           0.309752            8.42878
    891       0.00000           0.309752            8.42878
    892       0.00000           0.309752            8.42878
    893       0.00000           0.309752            8.42878
    894       0.00000           0.309760            8.42900
    895       0.00000           0.309760            8.42900
    896       0.00000           0.309776            8.42943
    897       0.00000           0.309776            8.42943
    898       0.00000           0.309776            8.42943
    899       0.00000           0.309776            8.42943
    900       0.00000           0.332364            9.04408
    901       0.00000           0.332364            9.04408
    902       0.00000           0.332373            9.04433
    903       0.00000           0.332373            9.04433
    904       0.00000           0.332432            9.04594
    905       0.00000           0.332432            9.04594
    906       0.00000           0.332432            9.04594
    907       0.00000           0.332432            9.04594
    908       0.00000           0.332441            9.04617
    909       0.00000           0.332441            9.04617
    910       0.00000           0.332441            9.04617
    911       0.00000           0.332441            9.04617
    912       0.00000           0.332441            9.04617
    913       0.00000           0.332441            9.04617
    914       0.00000           0.332441            9.04617
    915       0.00000           0.332441            9.04617
    916       0.00000           0.332449            9.04640
    917       0.00000           0.332449            9.04640
    918       0.00000           0.332449            9.04640
    919       0.00000           0.332449            9.04640
    920       0.00000           0.332489            9.04748
    921       0.00000           0.332489            9.04748
    922       0.00000           0.332489            9.04748
    923       0.00000           0.332489            9.04748
    924       0.00000           0.349490            9.51010
    925       0.00000           0.349585            9.51269
    926       0.00000           0.349585            9.51269
    927       0.00000           0.349628            9.51386
    928       0.00000           0.349652            9.51452
    929       0.00000           0.349652            9.51452
    930       0.00000           0.381980           10.39420
    931       0.00000           0.381980           10.39420
    932       0.00000           0.381991           10.39450
    933       0.00000           0.381991           10.39450
    934       0.00000           0.381991           10.39450
    935       0.00000           0.381991           10.39450
    936       0.00000           0.382070           10.39666
    937       0.00000           0.382070           10.39666
    938       0.00000           0.382099           10.39745
    939       0.00000           0.382099           10.39745
    940       0.00000           0.382126           10.39817
    941       0.00000           0.382126           10.39817
    942       0.00000           0.382136           10.39845
    943       0.00000           0.382136           10.39845
    944       0.00000           0.382136           10.39845
    945       0.00000           0.382136           10.39845
    946       0.00000           0.394620           10.73815
    947       0.00000           0.394620           10.73815
    948       0.00000           0.394732           10.74120
    949       0.00000           0.394732           10.74120
    950       0.00000           0.394732           10.74120
    951       0.00000           0.394732           10.74120
    952       0.00000           0.394735           10.74129
    953       0.00000           0.394735           10.74129
    954       0.00000           0.394763           10.74205
    955       0.00000           0.394763           10.74205
    956       0.00000           0.394763           10.74205
    957       0.00000           0.394763           10.74205
    958       0.00000           0.409738           11.14954
    959       0.00000           0.409738           11.14954
    960       0.00000           0.409738           11.14954
    961       0.00000           0.409738           11.14954
    962       0.00000           0.409760           11.15013
    963       0.00000           0.409760           11.15013
    964       0.00000           0.409760           11.15013
    965       0.00000           0.409760           11.15013
    966       0.00000           0.409769           11.15039
    967       0.00000           0.409769           11.15039
    968       0.00000           0.409864           11.15297
    969       0.00000           0.409864           11.15297
    970       0.00000           0.414598           11.28179
    971       0.00000           0.414598           11.28179
    972       0.00000           0.414688           11.28422
    973       0.00000           0.414749           11.28589
    974       0.00000           0.419580           11.41736
    975       0.00000           0.419699           11.42059
    976       0.00000           0.463395           12.60961
    977       0.00000           0.463395           12.60961
    978       0.00000           0.463512           12.61281
    979       0.00000           0.463523           12.61309
    980       0.00000           0.463572           12.61444
    981       0.00000           0.463572           12.61444
    982       0.00000           0.463580           12.61465
    983       0.00000           0.463594           12.61503
    984       0.00000           0.474847           12.92124
    985       0.00000           0.474847           12.92124
    986       0.00000           0.474847           12.92124
    987       0.00000           0.474847           12.92124
    988       0.00000           0.474942           12.92383
    989       0.00000           0.474942           12.92383
    990       0.00000           0.474942           12.92383
    991       0.00000           0.474942           12.92383
    992       0.00000           0.474960           12.92431
    993       0.00000           0.474960           12.92431
    994       0.00000           0.475006           12.92557
    995       0.00000           0.475006           12.92557
    996       0.00000           0.489294           13.31437
    997       0.00000           0.489294           13.31437
    998       0.00000           0.489327           13.31526
    999       0.00000           0.489327           13.31526
   1000       0.00000           0.489327           13.31526
   1001       0.00000           0.489327           13.31526
   1002       0.00000           0.489359           13.31615
   1003       0.00000           0.489359           13.31615
   1004       0.00000           0.494486           13.45565
   1005       0.00000           0.494486           13.45565
   1006       0.00000           0.494486           13.45565
   1007       0.00000           0.494486           13.45565
   1008       0.00000           0.494625           13.45944
   1009       0.00000           0.494625           13.45944
   1010       0.00000           0.544408           14.81408
   1011       0.00000           0.544479           14.81603
   1012       0.00000           0.544534           14.81753
   1013       0.00000           0.552785           15.04204
   1014       0.00000           0.552785           15.04204
   1015       0.00000           0.552785           15.04204
   1016       0.00000           0.552785           15.04204
   1017       0.00000           0.552790           15.04218
   1018       0.00000           0.552790           15.04218
   1019       0.00000           0.552825           15.04315
   1020       0.00000           0.552825           15.04315
   1021       0.00000           0.552825           15.04315
   1022       0.00000           0.552825           15.04315
   1023       0.00000           0.552832           15.04332
   1024       0.00000           0.552832           15.04332

  What follows are estimated values for band gap, HOMO, LUMO, etc.
  | They are estimated on a discrete k-point grid and not necessarily exact.
  | For converged numbers, create a DOS and/or band structure plot on a denser k-grid.

  Highest occupied state (VBM) at     -9.88418050 eV (relative to internal zero)
  | Occupation number:      2.00000000
  | K-point:       1 at    0.000000    0.000000    0.000000 (in units of recip. lattice)

  Lowest unoccupied state (CBM) at    -5.31983683 eV (relative to internal zero)
  | Occupation number:      0.00000000
  | K-point:       1 at    0.000000    0.000000    0.000000 (in units of recip. lattice)

  The gap value is above 0.2 eV. Unless you are using a very sparse k-point grid,
  this system is most likely an insulator or a semiconductor.
  ESTIMATED overall HOMO-LUMO gap:      4.56434368 eV between HOMO at k-point 1 and LUMO at k-point 1
  | This appears to be a direct band gap.

  | Chemical Potential                          :    -7.60200867 eV
  | Note that, for insulating systems, the printed 'chemical potential' value is not uniquely defined.
  | It can be anywhere in the energy gap, as long as it correctly separates occupied and unoccupied states.
  | In systems with a gap, the physically relevant chemical potential is the VBM or HOMO.

  Self-consistency cycle converged.


------------------------------------------------------------
  End self-consistency iteration #     1       :  max(cpu_time)    wall_clock(cpu1)
  | Time for this iteration                     :        8.622 s           8.716 s
  | Charge density update                       :        0.000 s           0.000 s
  | Density mixing                              :        0.003 s           0.003 s
  | Hartree multipole update                    :        0.041 s           0.042 s
  | Hartree multipole summation                 :        0.103 s           0.104 s
  | Integration                                 :        1.012 s           1.026 s
  | Solution of K.-S. eqns.                     :        7.458 s           7.534 s
  | Total energy evaluation                     :        0.001 s           0.001 s

  Partial memory accounting:
  | Current value for overall tracked memory usage:
  |   Minimum:       84.263 MB (on task 263)
  |   Maximum:      113.276 MB (on task  33)
  |   Average:       86.309 MB
  | Peak value for overall tracked memory usage:
  |   Minimum:      136.825 MB (on task 263 after allocating kdm)
  |   Maximum:      323.569 MB (on task  33 after allocating eval_tmp)
  |   Average:      149.961 MB
  | Largest tracked array allocation so far:
  |   Minimum:       52.562 MB (kdm_complex on task   0)
  |   Maximum:       52.562 MB (kdm_complex on task   0)
  |   Average:       52.562 MB
  Note:  These values currently only include a subset of arrays which are explicitly tracked.
  The "true" memory usage will be greater.
------------------------------------------------------------

  Energy and forces in a compact form:
  | Total energy uncorrected      :         -0.478331463943030E+06 eV
  | Total energy corrected        :         -0.478331463943030E+06 eV  <-- do not rely on this value for anything but (periodic) metals
  | Electronic free energy        :         -0.478331463943030E+06 eV

  ------------------------------------ 
  Start decomposition of the XC Energy 
  ------------------------------------ 
  X and C from original XC functional choice 
  Hartree-Fock Energy :          0.000000000 Ha              0.000000000 eV
  X Energy            :      -1429.685517928 Ha         -38903.722342417 eV
  C Energy            :        -94.663392785 Ha          -2575.921979157 eV
  XC Energy w/o HF    :      -1524.348910713 Ha         -41479.644321573 eV
  Total XC Energy     :      -1524.348910713 Ha         -41479.644321573 eV
  ------------------------------------ 
  LDA X and C from self-consistent density 
  X Energy LDA        :      -1429.685517928 Ha         -38903.722342417 eV
  C Energy LDA        :        -94.663392785 Ha          -2575.921979157 eV
  ------------------------------------ 
  End decomposition of the XC Energy 
  ------------------------------------ 

------------------------------------------------------------

------------------------------------------------------------------------------
  Final output of selected total energy values:

  The following output summarizes some interesting total energy values
  at the end of a run (AFTER all relaxation, molecular dynamics, etc.).

  | Total energy of the DFT / Hartree-Fock s.c.f. calculation      :        -478331.463943030 eV
  | Final zero-broadening corrected energy (caution - metals only) :        -478331.463943030 eV
  | For reference only, the value of 1 Hartree used in FHI-aims is :             27.211384500 eV
  | For reference only, the overall average (free atom contribution
  | + realspace contribution) of the electrostatic potential after
  | s.c.f. convergence is                                          :            -16.784309736 eV

  Before relying on these values, please be sure to understand exactly which
  total energy value is referred to by a given number. Different objects may
  all carry the same name 'total energy'. Definitions:

  Total energy of the DFT / Hartree-Fock s.c.f. calculation:
  | Note that this energy does not include ANY quantities calculated after the
  | s.c.f. cycle, in particular not ANY RPA, MP2, etc. many-body perturbation terms.

  Final zero-broadening corrected energy:
  | For metallic systems only, a broadening of the occupation numbers at the Fermi
  | level can be extrapolated back to zero broadening by an electron-gas inspired
  | formula. For all systems that are not real metals, this value can be
  | meaningless and should be avoided.

------------------------------------------------------------------------------
  Methods described in the following list of references were used in this FHI-aims run.
  If you publish the results, please make sure to cite these reference if they apply.
  FHI-aims is an academic code, and for our developers (often, Ph.D. students
  and postdocs), scientific credit in the community is essential.
  Thank you for helping us!

  For any use of FHI-aims, please cite:

    Volker Blum, Ralf Gehrke, Felix Hanke, Paula Havu, Ville Havu,
    Xinguo Ren, Karsten Reuter, and Matthias Scheffler
    'Ab initio molecular simulations with numeric atom-centered orbitals'
    Computer Physics Communications 180, 2175-2196 (2009)
    http://doi.org/10.1016/j.cpc.2009.06.022


  The provided symmetry information was generated with SPGlib:

    Atsushi Togo, Yusuke Seto, Dimitar Pashov
    SPGlib 1.7.3 obtained from http://spglib.sourceforge.net
    Licence: New BSD license
    Copyright (C) 2008 Atsushi Togo


  The ELSI infrastructure was used in your run to solve the Kohn-Sham electronic structure.
  Please check out https://wordpress.elsi-interchange.org to learn more.
  If scalability is important for your project, please acknowledge ELSI by citing:

    V. W-z. Yu, F. Corsetti, A. Garcia, W. P. Huhn, M. Jacquelin, W. Jia,
    B. Lange, L. Lin, J. Lu, W. Mi, A. Seifitokaldani, A. Vazquez-Mayagoitia,
    C. Yang, H. Yang, and V. Blum
    'ELSI: A unified software interface for Kohn-Sham electronic structure solvers'
    Computer Physics Communications 222, 267-285 (2018).
    http://doi.org/10.1016/j.cpc.2017.09.007


  For the real-space grid partitioning and parallelization used in this calculation, please cite:

    Ville Havu, Volker Blum, Paula Havu, and Matthias Scheffler,
    'Efficient O(N) integration for all-electron electronic structure calculation'
    'using numerically tabulated basis functions'
    Journal of Computational Physics 228, 8367-8379 (2009).
    http://doi.org/10.1016/j.jcp.2009.08.008

  Of course, there are many other important community references, e.g., those cited in the
  above references. Our list is limited to references that describe implementations in the
  FHI-aims code. The reason is purely practical (length of this list) - please credit others as well.
------------------------------------------------------------
Warnings summary:

At least    0 warnings were raised during execution.
 * A warning was issued further up regarding the CPU load.
** END OF WARNING
   Some CPUs do not participate in the eigenvalue solution.
   In corner cases, this may be the correct behavior. Otherwise,
   consider using a scalapack/elpa version of the code for a parallel treatment.
** END OF WARNING

------------------------------------------------------------
          Leaving FHI-aims.
          Date     :  20260819, Time     :  150434.012

          Computational steps:
          | Number of self-consistency cycles          :            1
          | Number of SCF (re)initializations          :            1

          Detailed time accounting                     :  max(cpu_time)    wall_clock(cpu1)
          | Total time                                  :       29.494 s          30.679 s
          | Preparation time                            :        0.117 s           0.216 s
          | Boundary condition initalization            :        0.507 s           0.542 s
          | Grid partitioning                           :        0.302 s           0.238 s
          | Preloading free-atom quantities on grid     :        0.196 s           0.205 s
          | Free-atom superposition energy              :        0.028 s           0.028 s
          | Total time for integrations                 :        4.057 s           4.130 s
          | Total time for solution of K.-S. equations  :       20.048 s          20.252 s
          | Total time for density update               :        3.013 s           3.049 s
          | Total time for mixing                       :        0.006 s           0.007 s
          | Total time for Hartree multipole update     :        0.081 s           0.083 s
          | Total time for Hartree multipole sum        :        0.219 s           0.229 s
          | Total time for total energy evaluation      :        0.003 s           0.005 s
          | Total time for scaled ZORA corrections      :        0.000 s           0.000 s
          | Total time for matrix I/O                   :        0.115 s           0.000 s

          Partial memory accounting:
          | Residual value for overall tracked memory usage across tasks:     0.000000 MB (should be 0.000000 MB)
          | Peak values for overall tracked memory usage:
          |   Minimum:      136.825 MB (on task 263 after allocating kdm)
          |   Maximum:      323.569 MB (on task  33 after allocating eval_tmp)
          |   Average:      149.961 MB
          | Largest tracked array allocation:
          |   Minimum:       52.562 MB (kdm_complex on task   0)
          |   Maximum:       52.562 MB (kdm_complex on task   0)
          |   Average:       52.562 MB
          Note:  These values currently only include a subset of arrays which are explicitly tracked.
          The "true" memory usage will be greater.

          Have a nice day.
------------------------------------------------------------
