16
Lattice="5.969202784961694 0.0 0.0 2.984601499181649 5.169482507063961 0.0 2.9846014989497176 1.7231622624901628 4.873834343476325" Properties=species:S:1:pos:R:3 pbc="T T T"
Mg       1.80102443       1.03913837       0.73478156
Mg       4.78562582       1.03913837       0.73478156
Mg       3.29332518       3.62387962       0.73478156
Mg       6.27792657       3.62387962       0.73478156
Mg       3.29332518       1.90071950       3.17169873
Mg       6.27792657       1.90071950       3.17169873
Mg       4.78562593       4.48546075       3.17169873
Mg       7.77022732       4.48546075       3.17169873
O        4.78264128       2.76229956       1.95324015
O        7.76724267       2.76229956       1.95324015
O        6.27494203       5.34704082       1.95324015
O        9.25954342       5.34704082       1.95324015
O        6.27494203       3.62388069       4.39015732
O        9.25954342       3.62388069       4.39015732
O        7.76724277       6.20862195       4.39015732
O       10.75184417       6.20862195       4.39015732
