1024
Lattice="-3.228616e-06 16.883455069984 16.883455070208 16.883459302 1.614248e-06 16.883457287944 16.883459301712 16.883457287424 1.61368e-06" Properties=species:S:1:pos:R:3 pbc="T T T"
Mg       1.27267902       1.27267896       1.27267896
Mg       1.27267862       3.38311084       3.38311084
Mg       1.27267821       5.49354273       5.49354273
Mg       1.27267781       7.60397461       7.60397461
Mg       1.27267741       9.71440650       9.71440650
Mg       1.27267700      11.82483838      11.82483838
Mg       1.27267660      13.93527026      13.93527026
Mg       1.27267620      16.04570215      16.04570215
Mg       3.38311143       1.27267916       3.38311112
Mg       3.38311103       3.38311105       5.49354300
Mg       3.38311063       5.49354293       7.60397489
Mg       3.38311022       7.60397481       9.71440677
Mg       3.38310982       9.71440670      11.82483866
Mg       3.38310941      11.82483858      13.93527054
Mg       3.38310901      13.93527046      16.04570242
Mg       3.38310861      16.04570235      18.15613431
Mg       5.49354385       1.27267936       5.49354328
Mg       5.49354344       3.38311125       7.60397517
Mg       5.49354304       5.49354313       9.71440705
Mg       5.49354263       7.60397501      11.82483893
Mg       5.49354223       9.71440690      13.93527082
Mg       5.49354183      11.82483878      16.04570270
Mg       5.49354142      13.93527067      18.15613458
Mg       5.49354102      16.04570255      20.26656647
Mg       7.60397626       1.27267957       7.60397544
Mg       7.60397585       3.38311145       9.71440733
Mg       7.60397545       5.49354333      11.82483921
Mg       7.60397505       7.60397522      13.93527109
Mg       7.60397464       9.71440710      16.04570298
Mg       7.60397424      11.82483898      18.15613486
Mg       7.60397384      13.93527087      20.26656675
Mg       7.60397343      16.04570275      22.37699863
Mg       9.71440867       1.27267977       9.71440760
Mg       9.71440827       3.38311165      11.82483949
Mg       9.71440786       5.49354353      13.93527137
Mg       9.71440746       7.60397542      16.04570326
Mg       9.71440706       9.71440730      18.15613514
Mg       9.71440665      11.82483919      20.26656702
Mg       9.71440625      13.93527107      22.37699891
Mg       9.71440585      16.04570295      24.48743079
Mg      11.82484108       1.27267997      11.82483977
Mg      11.82484068       3.38311185      13.93527165
Mg      11.82484028       5.49354374      16.04570353
Mg      11.82483987       7.60397562      18.15613542
Mg      11.82483947       9.71440750      20.26656730
Mg      11.82483907      11.82483939      22.37699918
Mg      11.82483866      13.93527127      24.48743107
Mg      11.82483826      16.04570316      26.59786295
Mg      13.93527350       1.27268017      13.93527193
Mg      13.93527309       3.38311205      16.04570381
Mg      13.93527269       5.49354394      18.15613569
Mg      13.93527229       7.60397582      20.26656758
Mg      13.93527188       9.71440771      22.37699946
Mg      13.93527148      11.82483959      24.48743134
Mg      13.93527108      13.93527147      26.59786323
Mg      13.93527067      16.04570336      28.70829511
Mg      16.04570591       1.27268037      16.04570409
Mg      16.04570551       3.38311226      18.15613597
Mg      16.04570510       5.49354414      20.26656785
Mg      16.04570470       7.60397602      22.37699974
Mg      16.04570430       9.71440791      24.48743162
Mg      16.04570389      11.82483979      26.59786351
Mg      16.04570349      13.93527167      28.70829539
Mg      16.04570308      16.04570356      30.81872727
Mg       3.38311143       3.38311112       1.27267916
Mg       3.38311103       5.49354300       3.38311105
Mg       3.38311063       7.60397489       5.49354293
Mg       3.38311022       9.71440677       7.60397481
Mg       3.38310982      11.82483866       9.71440670
Mg       3.38310941      13.93527054      11.82483858
Mg       3.38310901      16.04570242      13.93527046
Mg       3.38310861      18.15613431      16.04570235
Mg       5.49354385       3.38311132       3.38311132
Mg       5.49354344       5.49354321       5.49354321
Mg       5.49354304       7.60397509       7.60397509
Mg       5.49354263       9.71440697       9.71440697
Mg       5.49354223      11.82483886      11.82483886
Mg       5.49354183      13.93527074      13.93527074
Mg       5.49354142      16.04570263      16.04570263
Mg       5.49354102      18.15613451      18.15613451
Mg       7.60397626       3.38311152       5.49354348
Mg       7.60397585       5.49354341       7.60397537
Mg       7.60397545       7.60397529       9.71440725
Mg       7.60397505       9.71440718      11.82483914
Mg       7.60397464      11.82483906      13.93527102
Mg       7.60397424      13.93527094      16.04570290
Mg       7.60397384      16.04570283      18.15613479
Mg       7.60397343      18.15613471      20.26656667
Mg       9.71440867       3.38311173       7.60397564
Mg       9.71440827       5.49354361       9.71440753
Mg       9.71440786       7.60397549      11.82483941
Mg       9.71440746       9.71440738      13.93527130
Mg       9.71440706      11.82483926      16.04570318
Mg       9.71440665      13.93527115      18.15613506
Mg       9.71440625      16.04570303      20.26656695
Mg       9.71440585      18.15613491      22.37699883
Mg      11.82484108       3.38311193       9.71440781
Mg      11.82484068       5.49354381      11.82483969
Mg      11.82484028       7.60397570      13.93527157
Mg      11.82483987       9.71440758      16.04570346
Mg      11.82483947      11.82483946      18.15613534
Mg      11.82483907      13.93527135      20.26656722
Mg      11.82483866      16.04570323      22.37699911
Mg      11.82483826      18.15613511      24.48743099
Mg      13.93527350       3.38311213      11.82483997
Mg      13.93527309       5.49354401      13.93527185
Mg      13.93527269       7.60397590      16.04570373
Mg      13.93527229       9.71440778      18.15613562
Mg      13.93527188      11.82483966      20.26656750
Mg      13.93527148      13.93527155      22.37699939
Mg      13.93527108      16.04570343      24.48743127
Mg      13.93527067      18.15613532      26.59786315
Mg      16.04570591       3.38311233      13.93527213
Mg      16.04570551       5.49354422      16.04570401
Mg      16.04570510       7.60397610      18.15613590
Mg      16.04570470       9.71440798      20.26656778
Mg      16.04570429      11.82483987      22.37699966
Mg      16.04570389      13.93527175      24.48743155
Mg      16.04570349      16.04570363      26.59786343
Mg      16.04570308      18.15613552      28.70829531
Mg      18.15613832       3.38311253      16.04570429
Mg      18.15613792       5.49354442      18.15613617
Mg      18.15613751       7.60397630      20.26656806
Mg      18.15613711       9.71440818      22.37699994
Mg      18.15613671      11.82484007      24.48743182
Mg      18.15613630      13.93527195      26.59786371
Mg      18.15613590      16.04570384      28.70829559
Mg      18.15613550      18.15613572      30.81872748
Mg       5.49354385       5.49354328       1.27267936
Mg       5.49354344       7.60397517       3.38311125
Mg       5.49354304       9.71440705       5.49354313
Mg       5.49354263      11.82483893       7.60397501
Mg       5.49354223      13.93527082       9.71440690
Mg       5.49354183      16.04570270      11.82483878
Mg       5.49354142      18.15613458      13.93527067
Mg       5.49354102      20.26656647      16.04570255
Mg       7.60397626       5.49354348       3.38311152
Mg       7.60397585       7.60397537       5.49354341
Mg       7.60397545       9.71440725       7.60397529
Mg       7.60397505      11.82483913       9.71440718
Mg       7.60397464      13.93527102      11.82483906
Mg       7.60397424      16.04570290      13.93527094
Mg       7.60397384      18.15613479      16.04570283
Mg       7.60397343      20.26656667      18.15613471
Mg       9.71440867       5.49354369       5.49354369
Mg       9.71440827       7.60397557       7.60397557
Mg       9.71440786       9.71440745       9.71440745
Mg       9.71440746      11.82483934      11.82483934
Mg       9.71440706      13.93527122      13.93527122
Mg       9.71440665      16.04570310      16.04570310
Mg       9.71440625      18.15613499      18.15613499
Mg       9.71440585      20.26656687      20.26656687
Mg      11.82484108       5.49354389       7.60397585
Mg      11.82484068       7.60397577       9.71440773
Mg      11.82484028       9.71440765      11.82483961
Mg      11.82483987      11.82483954      13.93527150
Mg      11.82483947      13.93527142      16.04570338
Mg      11.82483907      16.04570331      18.15613527
Mg      11.82483866      18.15613519      20.26656715
Mg      11.82483826      20.26656707      22.37699903
Mg      13.93527350       5.49354409       9.71440801
Mg      13.93527309       7.60397597      11.82483989
Mg      13.93527269       9.71440786      13.93527178
Mg      13.93527229      11.82483974      16.04570366
Mg      13.93527188      13.93527162      18.15613554
Mg      13.93527148      16.04570351      20.26656743
Mg      13.93527108      18.15613539      22.37699931
Mg      13.93527067      20.26656728      24.48743119
Mg      16.04570591       5.49354429      11.82484017
Mg      16.04570551       7.60397617      13.93527205
Mg      16.04570510       9.71440806      16.04570394
Mg      16.04570470      11.82483994      18.15613582
Mg      16.04570429      13.93527183      20.26656770
Mg      16.04570389      16.04570371      22.37699959
Mg      16.04570349      18.15613559      24.48743147
Mg      16.04570308      20.26656748      26.59786335
Mg      18.15613832       5.49354449      13.93527233
Mg      18.15613792       7.60397638      16.04570421
Mg      18.15613751       9.71440826      18.15613610
Mg      18.15613711      11.82484014      20.26656798
Mg      18.15613671      13.93527203      22.37699986
Mg      18.15613630      16.04570391      24.48743175
Mg      18.15613590      18.15613580      26.59786363
Mg      18.15613550      20.26656768      28.70829552
Mg      20.26657073       5.49354469      16.04570449
Mg      20.26657033       7.60397658      18.15613637
Mg      20.26656993       9.71440846      20.26656826
Mg      20.26656952      11.82484035      22.37700014
Mg      20.26656912      13.93527223      24.48743203
Mg      20.26656872      16.04570411      26.59786391
Mg      20.26656831      18.15613600      28.70829579
Mg      20.26656791      20.26656788      30.81872768
Mg       7.60397626       7.60397544       1.27267957
Mg       7.60397585       9.71440733       3.38311145
Mg       7.60397545      11.82483921       5.49354333
Mg       7.60397505      13.93527109       7.60397522
Mg       7.60397464      16.04570298       9.71440710
Mg       7.60397424      18.15613486      11.82483898
Mg       7.60397384      20.26656675      13.93527087
Mg       7.60397343      22.37699863      16.04570275
Mg       9.71440867       7.60397564       3.38311173
Mg       9.71440827       9.71440753       5.49354361
Mg       9.71440786      11.82483941       7.60397549
Mg       9.71440746      13.93527130       9.71440738
Mg       9.71440706      16.04570318      11.82483926
Mg       9.71440665      18.15613506      13.93527115
Mg       9.71440625      20.26656695      16.04570303
Mg       9.71440585      22.37699883      18.15613491
Mg      11.82484108       7.60397585       5.49354389
Mg      11.82484068       9.71440773       7.60397577
Mg      11.82484028      11.82483961       9.71440765
Mg      11.82483987      13.93527150      11.82483954
Mg      11.82483947      16.04570338      13.93527142
Mg      11.82483907      18.15613527      16.04570331
Mg      11.82483866      20.26656715      18.15613519
Mg      11.82483826      22.37699903      20.26656707
Mg      13.93527350       7.60397605       7.60397605
Mg      13.93527309       9.71440793       9.71440793
Mg      13.93527269      11.82483982      11.82483982
Mg      13.93527229      13.93527170      13.93527170
Mg      13.93527188      16.04570358      16.04570358
Mg      13.93527148      18.15613547      18.15613547
Mg      13.93527108      20.26656735      20.26656735
Mg      13.93527067      22.37699923      22.37699923
Mg      16.04570591       7.60397625       9.71440821
Mg      16.04570551       9.71440813      11.82484009
Mg      16.04570510      11.82484002      13.93527198
Mg      16.04570470      13.93527190      16.04570386
Mg      16.04570429      16.04570378      18.15613574
Mg      16.04570389      18.15613567      20.26656763
Mg      16.04570349      20.26656755      22.37699951
Mg      16.04570308      22.37699944      24.48743140
Mg      18.15613832       7.60397645      11.82484037
Mg      18.15613792       9.71440834      13.93527225
Mg      18.15613751      11.82484022      16.04570414
Mg      18.15613711      13.93527210      18.15613602
Mg      18.15613671      16.04570399      20.26656791
Mg      18.15613630      18.15613587      22.37699979
Mg      18.15613590      20.26656775      24.48743167
Mg      18.15613550      22.37699964      26.59786356
Mg      20.26657073       7.60397665      13.93527253
Mg      20.26657033       9.71440854      16.04570441
Mg      20.26656993      11.82484042      18.15613630
Mg      20.26656952      13.93527230      20.26656818
Mg      20.26656912      16.04570419      22.37700007
Mg      20.26656872      18.15613607      24.48743195
Mg      20.26656831      20.26656796      26.59786383
Mg      20.26656791      22.37699984      28.70829572
Mg      22.37700315       7.60397686      16.04570469
Mg      22.37700274       9.71440874      18.15613658
Mg      22.37700234      11.82484062      20.26656846
Mg      22.37700194      13.93527251      22.37700034
Mg      22.37700153      16.04570439      24.48743223
Mg      22.37700113      18.15613627      26.59786411
Mg      22.37700073      20.26656816      28.70829599
Mg      22.37700032      22.37700004      30.81872788
Mg       9.71440867       9.71440760       1.27267977
Mg       9.71440827      11.82483949       3.38311165
Mg       9.71440786      13.93527137       5.49354353
Mg       9.71440746      16.04570325       7.60397542
Mg       9.71440706      18.15613514       9.71440730
Mg       9.71440665      20.26656702      11.82483919
Mg       9.71440625      22.37699891      13.93527107
Mg       9.71440585      24.48743079      16.04570295
Mg      11.82484108       9.71440781       3.38311193
Mg      11.82484068      11.82483969       5.49354381
Mg      11.82484028      13.93527157       7.60397570
Mg      11.82483987      16.04570346       9.71440758
Mg      11.82483947      18.15613534      11.82483946
Mg      11.82483907      20.26656722      13.93527135
Mg      11.82483866      22.37699911      16.04570323
Mg      11.82483826      24.48743099      18.15613511
Mg      13.93527350       9.71440801       5.49354409
Mg      13.93527309      11.82483989       7.60397597
Mg      13.93527269      13.93527177       9.71440786
Mg      13.93527229      16.04570366      11.82483974
Mg      13.93527188      18.15613554      13.93527162
Mg      13.93527148      20.26656743      16.04570351
Mg      13.93527107      22.37699931      18.15613539
Mg      13.93527067      24.48743119      20.26656728
Mg      16.04570591       9.71440821       7.60397625
Mg      16.04570551      11.82484009       9.71440813
Mg      16.04570510      13.93527198      11.82484002
Mg      16.04570470      16.04570386      13.93527190
Mg      16.04570429      18.15613574      16.04570379
Mg      16.04570389      20.26656763      18.15613567
Mg      16.04570349      22.37699951      20.26656755
Mg      16.04570308      24.48743140      22.37699944
Mg      18.15613832       9.71440841       9.71440841
Mg      18.15613792      11.82484029      11.82484029
Mg      18.15613751      13.93527218      13.93527218
Mg      18.15613711      16.04570406      16.04570406
Mg      18.15613671      18.15613595      18.15613595
Mg      18.15613630      20.26656783      20.26656783
Mg      18.15613590      22.37699971      22.37699971
Mg      18.15613550      24.48743160      24.48743160
Mg      20.26657073       9.71440861      11.82484057
Mg      20.26657033      11.82484050      13.93527246
Mg      20.26656993      13.93527238      16.04570434
Mg      20.26656952      16.04570426      18.15613622
Mg      20.26656912      18.15613615      20.26656811
Mg      20.26656872      20.26656803      22.37699999
Mg      20.26656831      22.37699992      24.48743187
Mg      20.26656791      24.48743180      26.59786376
Mg      22.37700315       9.71440881      13.93527273
Mg      22.37700274      11.82484070      16.04570462
Mg      22.37700234      13.93527258      18.15613650
Mg      22.37700194      16.04570447      20.26656838
Mg      22.37700153      18.15613635      22.37700027
Mg      22.37700113      20.26656823      24.48743215
Mg      22.37700073      22.37700012      26.59786404
Mg      22.37700032      24.48743200      28.70829592
Mg      24.48743556       9.71440902      16.04570489
Mg      24.48743516      11.82484090      18.15613678
Mg      24.48743475      13.93527278      20.26656866
Mg      24.48743435      16.04570467      22.37700055
Mg      24.48743395      18.15613655      24.48743243
Mg      24.48743354      20.26656843      26.59786431
Mg      24.48743314      22.37700032      28.70829620
Mg      24.48743274      24.48743220      30.81872808
Mg      11.82484108      11.82483976       1.27267997
Mg      11.82484068      13.93527165       3.38311185
Mg      11.82484028      16.04570353       5.49354374
Mg      11.82483987      18.15613542       7.60397562
Mg      11.82483947      20.26656730       9.71440750
Mg      11.82483907      22.37699918      11.82483939
Mg      11.82483866      24.48743107      13.93527127
Mg      11.82483826      26.59786295      16.04570316
Mg      13.93527350      11.82483997       3.38311213
Mg      13.93527309      13.93527185       5.49354401
Mg      13.93527269      16.04570373       7.60397590
Mg      13.93527229      18.15613562       9.71440778
Mg      13.93527188      20.26656750      11.82483966
Mg      13.93527148      22.37699939      13.93527155
Mg      13.93527107      24.48743127      16.04570343
Mg      13.93527067      26.59786315      18.15613532
Mg      16.04570591      11.82484017       5.49354429
Mg      16.04570551      13.93527205       7.60397617
Mg      16.04570510      16.04570394       9.71440806
Mg      16.04570470      18.15613582      11.82483994
Mg      16.04570429      20.26656770      13.93527183
Mg      16.04570389      22.37699959      16.04570371
Mg      16.04570349      24.48743147      18.15613559
Mg      16.04570308      26.59786335      20.26656748
Mg      18.15613832      11.82484037       7.60397645
Mg      18.15613792      13.93527225       9.71440834
Mg      18.15613751      16.04570414      11.82484022
Mg      18.15613711      18.15613602      13.93527210
Mg      18.15613671      20.26656791      16.04570399
Mg      18.15613630      22.37699979      18.15613587
Mg      18.15613590      24.48743167      20.26656775
Mg      18.15613550      26.59786356      22.37699964
Mg      20.26657073      11.82484057       9.71440861
Mg      20.26657033      13.93527246      11.82484050
Mg      20.26656993      16.04570434      13.93527238
Mg      20.26656952      18.15613622      16.04570426
Mg      20.26656912      20.26656811      18.15613615
Mg      20.26656872      22.37699999      20.26656803
Mg      20.26656831      24.48743187      22.37699992
Mg      20.26656791      26.59786376      24.48743180
Mg      22.37700315      11.82484077      11.82484077
Mg      22.37700274      13.93527266      13.93527266
Mg      22.37700234      16.04570454      16.04570454
Mg      22.37700194      18.15613642      18.15613642
Mg      22.37700153      20.26656831      20.26656831
Mg      22.37700113      22.37700019      22.37700019
Mg      22.37700073      24.48743208      24.48743208
Mg      22.37700032      26.59786396      26.59786396
Mg      24.48743556      11.82484098      13.93527293
Mg      24.48743516      13.93527286      16.04570482
Mg      24.48743475      16.04570474      18.15613670
Mg      24.48743435      18.15613663      20.26656859
Mg      24.48743395      20.26656851      22.37700047
Mg      24.48743354      22.37700039      24.48743235
Mg      24.48743314      24.48743228      26.59786424
Mg      24.48743274      26.59786416      28.70829612
Mg      26.59786797      11.82484118      16.04570510
Mg      26.59786757      13.93527306      18.15613698
Mg      26.59786717      16.04570494      20.26656886
Mg      26.59786676      18.15613683      22.37700075
Mg      26.59786636      20.26656871      24.48743263
Mg      26.59786596      22.37700060      26.59786451
Mg      26.59786555      24.48743248      28.70829640
Mg      26.59786515      26.59786436      30.81872828
Mg      13.93527350      13.93527193       1.27268017
Mg      13.93527309      16.04570381       3.38311205
Mg      13.93527269      18.15613569       5.49354394
Mg      13.93527229      20.26656758       7.60397582
Mg      13.93527188      22.37699946       9.71440771
Mg      13.93527148      24.48743134      11.82483959
Mg      13.93527107      26.59786323      13.93527147
Mg      13.93527067      28.70829511      16.04570336
Mg      16.04570591      13.93527213       3.38311233
Mg      16.04570551      16.04570401       5.49354422
Mg      16.04570510      18.15613589       7.60397610
Mg      16.04570470      20.26656778       9.71440798
Mg      16.04570429      22.37699966      11.82483987
Mg      16.04570389      24.48743155      13.93527175
Mg      16.04570349      26.59786343      16.04570363
Mg      16.04570308      28.70829531      18.15613552
Mg      18.15613832      13.93527233       5.49354449
Mg      18.15613792      16.04570421       7.60397638
Mg      18.15613751      18.15613610       9.71440826
Mg      18.15613711      20.26656798      11.82484014
Mg      18.15613671      22.37699986      13.93527203
Mg      18.15613630      24.48743175      16.04570391
Mg      18.15613590      26.59786363      18.15613579
Mg      18.15613550      28.70829552      20.26656768
Mg      20.26657073      13.93527253       7.60397665
Mg      20.26657033      16.04570441       9.71440854
Mg      20.26656993      18.15613630      11.82484042
Mg      20.26656952      20.26656818      13.93527230
Mg      20.26656912      22.37700007      16.04570419
Mg      20.26656872      24.48743195      18.15613607
Mg      20.26656831      26.59786383      20.26656796
Mg      20.26656791      28.70829572      22.37699984
Mg      22.37700315      13.93527273       9.71440881
Mg      22.37700274      16.04570462      11.82484070
Mg      22.37700234      18.15613650      13.93527258
Mg      22.37700194      20.26656838      16.04570447
Mg      22.37700153      22.37700027      18.15613635
Mg      22.37700113      24.48743215      20.26656823
Mg      22.37700073      26.59786404      22.37700012
Mg      22.37700032      28.70829592      24.48743200
Mg      24.48743556      13.93527293      11.82484098
Mg      24.48743516      16.04570482      13.93527286
Mg      24.48743475      18.15613670      16.04570474
Mg      24.48743435      20.26656859      18.15613663
Mg      24.48743395      22.37700047      20.26656851
Mg      24.48743354      24.48743235      22.37700039
Mg      24.48743314      26.59786424      24.48743228
Mg      24.48743274      28.70829612      26.59786416
Mg      26.59786797      13.93527314      13.93527314
Mg      26.59786757      16.04570502      16.04570502
Mg      26.59786717      18.15613690      18.15613690
Mg      26.59786676      20.26656879      20.26656879
Mg      26.59786636      22.37700067      22.37700067
Mg      26.59786595      24.48743256      24.48743256
Mg      26.59786555      26.59786444      26.59786444
Mg      26.59786515      28.70829632      28.70829632
Mg      28.70830039      13.93527334      16.04570530
Mg      28.70829998      16.04570522      18.15613718
Mg      28.70829958      18.15613711      20.26656906
Mg      28.70829917      20.26656899      22.37700095
Mg      28.70829877      22.37700087      24.48743283
Mg      28.70829837      24.48743276      26.59786472
Mg      28.70829796      26.59786464      28.70829660
Mg      28.70829756      28.70829652      30.81872848
Mg      16.04570591      16.04570409       1.27268037
Mg      16.04570551      18.15613597       3.38311226
Mg      16.04570510      20.26656785       5.49354414
Mg      16.04570470      22.37699974       7.60397602
Mg      16.04570429      24.48743162       9.71440791
Mg      16.04570389      26.59786351      11.82483979
Mg      16.04570349      28.70829539      13.93527167
Mg      16.04570308      30.81872727      16.04570356
Mg      18.15613832      16.04570429       3.38311253
Mg      18.15613792      18.15613617       5.49354442
Mg      18.15613751      20.26656806       7.60397630
Mg      18.15613711      22.37699994       9.71440818
Mg      18.15613671      24.48743182      11.82484007
Mg      18.15613630      26.59786371      13.93527195
Mg      18.15613590      28.70829559      16.04570384
Mg      18.15613550      30.81872747      18.15613572
Mg      20.26657073      16.04570449       5.49354469
Mg      20.26657033      18.15613637       7.60397658
Mg      20.26656993      20.26656826       9.71440846
Mg      20.26656952      22.37700014      11.82484035
Mg      20.26656912      24.48743203      13.93527223
Mg      20.26656872      26.59786391      16.04570411
Mg      20.26656831      28.70829579      18.15613600
Mg      20.26656791      30.81872768      20.26656788
Mg      22.37700315      16.04570469       7.60397686
Mg      22.37700274      18.15613658       9.71440874
Mg      22.37700234      20.26656846      11.82484062
Mg      22.37700194      22.37700034      13.93527251
Mg      22.37700153      24.48743223      16.04570439
Mg      22.37700113      26.59786411      18.15613627
Mg      22.37700073      28.70829599      20.26656816
Mg      22.37700032      30.81872788      22.37700004
Mg      24.48743556      16.04570489       9.71440902
Mg      24.48743516      18.15613678      11.82484090
Mg      24.48743475      20.26656866      13.93527278
Mg      24.48743435      22.37700054      16.04570467
Mg      24.48743395      24.48743243      18.15613655
Mg      24.48743354      26.59786431      20.26656843
Mg      24.48743314      28.70829620      22.37700032
Mg      24.48743274      30.81872808      24.48743220
Mg      26.59786797      16.04570510      11.82484118
Mg      26.59786757      18.15613698      13.93527306
Mg      26.59786717      20.26656886      16.04570494
Mg      26.59786676      22.37700075      18.15613683
Mg      26.59786636      24.48743263      20.26656871
Mg      26.59786595      26.59786451      22.37700060
Mg      26.59786555      28.70829640      24.48743248
Mg      26.59786515      30.81872828      26.59786436
Mg      28.70830039      16.04570530      13.93527334
Mg      28.70829998      18.15613718      16.04570522
Mg      28.70829958      20.26656906      18.15613711
Mg      28.70829917      22.37700095      20.26656899
Mg      28.70829877      24.48743283      22.37700087
Mg      28.70829837      26.59786472      24.48743276
Mg      28.70829796      28.70829660      26.59786464
Mg      28.70829756      30.81872848      28.70829652
Mg      30.81873280      16.04570550      16.04570550
Mg      30.81873239      18.15613738      18.15613738
Mg      30.81873199      20.26656927      20.26656927
Mg      30.81873159      22.37700115      22.37700115
Mg      30.81873118      24.48743303      24.48743303
Mg      30.81873078      26.59786492      26.59786492
Mg      30.81873038      28.70829680      28.70829680
Mg      30.81872997      30.81872869      30.81872869
O        3.38311123       3.38311108       3.38311108
O        3.38311083       5.49354297       5.49354297
O        3.38311042       7.60397485       7.60397485
O        3.38311002       9.71440673       9.71440673
O        3.38310962      11.82483862      11.82483862
O        3.38310921      13.93527050      13.93527050
O        3.38310881      16.04570239      16.04570239
O        3.38310840      18.15613427      18.15613427
O        5.49354364       3.38311128       5.49354324
O        5.49354324       5.49354317       7.60397513
O        5.49354284       7.60397505       9.71440701
O        5.49354243       9.71440694      11.82483890
O        5.49354203      11.82483882      13.93527078
O        5.49354163      13.93527070      16.04570266
O        5.49354122      16.04570259      18.15613455
O        5.49354081      18.15613447      20.26656643
O        7.60397606       3.38311149       7.60397541
O        7.60397565       5.49354337       9.71440729
O        7.60397525       7.60397525      11.82483917
O        7.60397485       9.71440714      13.93527106
O        7.60397444      11.82483902      16.04570294
O        7.60397404      13.93527091      18.15613482
O        7.60397363      16.04570279      20.26656671
O        7.60397322      18.15613467      22.37699859
O        9.71440847       3.38311169       9.71440757
O        9.71440807       5.49354357      11.82483945
O        9.71440766       7.60397546      13.93527133
O        9.71440726       9.71440734      16.04570322
O        9.71440685      11.82483922      18.15613510
O        9.71440645      13.93527111      20.26656699
O        9.71440605      16.04570299      22.37699887
O        9.71440564      18.15613487      24.48743075
O       11.82484088       3.38311189      11.82483973
O       11.82484048       5.49354377      13.93527161
O       11.82484007       7.60397566      16.04570349
O       11.82483967       9.71440754      18.15613538
O       11.82483927      11.82483943      20.26656726
O       11.82483886      13.93527131      22.37699915
O       11.82483846      16.04570319      24.48743103
O       11.82483805      18.15613508      26.59786291
O       13.93527329       3.38311209      13.93527189
O       13.93527289       5.49354398      16.04570377
O       13.93527249       7.60397586      18.15613566
O       13.93527208       9.71440774      20.26656754
O       13.93527168      11.82483963      22.37699942
O       13.93527128      13.93527151      24.48743131
O       13.93527087      16.04570339      26.59786319
O       13.93527046      18.15613528      28.70829507
O       16.04570571       3.38311229      16.04570405
O       16.04570530       5.49354418      18.15613593
O       16.04570490       7.60397606      20.26656782
O       16.04570450       9.71440795      22.37699970
O       16.04570409      11.82483983      24.48743158
O       16.04570369      13.93527171      26.59786347
O       16.04570329      16.04570360      28.70829535
O       16.04570287      18.15613548      30.81872724
O       18.15613811       3.38311250      18.15613621
O       18.15613772       5.49354438      20.26656809
O       18.15613730       7.60397626      22.37699998
O       18.15613691       9.71440815      24.48743186
O       18.15613650      11.82484003      26.59786375
O       18.15613609      13.93527191      28.70829563
O       18.15613570      16.04570380      30.81872751
O       18.15613529      18.15613568      32.92915940
O        5.49354364       5.49354324       3.38311128
O        5.49354324       7.60397513       5.49354317
O        5.49354284       9.71440701       7.60397505
O        5.49354243      11.82483890       9.71440694
O        5.49354203      13.93527078      11.82483882
O        5.49354163      16.04570266      13.93527070
O        5.49354122      18.15613455      16.04570259
O        5.49354081      20.26656643      18.15613447
O        7.60397606       5.49354345       5.49354345
O        7.60397565       7.60397533       7.60397533
O        7.60397525       9.71440721       9.71440721
O        7.60397485      11.82483910      11.82483910
O        7.60397444      13.93527098      13.93527098
O        7.60397404      16.04570286      16.04570286
O        7.60397363      18.15613475      18.15613475
O        7.60397322      20.26656663      20.26656663
O        9.71440847       5.49354365       7.60397561
O        9.71440807       7.60397553       9.71440749
O        9.71440766       9.71440742      11.82483937
O        9.71440726      11.82483930      13.93527126
O        9.71440685      13.93527118      16.04570314
O        9.71440645      16.04570307      18.15613503
O        9.71440605      18.15613495      20.26656691
O        9.71440564      20.26656683      22.37699879
O       11.82484088       5.49354385       9.71440777
O       11.82484048       7.60397573      11.82483965
O       11.82484007       9.71440762      13.93527154
O       11.82483967      11.82483950      16.04570342
O       11.82483927      13.93527138      18.15613530
O       11.82483886      16.04570327      20.26656719
O       11.82483846      18.15613515      22.37699907
O       11.82483805      20.26656704      24.48743095
O       13.93527329       5.49354405      11.82483993
O       13.93527289       7.60397593      13.93527181
O       13.93527249       9.71440782      16.04570370
O       13.93527208      11.82483970      18.15613558
O       13.93527168      13.93527159      20.26656746
O       13.93527128      16.04570347      22.37699935
O       13.93527087      18.15613535      24.48743123
O       13.93527046      20.26656724      26.59786312
O       16.04570571       5.49354425      13.93527209
O       16.04570530       7.60397614      16.04570397
O       16.04570490       9.71440802      18.15613586
O       16.04570450      11.82483990      20.26656774
O       16.04570409      13.93527179      22.37699962
O       16.04570369      16.04570367      24.48743151
O       16.04570329      18.15613556      26.59786339
O       16.04570287      20.26656744      28.70829528
O       18.15613812       5.49354445      16.04570425
O       18.15613772       7.60397634      18.15613613
O       18.15613731       9.71440822      20.26656802
O       18.15613691      11.82484011      22.37699990
O       18.15613651      13.93527199      24.48743179
O       18.15613610      16.04570387      26.59786367
O       18.15613570      18.15613576      28.70829555
O       18.15613529      20.26656764      30.81872744
O       20.26657053       5.49354466      18.15613641
O       20.26657012       7.60397654      20.26656830
O       20.26656972       9.71440842      22.37700018
O       20.26656932      11.82484031      24.48743206
O       20.26656891      13.93527219      26.59786395
O       20.26656850      16.04570408      28.70829583
O       20.26656811      18.15613596      30.81872771
O       20.26656770      20.26656784      32.92915960
O        7.60397606       7.60397541       3.38311149
O        7.60397565       9.71440729       5.49354337
O        7.60397525      11.82483917       7.60397525
O        7.60397485      13.93527106       9.71440714
O        7.60397444      16.04570294      11.82483902
O        7.60397404      18.15613482      13.93527091
O        7.60397363      20.26656671      16.04570279
O        7.60397322      22.37699859      18.15613467
O        9.71440847       7.60397561       5.49354365
O        9.71440807       9.71440749       7.60397553
O        9.71440766      11.82483937       9.71440742
O        9.71440726      13.93527126      11.82483930
O        9.71440685      16.04570314      13.93527118
O        9.71440645      18.15613503      16.04570307
O        9.71440605      20.26656691      18.15613495
O        9.71440563      22.37699879      20.26656683
O       11.82484088       7.60397581       7.60397581
O       11.82484048       9.71440769       9.71440769
O       11.82484007      11.82483958      11.82483958
O       11.82483967      13.93527146      13.93527146
O       11.82483927      16.04570334      16.04570334
O       11.82483886      18.15613523      18.15613523
O       11.82483846      20.26656711      20.26656711
O       11.82483806      22.37699899      22.37699899
O       13.93527329       7.60397601       9.71440797
O       13.93527289       9.71440789      11.82483985
O       13.93527249      11.82483978      13.93527174
O       13.93527208      13.93527166      16.04570362
O       13.93527168      16.04570355      18.15613550
O       13.93527128      18.15613543      20.26656739
O       13.93527087      20.26656731      22.37699927
O       13.93527046      22.37699920      24.48743116
O       16.04570571       7.60397621      11.82484013
O       16.04570530       9.71440810      13.93527201
O       16.04570490      11.82483998      16.04570390
O       16.04570450      13.93527186      18.15613578
O       16.04570409      16.04570375      20.26656767
O       16.04570369      18.15613563      22.37699955
O       16.04570329      20.26656751      24.48743143
O       16.04570287      22.37699940      26.59786332
O       18.15613812       7.60397641      13.93527229
O       18.15613772       9.71440830      16.04570418
O       18.15613731      11.82484018      18.15613606
O       18.15613691      13.93527207      20.26656794
O       18.15613651      16.04570395      22.37699983
O       18.15613610      18.15613583      24.48743171
O       18.15613570      20.26656772      26.59786359
O       18.15613529      22.37699960      28.70829548
O       20.26657053       7.60397662      16.04570445
O       20.26657013       9.71440850      18.15613634
O       20.26656973      11.82484038      20.26656822
O       20.26656932      13.93527227      22.37700010
O       20.26656892      16.04570415      24.48743199
O       20.26656851      18.15613603      26.59786387
O       20.26656811      20.26656792      28.70829576
O       20.26656770      22.37699980      30.81872764
O       22.37700295       7.60397682      18.15613661
O       22.37700253       9.71440870      20.26656850
O       22.37700213      11.82484059      22.37700038
O       22.37700173      13.93527247      24.48743226
O       22.37700132      16.04570435      26.59786415
O       22.37700093      18.15613624      28.70829603
O       22.37700051      20.26656812      30.81872792
O       22.37700011      22.37700000      32.92915980
O        9.71440847       9.71440757       3.38311169
O        9.71440807      11.82483945       5.49354357
O        9.71440766      13.93527133       7.60397546
O        9.71440726      16.04570322       9.71440734
O        9.71440685      18.15613510      11.82483922
O        9.71440645      20.26656698      13.93527111
O        9.71440605      22.37699887      16.04570299
O        9.71440563      24.48743075      18.15613487
O       11.82484088       9.71440777       5.49354385
O       11.82484048      11.82483965       7.60397573
O       11.82484007      13.93527154       9.71440762
O       11.82483967      16.04570342      11.82483950
O       11.82483927      18.15613530      13.93527138
O       11.82483886      20.26656719      16.04570327
O       11.82483846      22.37699907      18.15613515
O       11.82483806      24.48743095      20.26656704
O       13.93527329       9.71440797       7.60397601
O       13.93527289      11.82483985       9.71440789
O       13.93527249      13.93527174      11.82483978
O       13.93527208      16.04570362      13.93527166
O       13.93527168      18.15613550      16.04570355
O       13.93527128      20.26656739      18.15613543
O       13.93527087      22.37699927      20.26656731
O       13.93527046      24.48743116      22.37699920
O       16.04570571       9.71440817       9.71440817
O       16.04570530      11.82484006      11.82484006
O       16.04570490      13.93527194      13.93527194
O       16.04570450      16.04570382      16.04570382
O       16.04570409      18.15613571      18.15613571
O       16.04570369      20.26656759      20.26656759
O       16.04570329      22.37699947      22.37699947
O       16.04570287      24.48743136      24.48743136
O       18.15613812       9.71440837      11.82484033
O       18.15613772      11.82484026      13.93527222
O       18.15613731      13.93527214      16.04570410
O       18.15613691      16.04570402      18.15613598
O       18.15613651      18.15613591      20.26656787
O       18.15613610      20.26656779      22.37699975
O       18.15613570      22.37699968      24.48743163
O       18.15613528      24.48743156      26.59786352
O       20.26657053       9.71440857      13.93527249
O       20.26657013      11.82484046      16.04570438
O       20.26656973      13.93527234      18.15613626
O       20.26656932      16.04570423      20.26656814
O       20.26656892      18.15613611      22.37700003
O       20.26656851      20.26656799      24.48743191
O       20.26656811      22.37699988      26.59786380
O       20.26656770      24.48743176      28.70829568
O       22.37700295       9.71440878      16.04570465
O       22.37700254      11.82484066      18.15613654
O       22.37700214      13.93527254      20.26656842
O       22.37700173      16.04570443      22.37700031
O       22.37700133      18.15613631      24.48743219
O       22.37700093      20.26656820      26.59786407
O       22.37700052      22.37700008      28.70829596
O       22.37700011      24.48743196      30.81872784
O       24.48743535       9.71440898      18.15613682
O       24.48743494      11.82484086      20.26656870
O       24.48743455      13.93527275      22.37700058
O       24.48743414      16.04570463      24.48743247
O       24.48743373      18.15613651      26.59786435
O       24.48743334      20.26656840      28.70829623
O       24.48743293      22.37700028      30.81872812
O       24.48743252      24.48743216      32.92916000
O       11.82484088      11.82483973       3.38311189
O       11.82484048      13.93527161       5.49354377
O       11.82484007      16.04570349       7.60397566
O       11.82483967      18.15613538       9.71440754
O       11.82483927      20.26656726      11.82483943
O       11.82483886      22.37699915      13.93527131
O       11.82483846      24.48743103      16.04570319
O       11.82483805      26.59786291      18.15613508
O       13.93527329      11.82483993       5.49354405
O       13.93527289      13.93527181       7.60397593
O       13.93527249      16.04570370       9.71440782
O       13.93527208      18.15613558      11.82483970
O       13.93527168      20.26656746      13.93527159
O       13.93527128      22.37699935      16.04570347
O       13.93527087      24.48743123      18.15613535
O       13.93527047      26.59786311      20.26656724
O       16.04570571      11.82484013       7.60397621
O       16.04570530      13.93527201       9.71440810
O       16.04570490      16.04570390      11.82483998
O       16.04570450      18.15613578      13.93527186
O       16.04570409      20.26656767      16.04570375
O       16.04570369      22.37699955      18.15613563
O       16.04570329      24.48743143      20.26656751
O       16.04570287      26.59786332      22.37699940
O       18.15613812      11.82484033       9.71440837
O       18.15613772      13.93527222      11.82484026
O       18.15613731      16.04570410      13.93527214
O       18.15613691      18.15613598      16.04570402
O       18.15613651      20.26656787      18.15613591
O       18.15613610      22.37699975      20.26656779
O       18.15613570      24.48743163      22.37699968
O       18.15613528      26.59786352      24.48743156
O       20.26657053      11.82484053      11.82484053
O       20.26657013      13.93527242      13.93527242
O       20.26656973      16.04570430      16.04570430
O       20.26656932      18.15613619      18.15613619
O       20.26656892      20.26656807      20.26656807
O       20.26656851      22.37699995      22.37699995
O       20.26656811      24.48743184      24.48743184
O       20.26656770      26.59786372      26.59786372
O       22.37700295      11.82484074      13.93527269
O       22.37700254      13.93527262      16.04570458
O       22.37700214      16.04570450      18.15613646
O       22.37700173      18.15613639      20.26656835
O       22.37700133      20.26656827      22.37700023
O       22.37700093      22.37700015      24.48743211
O       22.37700052      24.48743204      26.59786400
O       22.37700011      26.59786392      28.70829588
O       24.48743536      11.82484094      16.04570486
O       24.48743495      13.93527282      18.15613674
O       24.48743455      16.04570471      20.26656862
O       24.48743415      18.15613659      22.37700051
O       24.48743374      20.26656847      24.48743239
O       24.48743334      22.37700036      26.59786427
O       24.48743294      24.48743224      28.70829616
O       24.48743253      26.59786412      30.81872804
O       26.59786776      11.82484114      18.15613702
O       26.59786736      13.93527302      20.26656890
O       26.59786696      16.04570491      22.37700078
O       26.59786655      18.15613679      24.48743267
O       26.59786615      20.26656867      26.59786455
O       26.59786574      22.37700056      28.70829644
O       26.59786534      24.48743244      30.81872832
O       26.59786494      26.59786433      32.92916020
O       13.93527329      13.93527189       3.38311209
O       13.93527289      16.04570377       5.49354398
O       13.93527249      18.15613566       7.60397586
O       13.93527208      20.26656754       9.71440774
O       13.93527168      22.37699942      11.82483963
O       13.93527128      24.48743131      13.93527151
O       13.93527087      26.59786319      16.04570339
O       13.93527047      28.70829507      18.15613528
O       16.04570571      13.93527209       5.49354425
O       16.04570530      16.04570397       7.60397614
O       16.04570490      18.15613586       9.71440802
O       16.04570450      20.26656774      11.82483990
O       16.04570409      22.37699962      13.93527179
O       16.04570369      24.48743151      16.04570367
O       16.04570329      26.59786339      18.15613556
O       16.04570287      28.70829528      20.26656744
O       18.15613812      13.93527229       7.60397641
O       18.15613772      16.04570418       9.71440830
O       18.15613731      18.15613606      11.82484018
O       18.15613691      20.26656794      13.93527207
O       18.15613651      22.37699983      16.04570395
O       18.15613610      24.48743171      18.15613583
O       18.15613570      26.59786359      20.26656772
O       18.15613528      28.70829548      22.37699960
O       20.26657053      13.93527249       9.71440857
O       20.26657013      16.04570438      11.82484046
O       20.26656973      18.15613626      13.93527234
O       20.26656932      20.26656814      16.04570423
O       20.26656892      22.37700003      18.15613611
O       20.26656851      24.48743191      20.26656799
O       20.26656811      26.59786380      22.37699988
O       20.26656770      28.70829568      24.48743176
O       22.37700295      13.93527269      11.82484074
O       22.37700254      16.04570458      13.93527262
O       22.37700214      18.15613646      16.04570450
O       22.37700173      20.26656835      18.15613639
O       22.37700133      22.37700023      20.26656827
O       22.37700093      24.48743211      22.37700015
O       22.37700052      26.59786400      24.48743204
O       22.37700011      28.70829588      26.59786392
O       24.48743536      13.93527290      13.93527290
O       24.48743495      16.04570478      16.04570478
O       24.48743455      18.15613666      18.15613666
O       24.48743415      20.26656855      20.26656855
O       24.48743374      22.37700043      22.37700043
O       24.48743334      24.48743232      24.48743232
O       24.48743294      26.59786420      26.59786420
O       24.48743252      28.70829608      28.70829608
O       26.59786777      13.93527310      16.04570506
O       26.59786737      16.04570498      18.15613694
O       26.59786696      18.15613687      20.26656883
O       26.59786656      20.26656875      22.37700071
O       26.59786616      22.37700063      24.48743259
O       26.59786575      24.48743252      26.59786448
O       26.59786535      26.59786440      28.70829636
O       26.59786495      28.70829628      30.81872824
O       28.70830017      13.93527330      18.15613722
O       28.70829977      16.04570518      20.26656910
O       28.70829937      18.15613707      22.37700099
O       28.70829896      20.26656895      24.48743287
O       28.70829857      22.37700084      26.59786475
O       28.70829816      24.48743272      28.70829664
O       28.70829775      26.59786460      30.81872852
O       28.70829735      28.70829649      32.92916041
O       16.04570571      16.04570405       3.38311229
O       16.04570530      18.15613593       5.49354418
O       16.04570490      20.26656782       7.60397606
O       16.04570450      22.37699970       9.71440794
O       16.04570409      24.48743158      11.82483983
O       16.04570369      26.59786347      13.93527171
O       16.04570329      28.70829535      16.04570360
O       16.04570288      30.81872723      18.15613548
O       18.15613812      16.04570425       5.49354445
O       18.15613772      18.15613613       7.60397634
O       18.15613731      20.26656802       9.71440822
O       18.15613691      22.37699990      11.82484011
O       18.15613651      24.48743179      13.93527199
O       18.15613610      26.59786367      16.04570387
O       18.15613570      28.70829555      18.15613576
O       18.15613528      30.81872744      20.26656764
O       20.26657053      16.04570445       7.60397662
O       20.26657013      18.15613634       9.71440850
O       20.26656973      20.26656822      11.82484038
O       20.26656932      22.37700010      13.93527227
O       20.26656892      24.48743199      16.04570415
O       20.26656851      26.59786387      18.15613603
O       20.26656811      28.70829575      20.26656792
O       20.26656770      30.81872764      22.37699980
O       22.37700295      16.04570465       9.71440878
O       22.37700254      18.15613654      11.82484066
O       22.37700214      20.26656842      13.93527254
O       22.37700173      22.37700031      16.04570443
O       22.37700133      24.48743219      18.15613631
O       22.37700093      26.59786407      20.26656820
O       22.37700052      28.70829596      22.37700008
O       22.37700011      30.81872784      24.48743196
O       24.48743536      16.04570486      11.82484094
O       24.48743495      18.15613674      13.93527282
O       24.48743455      20.26656862      16.04570470
O       24.48743415      22.37700051      18.15613659
O       24.48743374      24.48743239      20.26656847
O       24.48743334      26.59786427      22.37700036
O       24.48743294      28.70829616      24.48743224
O       24.48743252      30.81872804      26.59786412
O       26.59786777      16.04570506      13.93527310
O       26.59786737      18.15613694      16.04570498
O       26.59786696      20.26656883      18.15613687
O       26.59786656      22.37700071      20.26656875
O       26.59786616      24.48743259      22.37700063
O       26.59786575      26.59786448      24.48743252
O       26.59786535      28.70829636      26.59786440
O       26.59786495      30.81872824      28.70829628
O       28.70830018      16.04570526      16.04570526
O       28.70829978      18.15613714      18.15613714
O       28.70829938      20.26656903      20.26656903
O       28.70829897      22.37700091      22.37700091
O       28.70829857      24.48743279      24.48743279
O       28.70829817      26.59786468      26.59786468
O       28.70829776      28.70829656      28.70829656
O       28.70829735      30.81872845      30.81872845
O       30.81873259      16.04570546      18.15613742
O       30.81873218      18.15613734      20.26656930
O       30.81873178      20.26656923      22.37700119
O       30.81873138      22.37700111      24.48743307
O       30.81873097      24.48743300      26.59786496
O       30.81873057      26.59786488      28.70829684
O       30.81873016      28.70829676      30.81872872
O       30.81872976      30.81872865      32.92916061
O       18.15613811      18.15613621       3.38311249
O       18.15613772      20.26656809       5.49354438
O       18.15613730      22.37699998       7.60397625
O       18.15613691      24.48743186       9.71440815
O       18.15613650      26.59786374      11.82484002
O       18.15613609      28.70829563      13.93527190
O       18.15613570      30.81872751      16.04570380
O       18.15613528      32.92915940      18.15613567
O       20.26657053      18.15613641       5.49354466
O       20.26657012      20.26656830       7.60397653
O       20.26656972      22.37700018       9.71440841
O       20.26656932      24.48743206      11.82484031
O       20.26656891      26.59786395      13.93527218
O       20.26656850      28.70829583      16.04570407
O       20.26656811      30.81872771      18.15613596
O       20.26656770      32.92915960      20.26656783
O       22.37700295      18.15613661       7.60397682
O       22.37700253      20.26656850       9.71440869
O       22.37700213      22.37700038      11.82484057
O       22.37700173      24.48743226      13.93527247
O       22.37700132      26.59786415      16.04570434
O       22.37700093      28.70829603      18.15613624
O       22.37700051      30.81872792      20.26656811
O       22.37700011      32.92915980      22.37699999
O       24.48743535      18.15613682       9.71440897
O       24.48743494      20.26656870      11.82484085
O       24.48743455      22.37700058      13.93527275
O       24.48743414      24.48743247      16.04570462
O       24.48743373      26.59786435      18.15613650
O       24.48743334      28.70829623      20.26656840
O       24.48743293      30.81872812      22.37700027
O       24.48743252      32.92916000      24.48743215
O       26.59786776      18.15613702      11.82484113
O       26.59786736      20.26656890      13.93527301
O       26.59786696      22.37700078      16.04570491
O       26.59786655      24.48743267      18.15613678
O       26.59786615      26.59786455      20.26656866
O       26.59786574      28.70829644      22.37700055
O       26.59786534      30.81872832      24.48743243
O       26.59786495      32.92916020      26.59786433
O       28.70830017      18.15613722      13.93527329
O       28.70829977      20.26656910      16.04570517
O       28.70829937      22.37700099      18.15613706
O       28.70829896      24.48743287      20.26656894
O       28.70829857      26.59786475      22.37700084
O       28.70829816      28.70829664      24.48743271
O       28.70829775      30.81872852      26.59786459
O       28.70829736      32.92916040      28.70829649
O       30.81873259      18.15613742      16.04570545
O       30.81873218      20.26656930      18.15613733
O       30.81873178      22.37700119      20.26656922
O       30.81873138      24.48743307      22.37700110
O       30.81873097      26.59786496      24.48743299
O       30.81873057      28.70829684      26.59786487
O       30.81873016      30.81872872      28.70829675
O       30.81872976      32.92916061      30.81872864
O       32.92916500      18.15613762      18.15613762
O       32.92916460      20.26656951      20.26656950
O       32.92916419      22.37700139      22.37700138
O       32.92916379      24.48743327      24.48743327
O       32.92916338      26.59786516      26.59786515
O       32.92916298      28.70829704      28.70829704
O       32.92916258      30.81872892      30.81872892
O       32.92916217      32.92916081      32.92916080
