1024
Lattice="-3.228616e-06 16.883455069984 16.883455070208 16.883459302 1.614248e-06 16.883457287944 16.883459301712 16.883457287424 1.61368e-06" Properties=species:S:1:pos:R:3 pbc="T T T"
Mg       1.05521611       1.05521606       1.05521606
Mg       1.05521571       3.16564794       3.16564794
Mg       1.05521530       5.27607983       5.27607983
Mg       1.05521490       7.38651171       7.38651171
Mg       1.05521450       9.49694360       9.49694360
Mg       1.05521409      11.60737548      11.60737548
Mg       1.05521369      13.71780736      13.71780736
Mg       1.05521329      15.82823925      15.82823925
Mg       3.16564852       1.05521626       3.16564822
Mg       3.16564812       3.16564815       5.27608010
Mg       3.16564772       5.27608003       7.38651199
Mg       3.16564731       7.38651191       9.49694387
Mg       3.16564691       9.49694380      11.60737576
Mg       3.16564650      11.60737568      13.71780764
Mg       3.16564610      13.71780756      15.82823952
Mg       3.16564570      15.82823945      17.93867141
Mg       5.27608094       1.05521646       5.27608038
Mg       5.27608053       3.16564835       7.38651227
Mg       5.27608013       5.27608023       9.49694415
Mg       5.27607972       7.38651211      11.60737603
Mg       5.27607932       9.49694400      13.71780792
Mg       5.27607892      11.60737588      15.82823980
Mg       5.27607851      13.71780777      17.93867168
Mg       5.27607811      15.82823965      20.04910357
Mg       7.38651335       1.05521667       7.38651254
Mg       7.38651294       3.16564855       9.49694443
Mg       7.38651254       5.27608043      11.60737631
Mg       7.38651214       7.38651232      13.71780819
Mg       7.38651173       9.49694420      15.82824008
Mg       7.38651133      11.60737608      17.93867196
Mg       7.38651093      13.71780797      20.04910385
Mg       7.38651052      15.82823985      22.15953573
Mg       9.49694576       1.05521687       9.49694470
Mg       9.49694536       3.16564875      11.60737659
Mg       9.49694495       5.27608063      13.71780847
Mg       9.49694455       7.38651252      15.82824036
Mg       9.49694415       9.49694440      17.93867224
Mg       9.49694374      11.60737629      20.04910412
Mg       9.49694334      13.71780817      22.15953601
Mg       9.49694294      15.82824005      24.26996789
Mg      11.60737817       1.05521707      11.60737687
Mg      11.60737777       3.16564895      13.71780875
Mg      11.60737737       5.27608084      15.82824063
Mg      11.60737696       7.38651272      17.93867252
Mg      11.60737656       9.49694460      20.04910440
Mg      11.60737616      11.60737649      22.15953628
Mg      11.60737575      13.71780837      24.26996817
Mg      11.60737535      15.82824026      26.38040005
Mg      13.71781059       1.05521727      13.71780903
Mg      13.71781018       3.16564915      15.82824091
Mg      13.71780978       5.27608104      17.93867279
Mg      13.71780938       7.38651292      20.04910468
Mg      13.71780897       9.49694481      22.15953656
Mg      13.71780857      11.60737669      24.26996844
Mg      13.71780817      13.71780857      26.38040033
Mg      13.71780776      15.82824046      28.49083221
Mg      15.82824300       1.05521747      15.82824119
Mg      15.82824260       3.16564936      17.93867307
Mg      15.82824219       5.27608124      20.04910495
Mg      15.82824179       7.38651312      22.15953684
Mg      15.82824139       9.49694501      24.26996872
Mg      15.82824098      11.60737689      26.38040061
Mg      15.82824058      13.71780877      28.49083249
Mg      15.82824017      15.82824066      30.60126437
Mg       3.16564852       3.16564822       1.05521626
Mg       3.16564812       5.27608010       3.16564815
Mg       3.16564772       7.38651199       5.27608003
Mg       3.16564731       9.49694387       7.38651191
Mg       3.16564691      11.60737576       9.49694380
Mg       3.16564650      13.71780764      11.60737568
Mg       3.16564610      15.82823952      13.71780756
Mg       3.16564570      17.93867141      15.82823945
Mg       5.27608094       3.16564842       3.16564842
Mg       5.27608053       5.27608031       5.27608031
Mg       5.27608013       7.38651219       7.38651219
Mg       5.27607972       9.49694407       9.49694407
Mg       5.27607932      11.60737596      11.60737596
Mg       5.27607892      13.71780784      13.71780784
Mg       5.27607851      15.82823973      15.82823973
Mg       5.27607811      17.93867161      17.93867161
Mg       7.38651335       3.16564862       5.27608058
Mg       7.38651294       5.27608051       7.38651247
Mg       7.38651254       7.38651239       9.49694435
Mg       7.38651214       9.49694428      11.60737624
Mg       7.38651173      11.60737616      13.71780812
Mg       7.38651133      13.71780804      15.82824000
Mg       7.38651093      15.82823993      17.93867189
Mg       7.38651052      17.93867181      20.04910377
Mg       9.49694576       3.16564883       7.38651274
Mg       9.49694536       5.27608071       9.49694463
Mg       9.49694495       7.38651259      11.60737651
Mg       9.49694455       9.49694448      13.71780840
Mg       9.49694415      11.60737636      15.82824028
Mg       9.49694374      13.71780825      17.93867216
Mg       9.49694334      15.82824013      20.04910405
Mg       9.49694294      17.93867201      22.15953593
Mg      11.60737817       3.16564903       9.49694491
Mg      11.60737777       5.27608091      11.60737679
Mg      11.60737737       7.38651280      13.71780867
Mg      11.60737696       9.49694468      15.82824056
Mg      11.60737656      11.60737656      17.93867244
Mg      11.60737616      13.71780845      20.04910432
Mg      11.60737575      15.82824033      22.15953621
Mg      11.60737535      17.93867221      24.26996809
Mg      13.71781059       3.16564923      11.60737707
Mg      13.71781018       5.27608111      13.71780895
Mg      13.71780978       7.38651300      15.82824083
Mg      13.71780938       9.49694488      17.93867272
Mg      13.71780897      11.60737676      20.04910460
Mg      13.71780857      13.71780865      22.15953649
Mg      13.71780817      15.82824053      24.26996837
Mg      13.71780776      17.93867242      26.38040025
Mg      15.82824300       3.16564943      13.71780923
Mg      15.82824260       5.27608132      15.82824111
Mg      15.82824219       7.38651320      17.93867300
Mg      15.82824179       9.49694508      20.04910488
Mg      15.82824138      11.60737697      22.15953676
Mg      15.82824098      13.71780885      24.26996865
Mg      15.82824058      15.82824073      26.38040053
Mg      15.82824017      17.93867262      28.49083241
Mg      17.93867541       3.16564963      15.82824139
Mg      17.93867501       5.27608152      17.93867327
Mg      17.93867460       7.38651340      20.04910516
Mg      17.93867420       9.49694528      22.15953704
Mg      17.93867380      11.60737717      24.26996892
Mg      17.93867339      13.71780905      26.38040081
Mg      17.93867299      15.82824094      28.49083269
Mg      17.93867259      17.93867282      30.60126458
Mg       5.27608094       5.27608038       1.05521646
Mg       5.27608053       7.38651227       3.16564835
Mg       5.27608013       9.49694415       5.27608023
Mg       5.27607972      11.60737603       7.38651211
Mg       5.27607932      13.71780792       9.49694400
Mg       5.27607892      15.82823980      11.60737588
Mg       5.27607851      17.93867168      13.71780777
Mg       5.27607811      20.04910357      15.82823965
Mg       7.38651335       5.27608058       3.16564862
Mg       7.38651294       7.38651247       5.27608051
Mg       7.38651254       9.49694435       7.38651239
Mg       7.38651214      11.60737623       9.49694428
Mg       7.38651173      13.71780812      11.60737616
Mg       7.38651133      15.82824000      13.71780804
Mg       7.38651093      17.93867189      15.82823993
Mg       7.38651052      20.04910377      17.93867181
Mg       9.49694576       5.27608079       5.27608079
Mg       9.49694536       7.38651267       7.38651267
Mg       9.49694495       9.49694455       9.49694455
Mg       9.49694455      11.60737644      11.60737644
Mg       9.49694415      13.71780832      13.71780832
Mg       9.49694374      15.82824020      15.82824020
Mg       9.49694334      17.93867209      17.93867209
Mg       9.49694294      20.04910397      20.04910397
Mg      11.60737817       5.27608099       7.38651295
Mg      11.60737777       7.38651287       9.49694483
Mg      11.60737737       9.49694475      11.60737671
Mg      11.60737696      11.60737664      13.71780860
Mg      11.60737656      13.71780852      15.82824048
Mg      11.60737616      15.82824041      17.93867237
Mg      11.60737575      17.93867229      20.04910425
Mg      11.60737535      20.04910417      22.15953613
Mg      13.71781059       5.27608119       9.49694511
Mg      13.71781018       7.38651307      11.60737699
Mg      13.71780978       9.49694496      13.71780888
Mg      13.71780938      11.60737684      15.82824076
Mg      13.71780897      13.71780872      17.93867264
Mg      13.71780857      15.82824061      20.04910453
Mg      13.71780817      17.93867249      22.15953641
Mg      13.71780776      20.04910438      24.26996829
Mg      15.82824300       5.27608139      11.60737727
Mg      15.82824260       7.38651327      13.71780915
Mg      15.82824219       9.49694516      15.82824104
Mg      15.82824179      11.60737704      17.93867292
Mg      15.82824138      13.71780893      20.04910480
Mg      15.82824098      15.82824081      22.15953669
Mg      15.82824058      17.93867269      24.26996857
Mg      15.82824017      20.04910458      26.38040045
Mg      17.93867541       5.27608159      13.71780943
Mg      17.93867501       7.38651348      15.82824131
Mg      17.93867460       9.49694536      17.93867320
Mg      17.93867420      11.60737724      20.04910508
Mg      17.93867380      13.71780913      22.15953696
Mg      17.93867339      15.82824101      24.26996885
Mg      17.93867299      17.93867290      26.38040073
Mg      17.93867259      20.04910478      28.49083262
Mg      20.04910782       5.27608179      15.82824159
Mg      20.04910742       7.38651368      17.93867347
Mg      20.04910702       9.49694556      20.04910536
Mg      20.04910661      11.60737745      22.15953724
Mg      20.04910621      13.71780933      24.26996913
Mg      20.04910581      15.82824121      26.38040101
Mg      20.04910540      17.93867310      28.49083289
Mg      20.04910500      20.04910498      30.60126478
Mg       7.38651335       7.38651254       1.05521667
Mg       7.38651294       9.49694443       3.16564855
Mg       7.38651254      11.60737631       5.27608043
Mg       7.38651214      13.71780819       7.38651232
Mg       7.38651173      15.82824008       9.49694420
Mg       7.38651133      17.93867196      11.60737608
Mg       7.38651093      20.04910385      13.71780797
Mg       7.38651052      22.15953573      15.82823985
Mg       9.49694576       7.38651274       3.16564883
Mg       9.49694536       9.49694463       5.27608071
Mg       9.49694495      11.60737651       7.38651259
Mg       9.49694455      13.71780840       9.49694448
Mg       9.49694415      15.82824028      11.60737636
Mg       9.49694374      17.93867216      13.71780825
Mg       9.49694334      20.04910405      15.82824013
Mg       9.49694294      22.15953593      17.93867201
Mg      11.60737817       7.38651295       5.27608099
Mg      11.60737777       9.49694483       7.38651287
Mg      11.60737737      11.60737671       9.49694475
Mg      11.60737696      13.71780860      11.60737664
Mg      11.60737656      15.82824048      13.71780852
Mg      11.60737616      17.93867237      15.82824041
Mg      11.60737575      20.04910425      17.93867229
Mg      11.60737535      22.15953613      20.04910417
Mg      13.71781059       7.38651315       7.38651315
Mg      13.71781018       9.49694503       9.49694503
Mg      13.71780978      11.60737692      11.60737692
Mg      13.71780938      13.71780880      13.71780880
Mg      13.71780897      15.82824068      15.82824068
Mg      13.71780857      17.93867257      17.93867257
Mg      13.71780817      20.04910445      20.04910445
Mg      13.71780776      22.15953633      22.15953633
Mg      15.82824300       7.38651335       9.49694531
Mg      15.82824260       9.49694523      11.60737719
Mg      15.82824219      11.60737712      13.71780908
Mg      15.82824179      13.71780900      15.82824096
Mg      15.82824138      15.82824088      17.93867284
Mg      15.82824098      17.93867277      20.04910473
Mg      15.82824058      20.04910465      22.15953661
Mg      15.82824017      22.15953654      24.26996850
Mg      17.93867541       7.38651355      11.60737747
Mg      17.93867501       9.49694544      13.71780935
Mg      17.93867460      11.60737732      15.82824124
Mg      17.93867420      13.71780920      17.93867312
Mg      17.93867380      15.82824109      20.04910501
Mg      17.93867339      17.93867297      22.15953689
Mg      17.93867299      20.04910485      24.26996877
Mg      17.93867259      22.15953674      26.38040066
Mg      20.04910782       7.38651375      13.71780963
Mg      20.04910742       9.49694564      15.82824151
Mg      20.04910702      11.60737752      17.93867340
Mg      20.04910661      13.71780940      20.04910528
Mg      20.04910621      15.82824129      22.15953717
Mg      20.04910581      17.93867317      24.26996905
Mg      20.04910540      20.04910506      26.38040093
Mg      20.04910500      22.15953694      28.49083282
Mg      22.15954024       7.38651396      15.82824179
Mg      22.15953983       9.49694584      17.93867368
Mg      22.15953943      11.60737772      20.04910556
Mg      22.15953903      13.71780961      22.15953744
Mg      22.15953862      15.82824149      24.26996933
Mg      22.15953822      17.93867337      26.38040121
Mg      22.15953782      20.04910526      28.49083309
Mg      22.15953741      22.15953714      30.60126498
Mg       9.49694576       9.49694470       1.05521687
Mg       9.49694536      11.60737659       3.16564875
Mg       9.49694495      13.71780847       5.27608063
Mg       9.49694455      15.82824035       7.38651252
Mg       9.49694415      17.93867224       9.49694440
Mg       9.49694374      20.04910412      11.60737629
Mg       9.49694334      22.15953601      13.71780817
Mg       9.49694294      24.26996789      15.82824005
Mg      11.60737817       9.49694491       3.16564903
Mg      11.60737777      11.60737679       5.27608091
Mg      11.60737737      13.71780867       7.38651280
Mg      11.60737696      15.82824056       9.49694468
Mg      11.60737656      17.93867244      11.60737656
Mg      11.60737616      20.04910432      13.71780845
Mg      11.60737575      22.15953621      15.82824033
Mg      11.60737535      24.26996809      17.93867221
Mg      13.71781059       9.49694511       5.27608119
Mg      13.71781018      11.60737699       7.38651307
Mg      13.71780978      13.71780887       9.49694496
Mg      13.71780938      15.82824076      11.60737684
Mg      13.71780897      17.93867264      13.71780872
Mg      13.71780857      20.04910453      15.82824061
Mg      13.71780816      22.15953641      17.93867249
Mg      13.71780776      24.26996829      20.04910438
Mg      15.82824300       9.49694531       7.38651335
Mg      15.82824260      11.60737719       9.49694523
Mg      15.82824219      13.71780908      11.60737712
Mg      15.82824179      15.82824096      13.71780900
Mg      15.82824138      17.93867284      15.82824089
Mg      15.82824098      20.04910473      17.93867277
Mg      15.82824058      22.15953661      20.04910465
Mg      15.82824017      24.26996850      22.15953654
Mg      17.93867541       9.49694551       9.49694551
Mg      17.93867501      11.60737739      11.60737739
Mg      17.93867460      13.71780928      13.71780928
Mg      17.93867420      15.82824116      15.82824116
Mg      17.93867380      17.93867305      17.93867305
Mg      17.93867339      20.04910493      20.04910493
Mg      17.93867299      22.15953681      22.15953681
Mg      17.93867259      24.26996870      24.26996870
Mg      20.04910782       9.49694571      11.60737767
Mg      20.04910742      11.60737760      13.71780956
Mg      20.04910702      13.71780948      15.82824144
Mg      20.04910661      15.82824136      17.93867332
Mg      20.04910621      17.93867325      20.04910521
Mg      20.04910581      20.04910513      22.15953709
Mg      20.04910540      22.15953702      24.26996897
Mg      20.04910500      24.26996890      26.38040086
Mg      22.15954024       9.49694591      13.71780983
Mg      22.15953983      11.60737780      15.82824172
Mg      22.15953943      13.71780968      17.93867360
Mg      22.15953903      15.82824157      20.04910548
Mg      22.15953862      17.93867345      22.15953737
Mg      22.15953822      20.04910533      24.26996925
Mg      22.15953782      22.15953722      26.38040114
Mg      22.15953741      24.26996910      28.49083302
Mg      24.26997265       9.49694612      15.82824199
Mg      24.26997225      11.60737800      17.93867388
Mg      24.26997184      13.71780988      20.04910576
Mg      24.26997144      15.82824177      22.15953765
Mg      24.26997104      17.93867365      24.26996953
Mg      24.26997063      20.04910553      26.38040141
Mg      24.26997023      22.15953742      28.49083330
Mg      24.26996983      24.26996930      30.60126518
Mg      11.60737817      11.60737686       1.05521707
Mg      11.60737777      13.71780875       3.16564895
Mg      11.60737737      15.82824063       5.27608084
Mg      11.60737696      17.93867252       7.38651272
Mg      11.60737656      20.04910440       9.49694460
Mg      11.60737616      22.15953628      11.60737649
Mg      11.60737575      24.26996817      13.71780837
Mg      11.60737535      26.38040005      15.82824026
Mg      13.71781059      11.60737707       3.16564923
Mg      13.71781018      13.71780895       5.27608111
Mg      13.71780978      15.82824083       7.38651300
Mg      13.71780938      17.93867272       9.49694488
Mg      13.71780897      20.04910460      11.60737676
Mg      13.71780857      22.15953649      13.71780865
Mg      13.71780816      24.26996837      15.82824053
Mg      13.71780776      26.38040025      17.93867242
Mg      15.82824300      11.60737727       5.27608139
Mg      15.82824260      13.71780915       7.38651327
Mg      15.82824219      15.82824104       9.49694516
Mg      15.82824179      17.93867292      11.60737704
Mg      15.82824138      20.04910480      13.71780893
Mg      15.82824098      22.15953669      15.82824081
Mg      15.82824058      24.26996857      17.93867269
Mg      15.82824017      26.38040045      20.04910458
Mg      17.93867541      11.60737747       7.38651355
Mg      17.93867501      13.71780935       9.49694544
Mg      17.93867460      15.82824124      11.60737732
Mg      17.93867420      17.93867312      13.71780920
Mg      17.93867380      20.04910501      15.82824109
Mg      17.93867339      22.15953689      17.93867297
Mg      17.93867299      24.26996877      20.04910485
Mg      17.93867259      26.38040066      22.15953674
Mg      20.04910782      11.60737767       9.49694571
Mg      20.04910742      13.71780956      11.60737760
Mg      20.04910702      15.82824144      13.71780948
Mg      20.04910661      17.93867332      15.82824136
Mg      20.04910621      20.04910521      17.93867325
Mg      20.04910581      22.15953709      20.04910513
Mg      20.04910540      24.26996897      22.15953702
Mg      20.04910500      26.38040086      24.26996890
Mg      22.15954024      11.60737787      11.60737787
Mg      22.15953983      13.71780976      13.71780976
Mg      22.15953943      15.82824164      15.82824164
Mg      22.15953903      17.93867352      17.93867352
Mg      22.15953862      20.04910541      20.04910541
Mg      22.15953822      22.15953729      22.15953729
Mg      22.15953782      24.26996918      24.26996918
Mg      22.15953741      26.38040106      26.38040106
Mg      24.26997265      11.60737808      13.71781003
Mg      24.26997225      13.71780996      15.82824192
Mg      24.26997184      15.82824184      17.93867380
Mg      24.26997144      17.93867373      20.04910569
Mg      24.26997104      20.04910561      22.15953757
Mg      24.26997063      22.15953749      24.26996945
Mg      24.26997023      24.26996938      26.38040134
Mg      24.26996983      26.38040126      28.49083322
Mg      26.38040506      11.60737828      15.82824220
Mg      26.38040466      13.71781016      17.93867408
Mg      26.38040426      15.82824204      20.04910596
Mg      26.38040385      17.93867393      22.15953785
Mg      26.38040345      20.04910581      24.26996973
Mg      26.38040305      22.15953770      26.38040161
Mg      26.38040264      24.26996958      28.49083350
Mg      26.38040224      26.38040146      30.60126538
Mg      13.71781059      13.71780903       1.05521727
Mg      13.71781018      15.82824091       3.16564915
Mg      13.71780978      17.93867279       5.27608104
Mg      13.71780938      20.04910468       7.38651292
Mg      13.71780897      22.15953656       9.49694481
Mg      13.71780857      24.26996844      11.60737669
Mg      13.71780816      26.38040033      13.71780857
Mg      13.71780776      28.49083221      15.82824046
Mg      15.82824300      13.71780923       3.16564943
Mg      15.82824260      15.82824111       5.27608132
Mg      15.82824219      17.93867299       7.38651320
Mg      15.82824179      20.04910488       9.49694508
Mg      15.82824138      22.15953676      11.60737697
Mg      15.82824098      24.26996865      13.71780885
Mg      15.82824058      26.38040053      15.82824073
Mg      15.82824017      28.49083241      17.93867262
Mg      17.93867541      13.71780943       5.27608159
Mg      17.93867501      15.82824131       7.38651348
Mg      17.93867460      17.93867320       9.49694536
Mg      17.93867420      20.04910508      11.60737724
Mg      17.93867380      22.15953696      13.71780913
Mg      17.93867339      24.26996885      15.82824101
Mg      17.93867299      26.38040073      17.93867289
Mg      17.93867259      28.49083262      20.04910478
Mg      20.04910782      13.71780963       7.38651375
Mg      20.04910742      15.82824151       9.49694564
Mg      20.04910702      17.93867340      11.60737752
Mg      20.04910661      20.04910528      13.71780940
Mg      20.04910621      22.15953717      15.82824129
Mg      20.04910581      24.26996905      17.93867317
Mg      20.04910540      26.38040093      20.04910506
Mg      20.04910500      28.49083282      22.15953694
Mg      22.15954024      13.71780983       9.49694591
Mg      22.15953983      15.82824172      11.60737780
Mg      22.15953943      17.93867360      13.71780968
Mg      22.15953903      20.04910548      15.82824157
Mg      22.15953862      22.15953737      17.93867345
Mg      22.15953822      24.26996925      20.04910533
Mg      22.15953782      26.38040114      22.15953722
Mg      22.15953741      28.49083302      24.26996910
Mg      24.26997265      13.71781003      11.60737808
Mg      24.26997225      15.82824192      13.71780996
Mg      24.26997184      17.93867380      15.82824184
Mg      24.26997144      20.04910569      17.93867373
Mg      24.26997104      22.15953757      20.04910561
Mg      24.26997063      24.26996945      22.15953749
Mg      24.26997023      26.38040134      24.26996938
Mg      24.26996983      28.49083322      26.38040126
Mg      26.38040506      13.71781024      13.71781024
Mg      26.38040466      15.82824212      15.82824212
Mg      26.38040426      17.93867400      17.93867400
Mg      26.38040385      20.04910589      20.04910589
Mg      26.38040345      22.15953777      22.15953777
Mg      26.38040304      24.26996966      24.26996966
Mg      26.38040264      26.38040154      26.38040154
Mg      26.38040224      28.49083342      28.49083342
Mg      28.49083748      13.71781044      15.82824240
Mg      28.49083707      15.82824232      17.93867428
Mg      28.49083667      17.93867421      20.04910616
Mg      28.49083626      20.04910609      22.15953805
Mg      28.49083586      22.15953797      24.26996993
Mg      28.49083546      24.26996986      26.38040182
Mg      28.49083505      26.38040174      28.49083370
Mg      28.49083465      28.49083362      30.60126558
Mg      15.82824300      15.82824119       1.05521747
Mg      15.82824260      17.93867307       3.16564936
Mg      15.82824219      20.04910495       5.27608124
Mg      15.82824179      22.15953684       7.38651312
Mg      15.82824138      24.26996872       9.49694501
Mg      15.82824098      26.38040061      11.60737689
Mg      15.82824058      28.49083249      13.71780877
Mg      15.82824017      30.60126437      15.82824066
Mg      17.93867541      15.82824139       3.16564963
Mg      17.93867501      17.93867327       5.27608152
Mg      17.93867460      20.04910516       7.38651340
Mg      17.93867420      22.15953704       9.49694528
Mg      17.93867380      24.26996892      11.60737717
Mg      17.93867339      26.38040081      13.71780905
Mg      17.93867299      28.49083269      15.82824094
Mg      17.93867259      30.60126457      17.93867282
Mg      20.04910782      15.82824159       5.27608179
Mg      20.04910742      17.93867347       7.38651368
Mg      20.04910702      20.04910536       9.49694556
Mg      20.04910661      22.15953724      11.60737745
Mg      20.04910621      24.26996913      13.71780933
Mg      20.04910581      26.38040101      15.82824121
Mg      20.04910540      28.49083289      17.93867310
Mg      20.04910500      30.60126478      20.04910498
Mg      22.15954024      15.82824179       7.38651396
Mg      22.15953983      17.93867368       9.49694584
Mg      22.15953943      20.04910556      11.60737772
Mg      22.15953903      22.15953744      13.71780961
Mg      22.15953862      24.26996933      15.82824149
Mg      22.15953822      26.38040121      17.93867337
Mg      22.15953782      28.49083309      20.04910526
Mg      22.15953741      30.60126498      22.15953714
Mg      24.26997265      15.82824199       9.49694612
Mg      24.26997225      17.93867388      11.60737800
Mg      24.26997184      20.04910576      13.71780988
Mg      24.26997144      22.15953764      15.82824177
Mg      24.26997104      24.26996953      17.93867365
Mg      24.26997063      26.38040141      20.04910553
Mg      24.26997023      28.49083330      22.15953742
Mg      24.26996983      30.60126518      24.26996930
Mg      26.38040506      15.82824220      11.60737828
Mg      26.38040466      17.93867408      13.71781016
Mg      26.38040426      20.04910596      15.82824204
Mg      26.38040385      22.15953785      17.93867393
Mg      26.38040345      24.26996973      20.04910581
Mg      26.38040304      26.38040161      22.15953770
Mg      26.38040264      28.49083350      24.26996958
Mg      26.38040224      30.60126538      26.38040146
Mg      28.49083748      15.82824240      13.71781044
Mg      28.49083707      17.93867428      15.82824232
Mg      28.49083667      20.04910616      17.93867421
Mg      28.49083626      22.15953805      20.04910609
Mg      28.49083586      24.26996993      22.15953797
Mg      28.49083546      26.38040182      24.26996986
Mg      28.49083505      28.49083370      26.38040174
Mg      28.49083465      30.60126558      28.49083362
Mg      30.60126989      15.82824260      15.82824260
Mg      30.60126948      17.93867448      17.93867448
Mg      30.60126908      20.04910637      20.04910637
Mg      30.60126868      22.15953825      22.15953825
Mg      30.60126827      24.26997013      24.26997013
Mg      30.60126787      26.38040202      26.38040202
Mg      30.60126747      28.49083390      28.49083390
Mg      30.60126706      30.60126579      30.60126579
O        3.16564832       3.16564818       3.16564818
O        3.16564792       5.27608007       5.27608007
O        3.16564751       7.38651195       7.38651195
O        3.16564711       9.49694383       9.49694383
O        3.16564671      11.60737572      11.60737572
O        3.16564630      13.71780760      13.71780760
O        3.16564590      15.82823949      15.82823949
O        3.16564550      17.93867137      17.93867137
O        5.27608073       3.16564838       5.27608034
O        5.27608033       5.27608027       7.38651223
O        5.27607993       7.38651215       9.49694411
O        5.27607952       9.49694404      11.60737600
O        5.27607912      11.60737592      13.71780788
O        5.27607872      13.71780780      15.82823976
O        5.27607831      15.82823969      17.93867165
O        5.27607791      17.93867157      20.04910353
O        7.38651315       3.16564859       7.38651251
O        7.38651274       5.27608047       9.49694439
O        7.38651234       7.38651235      11.60737627
O        7.38651194       9.49694424      13.71780816
O        7.38651153      11.60737612      15.82824004
O        7.38651113      13.71780801      17.93867192
O        7.38651072      15.82823989      20.04910381
O        7.38651032      17.93867177      22.15953569
O        9.49694556       3.16564879       9.49694467
O        9.49694516       5.27608067      11.60737655
O        9.49694475       7.38651256      13.71780843
O        9.49694435       9.49694444      15.82824032
O        9.49694394      11.60737632      17.93867220
O        9.49694354      13.71780821      20.04910409
O        9.49694314      15.82824009      22.15953597
O        9.49694273      17.93867197      24.26996785
O       11.60737797       3.16564899      11.60737683
O       11.60737757       5.27608087      13.71780871
O       11.60737716       7.38651276      15.82824059
O       11.60737676       9.49694464      17.93867248
O       11.60737636      11.60737653      20.04910436
O       11.60737595      13.71780841      22.15953625
O       11.60737555      15.82824029      24.26996813
O       11.60737515      17.93867218      26.38040001
O       13.71781038       3.16564919      13.71780899
O       13.71780998       5.27608108      15.82824087
O       13.71780958       7.38651296      17.93867276
O       13.71780917       9.49694484      20.04910464
O       13.71780877      11.60737673      22.15953652
O       13.71780837      13.71780861      24.26996841
O       13.71780796      15.82824049      26.38040029
O       13.71780756      17.93867238      28.49083217
O       15.82824280       3.16564939      15.82824115
O       15.82824239       5.27608128      17.93867303
O       15.82824199       7.38651316      20.04910492
O       15.82824159       9.49694505      22.15953680
O       15.82824118      11.60737693      24.26996868
O       15.82824078      13.71780881      26.38040057
O       15.82824038      15.82824070      28.49083245
O       15.82823997      17.93867258      30.60126434
O       17.93867521       3.16564960      17.93867331
O       17.93867481       5.27608148      20.04910519
O       17.93867440       7.38651336      22.15953708
O       17.93867400       9.49694525      24.26996896
O       17.93867360      11.60737713      26.38040085
O       17.93867319      13.71780901      28.49083273
O       17.93867279      15.82824090      30.60126461
O       17.93867239      17.93867278      32.71169650
O        5.27608073       5.27608034       3.16564838
O        5.27608033       7.38651223       5.27608027
O        5.27607993       9.49694411       7.38651215
O        5.27607952      11.60737600       9.49694404
O        5.27607912      13.71780788      11.60737592
O        5.27607872      15.82823976      13.71780780
O        5.27607831      17.93867165      15.82823969
O        5.27607791      20.04910353      17.93867157
O        7.38651315       5.27608055       5.27608055
O        7.38651274       7.38651243       7.38651243
O        7.38651234       9.49694431       9.49694431
O        7.38651194      11.60737620      11.60737620
O        7.38651153      13.71780808      13.71780808
O        7.38651113      15.82823996      15.82823996
O        7.38651072      17.93867185      17.93867185
O        7.38651032      20.04910373      20.04910373
O        9.49694556       5.27608075       7.38651271
O        9.49694516       7.38651263       9.49694459
O        9.49694475       9.49694452      11.60737647
O        9.49694435      11.60737640      13.71780836
O        9.49694394      13.71780828      15.82824024
O        9.49694354      15.82824017      17.93867213
O        9.49694314      17.93867205      20.04910401
O        9.49694273      20.04910393      22.15953589
O       11.60737797       5.27608095       9.49694487
O       11.60737757       7.38651283      11.60737675
O       11.60737716       9.49694472      13.71780864
O       11.60737676      11.60737660      15.82824052
O       11.60737636      13.71780848      17.93867240
O       11.60737595      15.82824037      20.04910429
O       11.60737555      17.93867225      22.15953617
O       11.60737515      20.04910414      24.26996805
O       13.71781038       5.27608115      11.60737703
O       13.71780998       7.38651303      13.71780891
O       13.71780958       9.49694492      15.82824080
O       13.71780917      11.60737680      17.93867268
O       13.71780877      13.71780869      20.04910456
O       13.71780837      15.82824057      22.15953645
O       13.71780796      17.93867245      24.26996833
O       13.71780756      20.04910434      26.38040022
O       15.82824280       5.27608135      13.71780919
O       15.82824239       7.38651324      15.82824107
O       15.82824199       9.49694512      17.93867296
O       15.82824159      11.60737700      20.04910484
O       15.82824118      13.71780889      22.15953672
O       15.82824078      15.82824077      24.26996861
O       15.82824038      17.93867266      26.38040049
O       15.82823997      20.04910454      28.49083238
O       17.93867521       5.27608155      15.82824135
O       17.93867481       7.38651344      17.93867323
O       17.93867440       9.49694532      20.04910512
O       17.93867400      11.60737721      22.15953700
O       17.93867360      13.71780909      24.26996889
O       17.93867319      15.82824097      26.38040077
O       17.93867279      17.93867286      28.49083265
O       17.93867239      20.04910474      30.60126454
O       20.04910762       5.27608176      17.93867351
O       20.04910722       7.38651364      20.04910540
O       20.04910682       9.49694552      22.15953728
O       20.04910641      11.60737741      24.26996916
O       20.04910601      13.71780929      26.38040105
O       20.04910560      15.82824118      28.49083293
O       20.04910520      17.93867306      30.60126481
O       20.04910480      20.04910494      32.71169670
O        7.38651315       7.38651251       3.16564859
O        7.38651274       9.49694439       5.27608047
O        7.38651234      11.60737627       7.38651235
O        7.38651194      13.71780816       9.49694424
O        7.38651153      15.82824004      11.60737612
O        7.38651113      17.93867192      13.71780801
O        7.38651072      20.04910381      15.82823989
O        7.38651032      22.15953569      17.93867177
O        9.49694556       7.38651271       5.27608075
O        9.49694516       9.49694459       7.38651263
O        9.49694475      11.60737647       9.49694452
O        9.49694435      13.71780836      11.60737640
O        9.49694394      15.82824024      13.71780828
O        9.49694354      17.93867213      15.82824017
O        9.49694314      20.04910401      17.93867205
O        9.49694273      22.15953589      20.04910393
O       11.60737797       7.38651291       7.38651291
O       11.60737757       9.49694479       9.49694479
O       11.60737716      11.60737668      11.60737668
O       11.60737676      13.71780856      13.71780856
O       11.60737636      15.82824044      15.82824044
O       11.60737595      17.93867233      17.93867233
O       11.60737555      20.04910421      20.04910421
O       11.60737515      22.15953609      22.15953609
O       13.71781038       7.38651311       9.49694507
O       13.71780998       9.49694499      11.60737695
O       13.71780958      11.60737688      13.71780884
O       13.71780917      13.71780876      15.82824072
O       13.71780877      15.82824065      17.93867260
O       13.71780837      17.93867253      20.04910449
O       13.71780796      20.04910441      22.15953637
O       13.71780756      22.15953630      24.26996826
O       15.82824280       7.38651331      11.60737723
O       15.82824239       9.49694520      13.71780911
O       15.82824199      11.60737708      15.82824100
O       15.82824159      13.71780896      17.93867288
O       15.82824118      15.82824085      20.04910477
O       15.82824078      17.93867273      22.15953665
O       15.82824038      20.04910461      24.26996853
O       15.82823997      22.15953650      26.38040042
O       17.93867521       7.38651351      13.71780939
O       17.93867481       9.49694540      15.82824128
O       17.93867440      11.60737728      17.93867316
O       17.93867400      13.71780917      20.04910504
O       17.93867360      15.82824105      22.15953693
O       17.93867319      17.93867293      24.26996881
O       17.93867279      20.04910482      26.38040069
O       17.93867239      22.15953670      28.49083258
O       20.04910762       7.38651372      15.82824155
O       20.04910722       9.49694560      17.93867344
O       20.04910682      11.60737748      20.04910532
O       20.04910641      13.71780937      22.15953720
O       20.04910601      15.82824125      24.26996909
O       20.04910560      17.93867313      26.38040097
O       20.04910520      20.04910502      28.49083286
O       20.04910480      22.15953690      30.60126474
O       22.15954004       7.38651392      17.93867371
O       22.15953963       9.49694580      20.04910560
O       22.15953923      11.60737769      22.15953748
O       22.15953882      13.71780957      24.26996936
O       22.15953842      15.82824145      26.38040125
O       22.15953802      17.93867334      28.49083313
O       22.15953761      20.04910522      30.60126502
O       22.15953721      22.15953710      32.71169690
O        9.49694556       9.49694467       3.16564879
O        9.49694516      11.60737655       5.27608067
O        9.49694475      13.71780843       7.38651256
O        9.49694435      15.82824032       9.49694444
O        9.49694394      17.93867220      11.60737632
O        9.49694354      20.04910408      13.71780821
O        9.49694314      22.15953597      15.82824009
O        9.49694273      24.26996785      17.93867197
O       11.60737797       9.49694487       5.27608095
O       11.60737757      11.60737675       7.38651283
O       11.60737716      13.71780864       9.49694472
O       11.60737676      15.82824052      11.60737660
O       11.60737636      17.93867240      13.71780848
O       11.60737595      20.04910429      15.82824037
O       11.60737555      22.15953617      17.93867225
O       11.60737515      24.26996805      20.04910414
O       13.71781038       9.49694507       7.38651311
O       13.71780998      11.60737695       9.49694499
O       13.71780958      13.71780884      11.60737688
O       13.71780917      15.82824072      13.71780876
O       13.71780877      17.93867260      15.82824065
O       13.71780837      20.04910449      17.93867253
O       13.71780796      22.15953637      20.04910441
O       13.71780756      24.26996826      22.15953630
O       15.82824280       9.49694527       9.49694527
O       15.82824239      11.60737716      11.60737716
O       15.82824199      13.71780904      13.71780904
O       15.82824159      15.82824092      15.82824092
O       15.82824118      17.93867281      17.93867281
O       15.82824078      20.04910469      20.04910469
O       15.82824038      22.15953657      22.15953657
O       15.82823997      24.26996846      24.26996846
O       17.93867521       9.49694547      11.60737743
O       17.93867481      11.60737736      13.71780932
O       17.93867440      13.71780924      15.82824120
O       17.93867400      15.82824112      17.93867308
O       17.93867360      17.93867301      20.04910497
O       17.93867319      20.04910489      22.15953685
O       17.93867279      22.15953678      24.26996873
O       17.93867238      24.26996866      26.38040062
O       20.04910762       9.49694567      13.71780959
O       20.04910722      11.60737756      15.82824148
O       20.04910682      13.71780944      17.93867336
O       20.04910641      15.82824133      20.04910524
O       20.04910601      17.93867321      22.15953713
O       20.04910560      20.04910509      24.26996901
O       20.04910520      22.15953698      26.38040090
O       20.04910480      24.26996886      28.49083278
O       22.15954004       9.49694588      15.82824175
O       22.15953963      11.60737776      17.93867364
O       22.15953923      13.71780964      20.04910552
O       22.15953882      15.82824153      22.15953741
O       22.15953842      17.93867341      24.26996929
O       22.15953802      20.04910530      26.38040117
O       22.15953761      22.15953718      28.49083306
O       22.15953721      24.26996906      30.60126494
O       24.26997245       9.49694608      17.93867392
O       24.26997204      11.60737796      20.04910580
O       24.26997164      13.71780985      22.15953768
O       24.26997124      15.82824173      24.26996957
O       24.26997083      17.93867361      26.38040145
O       24.26997043      20.04910550      28.49083333
O       24.26997003      22.15953738      30.60126522
O       24.26996962      24.26996926      32.71169710
O       11.60737797      11.60737683       3.16564899
O       11.60737757      13.71780871       5.27608087
O       11.60737716      15.82824059       7.38651276
O       11.60737676      17.93867248       9.49694464
O       11.60737636      20.04910436      11.60737653
O       11.60737595      22.15953625      13.71780841
O       11.60737555      24.26996813      15.82824029
O       11.60737515      26.38040001      17.93867218
O       13.71781038      11.60737703       5.27608115
O       13.71780998      13.71780891       7.38651303
O       13.71780958      15.82824080       9.49694492
O       13.71780917      17.93867268      11.60737680
O       13.71780877      20.04910456      13.71780869
O       13.71780837      22.15953645      15.82824057
O       13.71780796      24.26996833      17.93867245
O       13.71780756      26.38040021      20.04910434
O       15.82824280      11.60737723       7.38651331
O       15.82824239      13.71780911       9.49694520
O       15.82824199      15.82824100      11.60737708
O       15.82824159      17.93867288      13.71780896
O       15.82824118      20.04910477      15.82824085
O       15.82824078      22.15953665      17.93867273
O       15.82824038      24.26996853      20.04910461
O       15.82823997      26.38040042      22.15953650
O       17.93867521      11.60737743       9.49694547
O       17.93867481      13.71780932      11.60737736
O       17.93867440      15.82824120      13.71780924
O       17.93867400      17.93867308      15.82824112
O       17.93867360      20.04910497      17.93867301
O       17.93867319      22.15953685      20.04910489
O       17.93867279      24.26996873      22.15953678
O       17.93867238      26.38040062      24.26996866
O       20.04910762      11.60737763      11.60737763
O       20.04910722      13.71780952      13.71780952
O       20.04910682      15.82824140      15.82824140
O       20.04910641      17.93867329      17.93867329
O       20.04910601      20.04910517      20.04910517
O       20.04910560      22.15953705      22.15953705
O       20.04910520      24.26996894      24.26996894
O       20.04910480      26.38040082      26.38040082
O       22.15954004      11.60737784      13.71780979
O       22.15953963      13.71780972      15.82824168
O       22.15953923      15.82824160      17.93867356
O       22.15953882      17.93867349      20.04910545
O       22.15953842      20.04910537      22.15953733
O       22.15953802      22.15953725      24.26996921
O       22.15953761      24.26996914      26.38040110
O       22.15953721      26.38040102      28.49083298
O       24.26997245      11.60737804      15.82824196
O       24.26997204      13.71780992      17.93867384
O       24.26997164      15.82824181      20.04910572
O       24.26997124      17.93867369      22.15953761
O       24.26997083      20.04910557      24.26996949
O       24.26997043      22.15953746      26.38040137
O       24.26997003      24.26996934      28.49083326
O       24.26996962      26.38040122      30.60126514
O       26.38040486      11.60737824      17.93867412
O       26.38040446      13.71781012      20.04910600
O       26.38040405      15.82824201      22.15953788
O       26.38040365      17.93867389      24.26996977
O       26.38040325      20.04910577      26.38040165
O       26.38040284      22.15953766      28.49083354
O       26.38040244      24.26996954      30.60126542
O       26.38040204      26.38040143      32.71169730
O       13.71781038      13.71780899       3.16564919
O       13.71780998      15.82824087       5.27608108
O       13.71780958      17.93867276       7.38651296
O       13.71780917      20.04910464       9.49694484
O       13.71780877      22.15953652      11.60737673
O       13.71780837      24.26996841      13.71780861
O       13.71780796      26.38040029      15.82824049
O       13.71780756      28.49083217      17.93867238
O       15.82824280      13.71780919       5.27608135
O       15.82824239      15.82824107       7.38651324
O       15.82824199      17.93867296       9.49694512
O       15.82824159      20.04910484      11.60737700
O       15.82824118      22.15953672      13.71780889
O       15.82824078      24.26996861      15.82824077
O       15.82824038      26.38040049      17.93867266
O       15.82823997      28.49083238      20.04910454
O       17.93867521      13.71780939       7.38651351
O       17.93867481      15.82824128       9.49694540
O       17.93867440      17.93867316      11.60737728
O       17.93867400      20.04910504      13.71780917
O       17.93867360      22.15953693      15.82824105
O       17.93867319      24.26996881      17.93867293
O       17.93867279      26.38040069      20.04910482
O       17.93867238      28.49083258      22.15953670
O       20.04910762      13.71780959       9.49694567
O       20.04910722      15.82824148      11.60737756
O       20.04910682      17.93867336      13.71780944
O       20.04910641      20.04910524      15.82824133
O       20.04910601      22.15953713      17.93867321
O       20.04910560      24.26996901      20.04910509
O       20.04910520      26.38040090      22.15953698
O       20.04910480      28.49083278      24.26996886
O       22.15954004      13.71780979      11.60737784
O       22.15953963      15.82824168      13.71780972
O       22.15953923      17.93867356      15.82824160
O       22.15953882      20.04910545      17.93867349
O       22.15953842      22.15953733      20.04910537
O       22.15953802      24.26996921      22.15953725
O       22.15953761      26.38040110      24.26996914
O       22.15953721      28.49083298      26.38040102
O       24.26997245      13.71781000      13.71781000
O       24.26997204      15.82824188      15.82824188
O       24.26997164      17.93867376      17.93867376
O       24.26997124      20.04910565      20.04910565
O       24.26997083      22.15953753      22.15953753
O       24.26997043      24.26996942      24.26996942
O       24.26997003      26.38040130      26.38040130
O       24.26996962      28.49083318      28.49083318
O       26.38040486      13.71781020      15.82824216
O       26.38040446      15.82824208      17.93867404
O       26.38040405      17.93867397      20.04910593
O       26.38040365      20.04910585      22.15953781
O       26.38040325      22.15953773      24.26996969
O       26.38040284      24.26996962      26.38040158
O       26.38040244      26.38040150      28.49083346
O       26.38040204      28.49083338      30.60126534
O       28.49083727      13.71781040      17.93867432
O       28.49083687      15.82824228      20.04910620
O       28.49083647      17.93867417      22.15953809
O       28.49083606      20.04910605      24.26996997
O       28.49083566      22.15953794      26.38040185
O       28.49083526      24.26996982      28.49083374
O       28.49083485      26.38040170      30.60126562
O       28.49083445      28.49083359      32.71169751
O       15.82824280      15.82824115       3.16564939
O       15.82824239      17.93867303       5.27608128
O       15.82824199      20.04910492       7.38651316
O       15.82824159      22.15953680       9.49694504
O       15.82824118      24.26996868      11.60737693
O       15.82824078      26.38040057      13.71780881
O       15.82824038      28.49083245      15.82824070
O       15.82823997      30.60126433      17.93867258
O       17.93867521      15.82824135       5.27608155
O       17.93867481      17.93867323       7.38651344
O       17.93867440      20.04910512       9.49694532
O       17.93867400      22.15953700      11.60737721
O       17.93867360      24.26996889      13.71780909
O       17.93867319      26.38040077      15.82824097
O       17.93867279      28.49083265      17.93867286
O       17.93867238      30.60126454      20.04910474
O       20.04910762      15.82824155       7.38651372
O       20.04910722      17.93867344       9.49694560
O       20.04910682      20.04910532      11.60737748
O       20.04910641      22.15953720      13.71780937
O       20.04910601      24.26996909      15.82824125
O       20.04910560      26.38040097      17.93867313
O       20.04910520      28.49083285      20.04910502
O       20.04910480      30.60126474      22.15953690
O       22.15954004      15.82824175       9.49694588
O       22.15953963      17.93867364      11.60737776
O       22.15953923      20.04910552      13.71780964
O       22.15953882      22.15953741      15.82824153
O       22.15953842      24.26996929      17.93867341
O       22.15953802      26.38040117      20.04910530
O       22.15953761      28.49083306      22.15953718
O       22.15953721      30.60126494      24.26996906
O       24.26997245      15.82824196      11.60737804
O       24.26997204      17.93867384      13.71780992
O       24.26997164      20.04910572      15.82824180
O       24.26997124      22.15953761      17.93867369
O       24.26997083      24.26996949      20.04910557
O       24.26997043      26.38040137      22.15953746
O       24.26997003      28.49083326      24.26996934
O       24.26996962      30.60126514      26.38040122
O       26.38040486      15.82824216      13.71781020
O       26.38040446      17.93867404      15.82824208
O       26.38040405      20.04910593      17.93867397
O       26.38040365      22.15953781      20.04910585
O       26.38040325      24.26996969      22.15953773
O       26.38040284      26.38040158      24.26996962
O       26.38040244      28.49083346      26.38040150
O       26.38040204      30.60126534      28.49083338
O       28.49083727      15.82824236      15.82824236
O       28.49083687      17.93867424      17.93867424
O       28.49083647      20.04910613      20.04910613
O       28.49083606      22.15953801      22.15953801
O       28.49083566      24.26996989      24.26996989
O       28.49083526      26.38040178      26.38040178
O       28.49083485      28.49083366      28.49083366
O       28.49083445      30.60126555      30.60126555
O       30.60126969      15.82824256      17.93867452
O       30.60126928      17.93867444      20.04910640
O       30.60126888      20.04910633      22.15953829
O       30.60126848      22.15953821      24.26997017
O       30.60126807      24.26997010      26.38040206
O       30.60126767      26.38040198      28.49083394
O       30.60126726      28.49083386      30.60126582
O       30.60126686      30.60126575      32.71169771
O       17.93867521      17.93867331       3.16564960
O       17.93867481      20.04910519       5.27608148
O       17.93867440      22.15953708       7.38651336
O       17.93867400      24.26996896       9.49694525
O       17.93867360      26.38040084      11.60737713
O       17.93867319      28.49083273      13.71780901
O       17.93867279      30.60126461      15.82824090
O       17.93867238      32.71169650      17.93867278
O       20.04910762      17.93867351       5.27608176
O       20.04910722      20.04910540       7.38651364
O       20.04910682      22.15953728       9.49694552
O       20.04910641      24.26996916      11.60737741
O       20.04910601      26.38040105      13.71780929
O       20.04910560      28.49083293      15.82824118
O       20.04910520      30.60126481      17.93867306
O       20.04910480      32.71169670      20.04910494
O       22.15954004      17.93867371       7.38651392
O       22.15953963      20.04910560       9.49694580
O       22.15953923      22.15953748      11.60737768
O       22.15953882      24.26996936      13.71780957
O       22.15953842      26.38040125      15.82824145
O       22.15953802      28.49083313      17.93867334
O       22.15953761      30.60126502      20.04910522
O       22.15953721      32.71169690      22.15953710
O       24.26997245      17.93867392       9.49694608
O       24.26997204      20.04910580      11.60737796
O       24.26997164      22.15953768      13.71780985
O       24.26997124      24.26996957      15.82824173
O       24.26997083      26.38040145      17.93867361
O       24.26997043      28.49083333      20.04910550
O       24.26997003      30.60126522      22.15953738
O       24.26996962      32.71169710      24.26996926
O       26.38040486      17.93867412      11.60737824
O       26.38040446      20.04910600      13.71781012
O       26.38040405      22.15953788      15.82824201
O       26.38040365      24.26996977      17.93867389
O       26.38040325      26.38040165      20.04910577
O       26.38040284      28.49083354      22.15953766
O       26.38040244      30.60126542      24.26996954
O       26.38040204      32.71169730      26.38040143
O       28.49083727      17.93867432      13.71781040
O       28.49083687      20.04910620      15.82824228
O       28.49083647      22.15953809      17.93867417
O       28.49083606      24.26996997      20.04910605
O       28.49083566      26.38040185      22.15953794
O       28.49083526      28.49083374      24.26996982
O       28.49083485      30.60126562      26.38040170
O       28.49083445      32.71169750      28.49083359
O       30.60126969      17.93867452      15.82824256
O       30.60126928      20.04910640      17.93867444
O       30.60126888      22.15953829      20.04910633
O       30.60126848      24.26997017      22.15953821
O       30.60126807      26.38040206      24.26997010
O       30.60126767      28.49083394      26.38040198
O       30.60126726      30.60126582      28.49083386
O       30.60126686      32.71169771      30.60126575
O       32.71170210      17.93867472      17.93867472
O       32.71170170      20.04910661      20.04910661
O       32.71170129      22.15953849      22.15953849
O       32.71170089      24.26997037      24.26997037
O       32.71170048      26.38040226      26.38040226
O       32.71170008      28.49083414      28.49083414
O       32.71169968      30.60126602      30.60126602
O       32.71169927      32.71169791      32.71169791
