128
Lattice="-1.614308e-06 8.441727534992 8.441727535104 8.441729651 8.07124e-07 8.441728643972 8.441729650856 8.441728643712 8.0684e-07" Properties=species:S:1:pos:R:3 pbc="T T T"
Mg       1.05521611       1.05521606       1.05521606
Mg       1.05521571       3.16564794       3.16564794
Mg       1.05521530       5.27607983       5.27607983
Mg       1.05521490       7.38651171       7.38651171
Mg       3.16564852       1.05521626       3.16564822
Mg       3.16564812       3.16564815       5.27608010
Mg       3.16564772       5.27608003       7.38651199
Mg       3.16564731       7.38651191       9.49694387
Mg       5.27608094       1.05521646       5.27608038
Mg       5.27608053       3.16564835       7.38651227
Mg       5.27608013       5.27608023       9.49694415
Mg       5.27607972       7.38651211      11.60737603
Mg       7.38651335       1.05521667       7.38651254
Mg       7.38651294       3.16564855       9.49694443
Mg       7.38651254       5.27608043      11.60737631
Mg       7.38651214       7.38651232      13.71780819
Mg       3.16564852       3.16564822       1.05521626
Mg       3.16564812       5.27608010       3.16564815
Mg       3.16564772       7.38651199       5.27608003
Mg       3.16564731       9.49694387       7.38651191
Mg       5.27608094       3.16564842       3.16564842
Mg       5.27608053       5.27608031       5.27608031
Mg       5.27608013       7.38651219       7.38651219
Mg       5.27607972       9.49694407       9.49694407
Mg       7.38651335       3.16564862       5.27608058
Mg       7.38651294       5.27608051       7.38651247
Mg       7.38651254       7.38651239       9.49694435
Mg       7.38651214       9.49694428      11.60737624
Mg       9.49694576       3.16564883       7.38651274
Mg       9.49694536       5.27608071       9.49694463
Mg       9.49694495       7.38651259      11.60737651
Mg       9.49694455       9.49694448      13.71780840
Mg       5.27608094       5.27608038       1.05521646
Mg       5.27608053       7.38651227       3.16564835
Mg       5.27608013       9.49694415       5.27608023
Mg       5.27607972      11.60737603       7.38651211
Mg       7.38651335       5.27608058       3.16564862
Mg       7.38651294       7.38651247       5.27608051
Mg       7.38651254       9.49694435       7.38651239
Mg       7.38651214      11.60737623       9.49694428
Mg       9.49694576       5.27608079       5.27608079
Mg       9.49694536       7.38651267       7.38651267
Mg       9.49694495       9.49694455       9.49694455
Mg       9.49694455      11.60737644      11.60737644
Mg      11.60737817       5.27608099       7.38651295
Mg      11.60737777       7.38651287       9.49694483
Mg      11.60737737       9.49694475      11.60737671
Mg      11.60737696      11.60737664      13.71780860
Mg       7.38651335       7.38651254       1.05521667
Mg       7.38651294       9.49694443       3.16564855
Mg       7.38651254      11.60737631       5.27608043
Mg       7.38651214      13.71780819       7.38651232
Mg       9.49694576       7.38651274       3.16564883
Mg       9.49694536       9.49694463       5.27608071
Mg       9.49694495      11.60737651       7.38651259
Mg       9.49694455      13.71780840       9.49694448
Mg      11.60737817       7.38651295       5.27608099
Mg      11.60737777       9.49694483       7.38651287
Mg      11.60737737      11.60737671       9.49694475
Mg      11.60737696      13.71780860      11.60737664
Mg      13.71781059       7.38651315       7.38651315
Mg      13.71781018       9.49694503       9.49694503
Mg      13.71780978      11.60737692      11.60737692
Mg      13.71780938      13.71780880      13.71780880
O        3.16564832       3.16564818       3.16564818
O        3.16564792       5.27608007       5.27608007
O        3.16564751       7.38651195       7.38651195
O        3.16564711       9.49694383       9.49694383
O        5.27608073       3.16564838       5.27608034
O        5.27608033       5.27608027       7.38651223
O        5.27607993       7.38651215       9.49694411
O        5.27607952       9.49694404      11.60737600
O        7.38651315       3.16564859       7.38651251
O        7.38651274       5.27608047       9.49694439
O        7.38651234       7.38651235      11.60737627
O        7.38651194       9.49694424      13.71780816
O        9.49694556       3.16564879       9.49694467
O        9.49694516       5.27608067      11.60737655
O        9.49694475       7.38651256      13.71780843
O        9.49694435       9.49694444      15.82824032
O        5.27608073       5.27608034       3.16564838
O        5.27608033       7.38651223       5.27608027
O        5.27607993       9.49694411       7.38651215
O        5.27607952      11.60737600       9.49694404
O        7.38651315       5.27608055       5.27608055
O        7.38651274       7.38651243       7.38651243
O        7.38651234       9.49694431       9.49694431
O        7.38651194      11.60737620      11.60737620
O        9.49694556       5.27608075       7.38651271
O        9.49694516       7.38651263       9.49694459
O        9.49694475       9.49694452      11.60737647
O        9.49694435      11.60737640      13.71780836
O       11.60737797       5.27608095       9.49694487
O       11.60737757       7.38651283      11.60737675
O       11.60737716       9.49694472      13.71780864
O       11.60737676      11.60737660      15.82824052
O        7.38651315       7.38651251       3.16564859
O        7.38651274       9.49694439       5.27608047
O        7.38651234      11.60737627       7.38651235
O        7.38651194      13.71780816       9.49694424
O        9.49694556       7.38651271       5.27608075
O        9.49694516       9.49694459       7.38651263
O        9.49694475      11.60737647       9.49694452
O        9.49694435      13.71780836      11.60737640
O       11.60737797       7.38651291       7.38651291
O       11.60737757       9.49694479       9.49694479
O       11.60737716      11.60737668      11.60737668
O       11.60737676      13.71780856      13.71780856
O       13.71781038       7.38651311       9.49694507
O       13.71780998       9.49694499      11.60737695
O       13.71780958      11.60737688      13.71780884
O       13.71780917      13.71780876      15.82824072
O        9.49694556       9.49694467       3.16564879
O        9.49694516      11.60737655       5.27608067
O        9.49694475      13.71780843       7.38651256
O        9.49694435      15.82824032       9.49694444
O       11.60737797       9.49694487       5.27608095
O       11.60737757      11.60737675       7.38651283
O       11.60737716      13.71780864       9.49694472
O       11.60737676      15.82824052      11.60737660
O       13.71781038       9.49694507       7.38651311
O       13.71780998      11.60737695       9.49694499
O       13.71780958      13.71780884      11.60737688
O       13.71780917      15.82824072      13.71780876
O       15.82824280       9.49694527       9.49694527
O       15.82824239      11.60737716      11.60737716
O       15.82824199      13.71780904      13.71780904
O       15.82824159      15.82824092      15.82824092
