5
Lattice="3.98772401 0.00252199 0.00251895 0.00732644 3.98771808 0.00251895 0.00732644 0.00731762 3.98771216" Properties=species:S:1:pos:R:3:REF_BEC:R:9 pbc="T T T"
Ba       0.00154942       0.00154755       0.00154569       2.80839742      -0.01544689      -0.01542831      -0.01544689       2.80843464      -0.01540974      -0.01542831      -0.01540974       2.80847173
Ti       2.04807538       2.04560932       2.04314920       6.29996298      -0.30411686      -0.30375112      -0.30411686       6.30069579      -0.30338538      -0.30375112      -0.30338538       6.30142596
O        1.95851857       1.95616035       3.91890703      -2.00678029      -0.01063274       0.09842847      -0.01063274      -2.00675467       0.09830995       0.22807337       0.22779875      -5.09559453
O        3.92361495       1.95379278       1.95144308      -5.09479981       0.23178089       0.23150214       0.10213608      -2.00717812      -0.01103010       0.10201325      -0.01103010      -2.00715157
O        1.95851857       3.92125815       1.95144308      -2.00678030       0.09841560      -0.01075118       0.22806041      -5.09519763       0.23151526      -0.01090719       0.10202647      -2.00715157
