588
Lattice="18.05026888 0.0 0.0 0.0 18.05026888 0.0 0.0 0.0 18.05026888" Properties=species:S:1:pos:R:3 energy=-408194.103661101 free_energy=-408194.103661101 polarization="-0.018450759 0.020667523 -0.016113875" pbc="T T T"
O        6.24522911       7.17948047       4.98046725
H        7.02693938       7.64108937       4.65124536
H        6.57278357       6.37693902       5.40109361
O        1.86522992      11.91399841      12.12815607
H        1.60546086      12.84456052      12.14162954
H        1.85946484      11.67392134      11.19828649
O       13.58177971       6.86993758       1.23200412
H       13.39817542       7.81592584       1.15747659
H       12.96747839       6.45437328       0.61677825
O       10.70298898       5.89253636       2.27826749
H        9.75437888       5.70776700       2.17758271
H       10.97313541       5.39334168       3.06168663
O       14.74168130       8.35132318       4.52636108
H       15.65243050       8.33913173       4.84331703
H       14.51304454       7.43141143       4.39627535
O       17.11112281      14.24873787      14.53401963
H       17.44581428      14.71176750      15.31400308
H       17.39566544      13.32800598      14.61807448
O        4.53525015       4.53290055      16.64894568
H        5.02940804       3.99324985      16.01779161
H        4.14112577       3.92924116      17.28283130
O        0.33600094       3.33148434      10.52630612
H        0.58612039       4.16802716      10.11807251
H        1.17427898       2.86598043      10.66919829
O        6.85053658       7.50761966      12.22290598
H        7.54899785       8.18191478      12.34278191
H        6.61571114       7.61397645      11.28866365
O        1.84560661      11.42287915       9.21021884
H        1.48891351      11.93965818       8.49573999
H        2.06560091      10.57721893       8.82197834
O        0.41389627      -0.22893955       2.48397631
H        0.65947781       0.67021970       2.25387803
H       -0.54205539      -0.23356065       2.49824443
O       15.30108377      10.29185820       2.64809644
H       14.57358069      10.15713964       2.02436724
H       15.12241581       9.67306397       3.36211937
O        2.16704260       9.88215416       0.16212831
H        1.33732662      10.22056231      -0.17871873
H        1.95593672       9.47468435       1.01835227
O        0.49042439       6.65515042       2.81864277
H        1.00391494       7.46778022       2.71500293
H        0.77888723       6.13085145       2.06397570
O       11.66660270       4.45858631       4.39205908
H       12.52279128       4.88549671       4.29151650
H       11.67418284       3.70999924       3.77953023
O        4.06709533       4.72824605       5.43807775
H        4.42079687       5.46561733       5.93141830
H        3.15575733       4.65554123       5.74434810
O        2.27441577       2.12832357       7.98352233
H        2.04153092       2.98130559       7.60701806
H        1.66111941       1.50667572       7.56416807
O       13.06699391       2.99626557      14.01057182
H       12.76047848       3.64954704      13.37208542
H       13.59499197       2.36476415      13.51220353
O       10.89024711      11.83326960       9.53919035
H       10.40227921      11.01686506       9.64933031
H       11.35767670      11.99358839      10.36966084
O        0.94125277       2.48826137       2.17607837
H        0.28043761       2.99027453       1.68009260
H        1.77979264       2.68338865       1.74894073
O        1.62023128       5.38268094      18.64729568
H        1.17968331       4.84796396      17.97642478
H        2.02068997       6.11486472      18.15590238
O        9.10186800       6.79145256      17.32292132
H        8.72533581       6.85000017      16.44571286
H        9.93388301       6.32964862      17.23606714
O        0.01023889       2.80403507       4.74508228
H       -0.48662070       3.63553812       4.61890528
H        0.45427249       2.67092925       3.89305929
O       13.82349745      12.05044072      14.14010787
H       14.51974991      11.57819298      13.67060388
H       14.07518064      12.98444751      14.12812918
O        5.40335636       0.47393661      15.85249116
H        5.46554023      -0.01514213      15.02152976
H        6.18797185       0.23661739      16.36414156
O       10.28094252       3.68432404       6.76660236
H       10.59060190       4.03937988       5.92531233
H       11.02691515       3.80904147       7.37259700
O        9.29151308       2.88892139       0.87375356
H        8.45325701       2.50520884       1.16834894
H        9.45887329       2.49179089       0.00848607
O        4.66100488      16.37035086       7.79338014
H        4.34715588      15.94799666       6.98452820
H        5.57779411      16.11262561       7.90393813
O        4.59220796       8.39624584      13.67987960
H        4.27951189       9.31090377      13.72322202
H        5.36719881       8.37088152      13.11292047
O        1.24191962       5.73921972       9.62761161
H        2.18663799       5.53947784       9.63268167
H        1.03902203       6.12394292       8.77430162
O        3.92952065       5.19445632       9.97498967
H        4.56107996       4.46758196       9.98919459
H        3.84976149       5.49783001      10.88721661
O        3.42680085      14.63967634      15.71242452
H        3.16460688      15.47335683      16.13396881
H        2.83726459      14.00824388      16.13067488
O       15.58945021       2.20962213       7.29230340
H       15.36701753       3.09981522       7.58459264
H       15.44484019       2.15819228       6.34339761
O       14.61129117       4.06702271      15.93868961
H       15.43877457       3.57547112      15.83899874
H       14.00682416       3.65839749      15.28963627
O        5.74430977      11.73409679      12.26880264
H        5.36907883      12.60227255      12.05032715
H        6.55120301      11.67928876      11.74366431
O        5.43138626      12.15788011       8.73293593
H        4.73884966      12.82571807       8.79047432
H        5.01855606      11.35403451       9.06740492
O        7.07216380       0.09013347       5.85925170
H        7.58810277       0.18650223       6.65582074
H        6.49995367       0.86581884       5.83455896
O       11.82609849      11.82392710       0.61297943
H       11.00939530      11.46955468       0.24508010
H       11.66368758      11.95524953       1.56041138
O       11.92583468       6.31903242      14.94831416
H       11.15924361       5.93179767      14.51499082
H       11.87960399       6.05507636      15.86268425
O        9.22256604      13.76397915       8.44300830
H        8.67609221      13.19527518       7.88842847
H        9.81497517      13.15164261       8.89829332
O       17.24710037       9.06972632       1.20289085
H       17.02176998       8.15502044       1.01454580
H       16.54012663       9.41258547       1.76467550
O        5.53518400      14.53743098       1.08700543
H        6.37705439      14.73597268       1.51338774
H        5.46550186      13.57485385       1.15196614
O       13.08992917      18.36038587       1.64526599
H       12.53209261      19.02749107       2.05884351
H       12.89991754      18.44436774       0.69982264
O        9.11548234      -0.78474214       1.65256922
H        9.00163181      -0.22705892       2.42788499
H        8.70176603      -1.63800709       1.86114840
O        7.44698055      12.35259365       6.87634937
H        7.24884327      13.13490041       6.35523911
H        6.65907195      12.21734818       7.42213762
O       16.88189331       2.65772537      15.43762782
H       17.04571057       2.99476770      14.54706081
H       17.64927916       2.98807942      15.92638618
O       11.42445959      12.18677772       3.28440899
H       11.73340708      11.42303547       3.78622959
H       10.59391071      12.47861579       3.67479433
O       14.42145382       5.90915130      13.88898121
H       14.67247463       5.31347559      14.60303912
H       13.49388684       6.09293605      14.10335735
O        8.63095976      13.56397608      17.65946724
H        9.49864473      13.97727674      17.51788021
H        8.02097439      13.91863929      17.00983989
O        4.87478834      10.84428124       4.84637005
H        5.20369841      10.43515392       5.65907818
H        4.71552165      10.08445441       4.26434706
O       -0.06450053       9.06537587      11.98775501
H        0.10201336       9.00413338      12.94812109
H        0.83055733       9.08828044      11.61274620
O        2.43045298       8.66987808      10.97263354
H        2.62167852       7.81880031      11.38448722
H        2.36236509       8.51466686      10.01891562
O        8.80983854       9.27315681      12.55024073
H        9.06026994      10.15236950      12.84389635
H        9.59308541       8.86205982      12.17106748
O        9.68254295      19.53776741      16.61079720
H        9.38473645      20.02626251      15.82786354
H        8.91381296      19.02919748      16.88823130
O        5.48397162      11.46730549      16.36004088
H        5.67584692      12.41494499      16.31635664
H        4.77167981      11.31897981      15.73235984
O        4.57285329       6.86766040       7.87897942
H        4.38342010       6.24152340       8.58594410
H        5.33895816       7.34466476       8.20360540
O       13.09400480      14.89605635       9.34831560
H       13.63218917      14.47438075       8.67165611
H       12.36444823      15.29294591       8.86556347
O       11.73504840      14.71566426      15.00252584
H       12.68528940      14.70699556      14.90419774
H       11.57677541      14.61328898      15.94626243
O       -0.21019110       6.33719398      11.90309384
H       -0.17826865       7.28981863      12.02622865
H        0.35156947       6.16940759      11.13836063
O       16.83018488      15.19575355       2.20824323
H       17.71469022      15.47800196       2.01157273
H       16.87474324      14.24203759       2.30174976
O       17.08700081       8.50821911       9.25493893
H       16.61619869       9.31125845       9.00223531
H       17.32380621       8.65079401      10.16579715
O       14.75011683       3.33706671       2.47981542
H       14.95081120       2.66288694       3.14631980
H       14.39487393       2.88565636       1.71420548
O        3.32667284      14.87530410       5.79425369
H        3.27577181      14.11086246       5.20826210
H        2.78499672      15.54250190       5.34575579
O        7.07190771      11.28336770       3.33031817
H        6.64359889      11.39826211       2.47436525
H        6.32323104      11.21613270       3.94259285
O        1.54978780      16.66102824       4.71017040
H        1.31687970      17.01691183       3.84258595
H        1.29307348      17.35684942       5.33067667
O       13.13307550      14.34170310       3.35230484
H       12.62794879      15.00081673       2.87805052
H       12.56114130      13.56888488       3.36527327
O       12.30807001       9.78251276       4.38773180
H       11.76419580       9.30506477       3.74346095
H       13.17168055       9.35933353       4.38179525
O       16.17341199       6.62579038      18.39638522
H       15.26378087       6.57985485      18.71465940
H       16.49956030       5.72662571      18.41312257
O        6.05840567       9.31573402       6.77229490
H        6.99730215       9.47990886       6.83232946
H        5.98419885       8.49053900       6.28215496
O        7.72962662       7.38763563      14.92319911
H        7.86193651       8.34456123      14.98461085
H        7.25429531       7.27035953      14.09786146
O       15.57545193      11.34383255      16.23965870
H       15.36867218      10.42852685      16.45910567
H       14.85814476      11.64302292      15.68558756
O       15.86145122      10.75190209      12.65202336
H       15.62269247      11.35500444      11.92767227
H       16.54507849      10.18497990      12.27386612
O       11.56546576       9.07002599       6.87546069
H       11.84954129       9.28343309       5.97179393
H       10.65411204       9.35669511       6.89116047
O        2.47702033       5.49344152      15.02265014
H        2.28009519       6.30753861      15.49070642
H        3.26385560       5.17205258      15.47969316
O       16.45912850      14.90354843      11.29199226
H       17.34796582      14.73145282      11.63271149
H       16.58949383      14.95619213      10.33467808
O       12.45874740      12.48819885      11.72040798
H       13.28074064      12.64045208      11.23786650
H       12.76086563      12.19663519      12.58301527
O        3.19985706      15.71945361      13.21806103
H        3.80408928      16.46965724      13.22768353
H        3.27124787      15.31893543      14.09716028
O       14.53710764      13.52063955       7.46877577
H       14.68414631      13.60674703       6.51728871
H       14.04314369      12.70139579       7.56256361
O        4.68463263      14.15245888      11.58521584
H        4.11311393      14.65079418      12.18989348
H        4.20220655      14.13844495      10.74558569
O       10.93601028      14.66933651      12.41094923
H       11.43641892      13.89264114      12.12085257
H       11.06305533      14.70022121      13.37385735
O        4.79586606      19.17315554       8.16431384
H        3.87960827      19.47834417       8.08680019
H        4.73794158      18.21842682       8.04957189
O       18.41388989       7.11911059       7.29892044
H       17.84267806       7.55397707       7.95530092
H       18.10904480       7.48800486       6.46117997
O        7.39060749      15.82694809       8.48626986
H        7.94353720      16.61202347       8.39347534
H        8.00730287      15.09899620       8.65299012
O       17.77402790      11.29740433      -0.19528485
H       17.54438379      10.46856149       0.26271136
H       17.04321421      11.41507673      -0.82199335
O        5.71645675       5.77609347       0.85089522
H        5.73368940       6.74115086       0.82788421
H        5.38522759       5.49139564      -0.00686924
O        3.85070150      11.01684244      14.03909394
H        4.59205206      11.32465229      13.49773621
H        3.08496022      11.26500237      13.51836362
O        5.03427848       3.96907676       2.83215695
H        4.69915748       4.33388602       3.65429417
H        5.28808927       4.72616633       2.28754949
O        2.84783782      12.57911746       4.27473913
H        2.84068667      12.57975414       3.31060230
H        3.56925460      11.98348114       4.52664606
O       15.29916644       5.52159937      11.24395370
H       14.94106107       5.42235267      12.13276616
H       16.20240287       5.81883069      11.40626124
O        0.83872162      14.45462816      12.46662377
H        0.29844557      14.45191320      13.27064604
H        1.56226271      15.06481034      12.64702582
O       14.21145444      18.09973962       8.18404833
H       14.61373679      18.93322653       7.90419271
H       13.62065368      17.84760188       7.45441960
O        7.44963401      18.32766599      -0.28896947
H        6.95155257      18.86997363       0.33119751
H        8.03778021      17.83652685       0.29669387
O       12.96861864       0.26526086      10.63344822
H       13.43397931       0.17329833       9.78783832
H       12.99751511      -0.61999376      11.02288290
O       -0.07158423      15.78017825      16.64316084
H       -0.64279336      16.52103648      16.43536679
H        0.79615728      16.20125689      16.74206323
O        2.39200328      16.83106158      -1.13688588
H        2.43606779      17.77452686      -1.33096320
H        2.67769852      16.71503551      -0.21366947
O       16.80700327       5.14073062       4.31422381
H       15.91794986       5.43656503       4.12990845
H       17.38486013       5.65577117       3.73686238
O       12.13674515       4.11035536       8.65828918
H       11.85298231       3.46593509       9.31447159
H       13.10012768       4.13617083       8.70708783
O       17.32271527       1.20825565       9.26223816
H       17.61373974       2.04514371       9.64787132
H       16.74412460       1.47165681       8.54836603
O        7.39716179      14.91775846       5.76993516
H        7.48671716      15.30553896       6.64127349
H        6.96313867      15.59556631       5.26447460
O        1.92669418       8.96698956       2.71729499
H        1.56278066       9.68857054       3.24138067
H        2.84626416       8.83980677       2.99044164
O       11.65163096       5.55534215      -0.27467927
H       11.26119055       5.61631466       0.61136901
H       12.07267858       4.68769654      -0.29180841
O        1.13154434       3.63321729      16.52999151
H        1.50508275       4.26321964      15.89687508
H        1.70413976       2.85941565      16.47196998
O       16.17224887       1.21459471       0.17877777
H       16.29809889       0.68088449      -0.59912563
H       16.02699674       0.60020356       0.89922800
O        8.24915234       8.94198833       4.24751650
H        9.04591322       8.73502060       3.73854616
H        7.85371401       9.69913361       3.79482355
O        9.55872379      11.03599484      17.30685165
H        9.17848293      11.92555372      17.41592106
H       10.21702011      11.11481170      16.58539663
O        6.57730679       8.07865050       9.59563768
H        5.94832294       8.79515888       9.76894330
H        7.42538194       8.50570156       9.47651008
O        3.23734045       6.40597674      12.41405906
H        3.74679451       7.08397982      12.87965525
H        2.80708503       5.95150702      13.14166148
O       16.86471136      14.58682825       8.62572193
H       17.67822408      14.20112558       8.29811510
H       16.14157316      14.11592185       8.19147107
O       14.47654233       0.93364487      12.83074785
H       13.96950314       0.74024661      12.03117905
H       14.08883867       0.40474060      13.54310609
O       13.89431004      17.51804625      15.09449089
H       13.93640286      16.59279126      14.85863636
H       14.79220018      17.73335938      15.37688430
O       13.29233571      15.89271888      11.85654128
H       13.41018206      15.49867221      10.97643128
H       12.39914988      15.60194117      12.09341960
O       16.87979902      11.64708159       6.21419729
H       16.28168859      12.21039547       5.71448269
H       17.57643591      11.43549332       5.59307152
O        7.72403429      10.18401895      15.43426245
H        8.36251781      10.41501894      16.11771951
H        6.88679953      10.55458265      15.74552062
O        5.81334611       2.95067260      14.76506550
H        5.76004972       2.07649208      15.17012424
H        5.44087982       2.82552283      13.88531723
O       15.64880638      17.69620558       2.46926207
H       14.71527024      17.80230919       2.24282315
H       15.82316388      16.74335375       2.42289817
O        6.03337619      14.15596478      16.48562706
H        5.19229579      14.39567959      16.08041350
H        5.88378363      14.37075679      17.41708863
O        4.85298033       2.11387095      12.25258269
H        5.36307284       2.46620173      11.51697923
H        3.97142682       2.03140356      11.86911511
O        8.79706285       5.66355832      11.17458648
H        9.47116440       6.34835912      11.05599140
H        8.02731966       6.14131631      11.48826920
O       13.08702417      11.14252580       8.00774876
H       12.37238215      11.47401823       8.56244958
H       12.67439802      10.40481609       7.55179565
O       11.62711717       2.60284164       2.31408135
H       10.74656566       2.62836319       1.91755100
H       12.18600922       2.96325525       1.62202786
O        0.63249476      10.95358507       4.18899442
H        1.38773925      11.53897292       4.35193647
H        0.11481044      11.43430883       3.52283734
O       12.95905183       6.77501153       7.81810161
H       12.46646001       7.51399465       7.44920723
H       12.35449627       6.03647511       7.86799499
O        4.77896803       9.98296223      10.38280350
H        5.01428314      10.57548044      11.10619377
H        3.92845718       9.59882801      10.63109247
O       10.35350931       1.07426488       5.96501190
H        9.88855619       1.01362940       5.12355787
H       10.35768573       2.01733178       6.19085170
O        1.51648078       4.40497125       6.47771466
H        1.00652090       5.19979764       6.62096766
H        0.99651730       3.87067187       5.86728945
O        8.09821595      14.78693818       1.98992580
H        8.32899825      14.31873921       1.17259881
H        8.45028985      14.23223971       2.69949345
O        1.35887501       1.52693693      13.64901016
H        0.90467024       2.36201967      13.51394352
H        1.07769639       0.96843554      12.92397238
O        8.39521006      13.89672289      11.86812638
H        9.28704619      14.24527692      12.02469655
H        7.83681729      14.67584746      11.77794354
O        5.45990798      11.82045685       1.09584946
H        5.49932106      11.52852467       0.17939122
H        4.51081351      11.87451435       1.27746580
O        7.65330770      11.73347546      10.33205973
H        8.01817645      12.54562072      10.71097923
H        6.91327106      12.00264078       9.77259688
O        2.46806077       8.68387394       8.23657696
H        3.24820802       8.16438175       8.00771638
H        1.73861244       8.22636470       7.80851847
O        4.58445340       8.65288422       3.27792550
H        5.03740109       8.65527781       2.42257825
H        5.04613606       7.99418299       3.80886156
O        5.84279337       3.12909066       9.84961689
H        6.66309246       3.45538903       9.46701823
H        5.55238396       2.39985457       9.29178566
O       15.58439314       8.31762174      14.24934014
H       15.27868243       8.92767851      13.58434006
H       15.17643428       7.45787746      14.05134156
O       18.57498659       0.03525993      11.40963291
H       18.09065436       0.31319180      10.61940109
H       17.89051286      -0.36499107      11.95974564
O       13.38472082       9.58723781       0.84677682
H       12.84708404      10.37587070       0.68986113
H       13.85642231       9.41364278       0.02165320
O        8.91242670      13.19774068       4.04079521
H        8.52360448      13.78548801       4.69159270
H        8.24342844      12.52527607       3.84125793
O        5.66833979       2.51193758       6.01506525
H        5.30620443       2.07569635       6.79940044
H        4.97899894       3.11804571       5.72451393
O       18.68649245       0.54119782       6.43400544
H       18.33262419       1.26296545       5.91280981
H       17.93029912       0.10106729       6.84242871
O       11.27767516      11.34377800      15.26933063
H       12.14197066      11.60388305      14.95899130
H       10.65389936      11.59772618      14.58084245
O        8.60331952       0.95620688       3.81906511
H        8.61222750       1.92439098       3.95965333
H        8.02112035       0.60053693       4.51378548
O       11.19108092       2.36609180      10.60371226
H       10.61286421       2.25289804      11.34832858
H       11.79689362       1.60999461      10.63357375
O        5.92315184       8.51252326      18.91868274
H        5.66084806       8.55442513      17.99322903
H        6.86613213       8.72541094      18.92956278
O        8.53135128       3.61739175       4.19953202
H        8.15992380       4.06973003       4.96252105
H        8.29639741       4.17193601       3.44798215
O        3.29707071       3.27363769       0.86440310
H        3.88647429       3.47860717       1.60831475
H        2.74726279       4.07101983       0.77214343
O       14.39995547      14.77822763      14.14752191
H       14.22859213      15.12623918      13.25891903
H       15.36087300      14.69393141      14.23038150
O       12.10508848       4.66171488      11.98934971
H       11.81342583       3.97573652      11.39288993
H       12.36643148       5.40387238      11.44585094
O        2.79416388      12.18956674       1.47964497
H        2.41774615      12.84542842       0.88619437
H        2.58644873      11.35118004       1.04005665
O       16.51933896      17.15924025      12.93430780
H       16.34483302      16.40614700      12.35631193
H       15.82991073      17.81282510      12.74028491
O        9.48871353       5.42573625      13.91170284
H        8.94649883       6.15593784      14.21546446
H        9.42214939       5.42388652      12.95158213
O       14.08186590       5.68170271       3.63543606
H       13.83376583       6.16790373       2.83361601
H       14.29467502       4.80530938       3.27345925
O        9.05713025       9.60593256       9.38846694
H        8.53505685      10.31762127       9.79753787
H        8.96963188       9.72885314       8.43489303
O        6.65578206      15.97274348      11.28290710
H        5.92760852      15.33437422      11.35776458
H        6.83556633      16.03378405      10.34494491
O        3.58029439      14.20063738       9.09665262
H        3.84528113      15.02837862       8.67362421
H        2.69620663      14.01640624       8.78749834
O       15.56862940       1.68026611       4.49377948
H       15.56880234       0.82486645       4.05803259
H       16.48944919       1.96895197       4.50826393
O       14.83792215       4.61526589       8.58104006
H       14.62874919       5.46428918       8.19376337
H       15.10009858       4.81004636       9.48783539
O       12.34726607       0.76626541      17.07772837
H       11.43428977       0.91513366      16.80097708
H       12.77562947       0.32154869      16.33874507
O        9.11880531      11.78688133      13.60783747
H        8.44448685      11.40092555      14.17988771
H        8.71696574      12.52922937      13.15092629
O       17.17964692      12.36830877       2.34427507
H       17.39143842      12.11982010       1.44057511
H       16.36433251      11.89397899       2.53996269
O        8.59366021       2.88269113      14.52047760
H        8.94215541       3.75963043      14.32764080
H        7.63996878       2.98764108      14.55992201
O       16.91909694       3.80529169       0.87929351
H       16.23788391       3.78321122       1.55963855
H       16.74052286       2.98780889       0.40010284
O        8.15339945       5.12581189       1.93167079
H        8.51079266       4.42159362       1.37221199
H        7.36312167       5.42663687       1.47185439
O       -0.22220103       3.78543848      13.13130421
H       -0.18342949       3.55288076      12.19378650
H       -0.16239786       4.73931232      13.08624842
O        3.39897670      16.31117955       1.33294663
H        3.81162399      17.18018314       1.26719506
H        4.12536240      15.68315226       1.31036794
O       16.53583449      16.92383870       7.22731819
H       15.70013757      17.29727506       7.52789422
H       16.70052556      16.21007575       7.85478812
O        8.22386690       4.23623144       8.76357505
H        8.51355772       4.73308694       9.53729827
H        9.00544336       4.06410713       8.23445057
O        8.80699595       9.96091816       6.69020109
H        8.45130869      10.86010650       6.63165189
H        8.69337071       9.59007990       5.79879589
O        2.68365983       1.37505458      15.99933773
H        2.22031363       1.36681182      15.14262565
H        3.59528341       1.18353827      15.78532279
O       -0.53019080      15.02577824       5.48800623
H        0.16806883      15.51725552       5.04283179
H       -0.98015382      15.70134976       6.00893997
O       15.29403840      13.50039778       4.84515612
H       16.02609913      14.12732389       4.80390007
H       14.60286558      13.85323336       4.26713801
O        9.02897137      18.04132306       8.05157677
H        9.14073240      18.67056130       8.75612058
H        9.54236474      18.41451605       7.31154996
O        6.90719912       2.03279031       1.88327381
H        6.27041920       2.64355143       2.26336940
H        7.29026534       1.56745417       2.62953870
O        1.24130186      13.78038193       7.29049131
H        0.55943733      13.97530274       6.63882111
H        2.02417316      14.10943570       6.83656483
O       16.55450139      -0.05917100      15.59522332
H       16.73387644       0.88907520      15.48820824
H       16.68363667      -0.41011729      14.70303908
O       12.53164088      17.41166316       6.18787968
H       12.04962923      16.69436239       6.60206158
H       11.86482773      18.07163953       5.98931027
O       15.79396406      10.87542768       8.64597718
H       16.21132190      11.15964807       7.81984366
H       14.85880125      10.79637852       8.42946526
O        0.21241484       8.95826224      14.65370394
H        0.18544965       9.91575758      14.74225997
H       -0.69998254       8.66031315      14.71651110
O        7.12888645       4.84440791       6.25322466
H        6.59723735       4.04070494       6.19334584
H        7.48466351       4.81515050       7.14494039
O       18.00673390      11.67283833      14.13539552
H       18.66917372      11.69770516      13.43453090
H       17.19185369      11.41266801      13.69094480
O       10.92961363      15.87788171       7.91132626
H       10.35884259      16.61802848       8.10801722
H       10.38248610      15.09007044       7.99902814
O       10.48893608       8.53274048       2.76404288
H        9.92381364       8.77522362       2.01662012
H       10.64342273       7.58511440       2.63030686
O        4.40375873       0.67952196       0.51261018
H        4.61233547       0.55276849      -0.40900190
H        3.96277123       1.52679230       0.57334538
O       17.51815001       8.33438448       4.93464363
H       17.82184590       7.79085319       4.20424809
H       17.86804794       9.20870586       4.76296215
O        2.55311039      19.83990245      10.70364556
H        2.49715586      19.90944985       9.74239142
H        2.00049823      19.08445603      10.93554684
O       11.59686175      16.09208475       1.74073057
H       12.19040978      16.85295220       1.73205553
H       10.72232877      16.49818231       1.73735038
O       11.25256112      14.34279697      -0.36543159
H       11.61106377      13.50513630      -0.04094559
H       11.45107835      14.98282128       0.33089706
O        2.71793660       7.39781680      17.13152131
H        3.64618374       7.47164685      16.89316790
H        2.47084292       8.29035742      17.40034194
O       10.49545734       7.79200094      10.97152899
H       10.20361608       8.37050622      10.26177815
H       11.43765911       7.61913009      10.84846782
O        8.64351353       8.96104115       0.80869343
H        8.95745282       9.69835201       0.27326492
H        8.82885303       8.16659919       0.27560317
O       15.02776280       8.72761189      16.86040852
H       15.54065759       8.04330211      17.29751886
H       15.09721993       8.50575802      15.92175904
O       15.09789358      12.54063346      10.78931590
H       15.58953917      13.36374509      10.91010513
H       15.42680876      12.12969015       9.97972398
O        5.31459962       7.89368959      16.26896607
H        4.94804699       8.14768957      15.41282618
H        6.17072998       7.54678788      16.01646616
O       13.13198714       3.21370549      -0.00214931
H       13.76176391       3.55218055      -0.65923825
H       12.84438926       2.38195544      -0.40591486
O       13.06365618       6.94577274      10.53909385
H       13.92867692       6.61227405      10.80207508
H       13.09211693       6.96122619       9.57378593
O        5.27799497      17.59261611      13.19931148
H        5.13538407      18.46310048      12.80420167
H        5.87091085      17.14137398      12.59180121
O        1.43103776      13.46778592      17.39011962
H        0.84669829      12.70561214      17.42658843
H        0.84468610      14.22297136      17.31777276
