5
Lattice="3.98772401 0.00252199 0.00251895 0.00732644 3.98771808 0.00251895 0.00732644 0.00731762 3.98771216" Properties=species:S:1:pos:R:3:REF_BEC:R:9 pbc="T T T"
Ba       0.00154942       0.00154755       0.00154569       2.80921319      -0.01544128      -0.01542271      -0.01544128       2.80925040      -0.01540414      -0.01542271      -0.01540414       2.80928747
Ti       2.04807538       2.04560932       2.04314920       6.29848714      -0.30401125      -0.30364564      -0.30401125       6.29921970      -0.30328002      -0.30364564      -0.30328002       6.29994961
O        1.95851857       1.95616035       3.91890703      -2.00665517      -0.01063010       0.09843309      -0.01063010      -2.00662956       0.09831456       0.22795522       0.22768074      -5.09518445
O        3.92361495       1.95379278       1.95144308      -5.09438999       0.23166240       0.23138380       0.10214036      -2.00705286      -0.01102732       0.10201753      -0.01102732      -2.00702632
O        1.95851857       3.92125815       1.95144308      -2.00665517       0.09842023      -0.01074854       0.22794227      -5.09478768       0.23139692      -0.01090440       0.10203074      -2.00702632
