2
Lattice="2.9981327522309607 -5.868563452009926e-16 -3.446738333739946e-16 1.4990663761154808 2.596459127350168 -2.318732390290649e-16 1.4990663761154803 0.8654863757833888 2.447965141364013" Properties=species:S:1:pos:R:3:forces:R:3 energy=-7474.002977494367 free_energy=-7474.002977494367 stress="0.0 0.0 0.0 0.0 0.0 0.0 0.0 0.0 0.0" pbc="T T T"
Mg       0.00000000       0.00000000       0.00000000       0.00000000       0.00000000      -0.00000000
O        2.99813275       1.73097275       1.22398257      -0.00000000      -0.00000000       0.00000000
