5
Lattice="3.98772401 0.00252199 0.00251895 0.00732644 3.98771808 0.00251895 0.00732644 0.00731762 3.98771216" Properties=species:S:1:pos:R:3 energy=-254466.805103651 free_energy=-254466.805103651 polarization="0.32226443 0.339791346 0.321476196" pbc="T T T"
Ba       0.00154942       0.00154755       0.00154569
Ti       2.04807538       2.04560932       2.04314920
O        1.95851857       1.95616035       3.91890703
O        3.92361495       1.95379278       1.95144308
O        1.95851857       3.92125815       1.95144308
