5
Lattice="3.987724012993 0.002521986618 0.002518953581 0.007326437585 3.987718080248 0.002518953581 0.007326437585 0.007317615925 3.987712161774" Properties=species:S:1:pos:R:3:displacements:R:3 pbc="T T T"
Ba       0.00154942       0.00154755       0.00154569       0.00000000       0.00000000       0.00000000
Ti       2.04807538       2.04560932       2.04314920       0.00000000       0.00000000       0.00000000
O        1.95851857       1.95616035       3.91890703       0.00000000       0.00000000       0.00000000
O        3.92361495       1.95379278       1.95144308       0.00000000       0.00000000       0.00000000
O        1.95851857       3.92125815       1.95144308       0.00000000       0.00000000       0.00000000
5
Lattice="3.987724012993 0.002521986618 0.002518953581 0.007326437585 3.987718080248 0.002518953581 0.007326437585 0.007317615925 3.987712161774" Properties=species:S:1:pos:R:3:displacements:R:3 pbc="T T T"
Ba       0.00254942       0.00154755       0.00154569       0.00100000       0.00000000       0.00000000
Ti       2.04807538       2.04560932       2.04314920       0.00000000       0.00000000       0.00000000
O        1.95851857       1.95616035       3.91890703       0.00000000       0.00000000       0.00000000
O        3.92361495       1.95379278       1.95144308       0.00000000       0.00000000       0.00000000
O        1.95851857       3.92125815       1.95144308       0.00000000       0.00000000       0.00000000
5
Lattice="3.987724012993 0.002521986618 0.002518953581 0.007326437585 3.987718080248 0.002518953581 0.007326437585 0.007317615925 3.987712161774" Properties=species:S:1:pos:R:3:displacements:R:3 pbc="T T T"
Ba       0.00154942       0.00154755       0.00154569       0.00000000       0.00000000       0.00000000
Ti       2.04907538       2.04560932       2.04314920       0.00100000       0.00000000       0.00000000
O        1.95851857       1.95616035       3.91890703       0.00000000       0.00000000       0.00000000
O        3.92361495       1.95379278       1.95144308       0.00000000       0.00000000       0.00000000
O        1.95851857       3.92125815       1.95144308       0.00000000       0.00000000       0.00000000
5
Lattice="3.987724012993 0.002521986618 0.002518953581 0.007326437585 3.987718080248 0.002518953581 0.007326437585 0.007317615925 3.987712161774" Properties=species:S:1:pos:R:3:displacements:R:3 pbc="T T T"
Ba       0.00154942       0.00154755       0.00154569       0.00000000       0.00000000       0.00000000
Ti       2.04807538       2.04560932       2.04314920       0.00000000       0.00000000       0.00000000
O        1.95951857       1.95616035       3.91890703       0.00100000       0.00000000       0.00000000
O        3.92361495       1.95379278       1.95144308       0.00000000       0.00000000       0.00000000
O        1.95851857       3.92125815       1.95144308       0.00000000       0.00000000       0.00000000
5
Lattice="3.987724012993 0.002521986618 0.002518953581 0.007326437585 3.987718080248 0.002518953581 0.007326437585 0.007317615925 3.987712161774" Properties=species:S:1:pos:R:3:displacements:R:3 pbc="T T T"
Ba       0.00154942       0.00154755       0.00154569       0.00000000       0.00000000       0.00000000
Ti       2.04807538       2.04560932       2.04314920       0.00000000       0.00000000       0.00000000
O        1.95851857       1.95616035       3.91990703       0.00000000       0.00000000       0.00100000
O        3.92361495       1.95379278       1.95144308       0.00000000       0.00000000       0.00000000
O        1.95851857       3.92125815       1.95144308       0.00000000       0.00000000       0.00000000
5
Lattice="3.987724012993 0.002521986618 0.002518953581 0.007326437585 3.987718080248 0.002518953581 0.007326437585 0.007317615925 3.987712161774" Properties=species:S:1:pos:R:3:displacements:R:3 pbc="T T T"
Ba       0.00054942       0.00154755       0.00154569      -0.00100000      -0.00000000      -0.00000000
Ti       2.04807538       2.04560932       2.04314920      -0.00000000      -0.00000000      -0.00000000
O        1.95851857       1.95616035       3.91890703      -0.00000000      -0.00000000      -0.00000000
O        3.92361495       1.95379278       1.95144308      -0.00000000      -0.00000000      -0.00000000
O        1.95851857       3.92125815       1.95144308      -0.00000000      -0.00000000      -0.00000000
5
Lattice="3.987724012993 0.002521986618 0.002518953581 0.007326437585 3.987718080248 0.002518953581 0.007326437585 0.007317615925 3.987712161774" Properties=species:S:1:pos:R:3:displacements:R:3 pbc="T T T"
Ba       0.00154942       0.00154755       0.00154569      -0.00000000      -0.00000000      -0.00000000
Ti       2.04707538       2.04560932       2.04314920      -0.00100000      -0.00000000      -0.00000000
O        1.95851857       1.95616035       3.91890703      -0.00000000      -0.00000000      -0.00000000
O        3.92361495       1.95379278       1.95144308      -0.00000000      -0.00000000      -0.00000000
O        1.95851857       3.92125815       1.95144308      -0.00000000      -0.00000000      -0.00000000
5
Lattice="3.987724012993 0.002521986618 0.002518953581 0.007326437585 3.987718080248 0.002518953581 0.007326437585 0.007317615925 3.987712161774" Properties=species:S:1:pos:R:3:displacements:R:3 pbc="T T T"
Ba       0.00154942       0.00154755       0.00154569      -0.00000000      -0.00000000      -0.00000000
Ti       2.04807538       2.04560932       2.04314920      -0.00000000      -0.00000000      -0.00000000
O        1.95751857       1.95616035       3.91890703      -0.00100000      -0.00000000      -0.00000000
O        3.92361495       1.95379278       1.95144308      -0.00000000      -0.00000000      -0.00000000
O        1.95851857       3.92125815       1.95144308      -0.00000000      -0.00000000      -0.00000000
5
Lattice="3.987724012993 0.002521986618 0.002518953581 0.007326437585 3.987718080248 0.002518953581 0.007326437585 0.007317615925 3.987712161774" Properties=species:S:1:pos:R:3:displacements:R:3 pbc="T T T"
Ba       0.00154942       0.00154755       0.00154569      -0.00000000      -0.00000000      -0.00000000
Ti       2.04807538       2.04560932       2.04314920      -0.00000000      -0.00000000      -0.00000000
O        1.95851857       1.95616035       3.91790703      -0.00000000      -0.00000000      -0.00100000
O        3.92361495       1.95379278       1.95144308      -0.00000000      -0.00000000      -0.00000000
O        1.95851857       3.92125815       1.95144308      -0.00000000      -0.00000000      -0.00000000
