5
Lattice="3.98772401 0.00252199 0.00251895 0.00732644 3.98771808 0.00251895 0.00732644 0.00731762 3.98771216" Properties=species:S:1:pos:R:3:REF_BEC:R:9 pbc="T T T"
Ba       0.00154942       0.00154755       0.00154569       2.81307792      -0.01541858      -0.01540003      -0.01541858       2.81311507      -0.01538149      -0.01540003      -0.01538149       2.81315209
Ti       2.04807538       2.04560932       2.04314920       6.29140637      -0.30349550      -0.30313051      -0.30349550       6.29213768      -0.30276551      -0.30313050      -0.30276551       6.29286636
O        1.95851857       1.95616035       3.91890703      -2.00603194      -0.01062423       0.09845083      -0.01062423      -2.00600634       0.09833228       0.22739477       0.22712097      -5.09321356
O        3.92361495       1.95379278       1.95144308      -5.09242042       0.23110034       0.23082241       0.10215649      -2.00642897      -0.01102080       0.10203363      -0.01102080      -2.00640245
O        1.95851857       3.92125815       1.95144308      -2.00603194       0.09843797      -0.01074270       0.22738183      -5.09281745       0.23083552      -0.01089786       0.10204684      -2.00640245
