5
Lattice="3.98772401 0.00252199 0.00251895 0.00732644 3.98771808 0.00251895 0.00732644 0.00731762 3.98771216" Properties=species:S:1:pos:R:3:displacements:R:3 energy=-254466.805093542 free_energy=-254466.805093542 polarization="0.226593221 0.226320285 0.226048005" REF_dipole="0.8968275105120272 0.8957472641024974 0.894669614058579" pbc="T T T"
Ba       0.00154942       0.00154755       0.00154569       0.00000000       0.00000000       0.00000000
Ti       2.04807538       2.04560932       2.04314920       0.00000000       0.00000000       0.00000000
O        1.95851857       1.95616035       3.91890703       0.00000000       0.00000000       0.00000000
O        3.92361495       1.95379278       1.95144308       0.00000000       0.00000000       0.00000000
O        1.95851857       3.92125815       1.95144308       0.00000000       0.00000000       0.00000000
5
Lattice="3.98772401 0.00252199 0.00251895 0.00732644 3.98771808 0.00251895 0.00732644 0.00731762 3.98771216" Properties=species:S:1:pos:R:3:displacements:R:3 energy=-254466.805101383 free_energy=-254466.805101383 polarization="0.227303986 0.226316364 0.226044091" REF_dipole="0.899640629115911 0.8957317452769418 0.8946541229381445" pbc="T T T"
Ba       0.00254942       0.00154755       0.00154569       0.00100000       0.00000000       0.00000000
Ti       2.04807538       2.04560932       2.04314920       0.00000000       0.00000000       0.00000000
O        1.95851857       1.95616035       3.91890703       0.00000000       0.00000000       0.00000000
O        3.92361495       1.95379278       1.95144308       0.00000000       0.00000000       0.00000000
O        1.95851857       3.92125815       1.95144308       0.00000000       0.00000000       0.00000000
5
Lattice="3.98772401 0.00252199 0.00251895 0.00732644 3.98771808 0.00251895 0.00732644 0.00731762 3.98771216" Properties=species:S:1:pos:R:3:displacements:R:3 energy=-254466.8050919 free_energy=-254466.8050919 polarization="0.228181599 0.226243342 0.225971155" REF_dipole="0.903114111149087 0.8954427333718918 0.8943654514102938" pbc="T T T"
Ba       0.00154942       0.00154755       0.00154569       0.00000000       0.00000000       0.00000000
Ti       2.04907538       2.04560932       2.04314920       0.00100000       0.00000000       0.00000000
O        1.95851857       1.95616035       3.91890703       0.00000000       0.00000000       0.00000000
O        3.92361495       1.95379278       1.95144308       0.00000000       0.00000000       0.00000000
O        1.95851857       3.92125815       1.95144308       0.00000000       0.00000000       0.00000000
5
Lattice="3.98772401 0.00252199 0.00251895 0.00732644 3.98771808 0.00251895 0.00732644 0.00731762 3.98771216" Properties=species:S:1:pos:R:3:displacements:R:3 energy=-254466.805089671 free_energy=-254466.805089671 polarization="0.226086353 0.226317616 0.226072767" REF_dipole="0.8948213906263919 0.8957367005357011 0.8947676189446797" pbc="T T T"
Ba       0.00154942       0.00154755       0.00154569       0.00000000       0.00000000       0.00000000
Ti       2.04807538       2.04560932       2.04314920       0.00000000       0.00000000       0.00000000
O        1.95951857       1.95616035       3.91890703       0.00100000       0.00000000       0.00000000
O        3.92361495       1.95379278       1.95144308       0.00000000       0.00000000       0.00000000
O        1.95851857       3.92125815       1.95144308       0.00000000       0.00000000       0.00000000
5
Lattice="3.98772401 0.00252199 0.00251895 0.00732644 3.98771808 0.00251895 0.00732644 0.00731762 3.98771216" Properties=species:S:1:pos:R:3:displacements:R:3 energy=-254466.805078588 free_energy=-254466.805078588 polarization="0.2266505 0.226377495 0.22476056" REF_dipole="0.8970542136002656 0.8959736940974017 0.889574068440861" pbc="T T T"
Ba       0.00154942       0.00154755       0.00154569       0.00000000       0.00000000       0.00000000
Ti       2.04807538       2.04560932       2.04314920       0.00000000       0.00000000       0.00000000
O        1.95851857       1.95616035       3.91990703       0.00000000       0.00000000       0.00100000
O        3.92361495       1.95379278       1.95144308       0.00000000       0.00000000       0.00000000
O        1.95851857       3.92125815       1.95144308       0.00000000       0.00000000       0.00000000
5
Lattice="3.98772401 0.00252199 0.00251895 0.00732644 3.98771808 0.00251895 0.00732644 0.00731762 3.98771216" Properties=species:S:1:pos:R:3:displacements:R:3 energy=-254466.805079872 free_energy=-254466.805079872 polarization="0.22588249 0.226324157 0.226051872" REF_dipole="0.894014526475873 0.8957625889922065 0.8946849191589162" pbc="T T T"
Ba       0.00054942       0.00154755       0.00154569      -0.00100000       0.00000000       0.00000000
Ti       2.04807538       2.04560932       2.04314920       0.00000000       0.00000000       0.00000000
O        1.95851857       1.95616035       3.91890703       0.00000000       0.00000000       0.00000000
O        3.92361495       1.95379278       1.95144308       0.00000000       0.00000000       0.00000000
O        1.95851857       3.92125815       1.95144308       0.00000000       0.00000000       0.00000000
5
Lattice="3.98772401 0.00252199 0.00251895 0.00732644 3.98771808 0.00251895 0.00732644 0.00731762 3.98771216" Properties=species:S:1:pos:R:3:displacements:R:3 energy=-254466.805088568 free_energy=-254466.805088568 polarization="0.225002428 0.226396705 0.226124334" REF_dipole="0.8905313516082709 0.8960497248647868 0.8949717146542976" pbc="T T T"
Ba       0.00154942       0.00154755       0.00154569       0.00000000       0.00000000       0.00000000
Ti       2.04707538       2.04560932       2.04314920      -0.00100000       0.00000000       0.00000000
O        1.95851857       1.95616035       3.91890703       0.00000000       0.00000000       0.00000000
O        3.92361495       1.95379278       1.95144308       0.00000000       0.00000000       0.00000000
O        1.95851857       3.92125815       1.95144308       0.00000000       0.00000000       0.00000000
5
Lattice="3.98772401 0.00252199 0.00251895 0.00732644 3.98771808 0.00251895 0.00732644 0.00731762 3.98771216" Properties=species:S:1:pos:R:3:displacements:R:3 energy=-254466.80509209 free_energy=-254466.80509209 polarization="0.227100058 0.226322985 0.226023018" REF_dipole="0.8988335077035554 0.8957579503634 0.8945707186507363" pbc="T T T"
Ba       0.00154942       0.00154755       0.00154569       0.00000000       0.00000000       0.00000000
Ti       2.04807538       2.04560932       2.04314920       0.00000000       0.00000000       0.00000000
O        1.95751857       1.95616035       3.91890703      -0.00100000       0.00000000       0.00000000
O        3.92361495       1.95379278       1.95144308       0.00000000       0.00000000       0.00000000
O        1.95851857       3.92125815       1.95144308       0.00000000       0.00000000       0.00000000
5
Lattice="3.98772401 0.00252199 0.00251895 0.00732644 3.98771808 0.00251895 0.00732644 0.00731762 3.98771216" Properties=species:S:1:pos:R:3:displacements:R:3 energy=-254466.805098671 free_energy=-254466.805098671 polarization="0.226535592 0.226262727 0.227334285" REF_dipole="0.8965994221677458 0.8955194567672987 0.8997605487526112" pbc="T T T"
Ba       0.00154942       0.00154755       0.00154569       0.00000000       0.00000000       0.00000000
Ti       2.04807538       2.04560932       2.04314920       0.00000000       0.00000000       0.00000000
O        1.95851857       1.95616035       3.91790703       0.00000000       0.00000000      -0.00100000
O        3.92361495       1.95379278       1.95144308       0.00000000       0.00000000       0.00000000
O        1.95851857       3.92125815       1.95144308       0.00000000       0.00000000       0.00000000
