5
Lattice="3.93474242 0.0 0.0 0.0 3.93474242 0.0 0.0 0.0 3.93474242" Properties=species:S:1:pos:R:3:forces:R:3:displacements:R:3 energy=-254338.317721153 free_energy=-254338.317721153 stress="-9e-08 0.0 0.0 0.0 2e-08 0.0 0.0 0.0 -7e-08" polarization="-4.0276937e-10 -4.02722667e-10 -4.02758513e-10" REF_dipole="-1.5314243019127069e-09 -1.5312467260727857e-09 -1.5313830210336622e-09" pbc="T T T"
Ba       1.96655951       1.96696536       1.96696536      -0.00000131       0.00000098       0.00000159       0.00000000       0.00000000       0.00000000
Ti      -0.00081170      -0.00040585      -0.00040585       0.00000030      -0.00000028      -0.00000044       0.00000000       0.00000000       0.00000000
O       -0.00081170      -0.00040585       1.96696536       0.00000034      -0.00000023      -0.00000039       0.00000000       0.00000000       0.00000000
O        1.96655951      -0.00040585      -0.00040585       0.00000033      -0.00000023      -0.00000038       0.00000000       0.00000000       0.00000000
O       -0.00081170       1.96696536      -0.00040585       0.00000034      -0.00000024      -0.00000038       0.00000000       0.00000000       0.00000000
5
Lattice="3.93474242 0.0 0.0 0.0 3.93474242 0.0 0.0 0.0 3.93474242" Properties=species:S:1:pos:R:3:forces:R:3:displacements:R:3 energy=-254338.317717908 free_energy=-254338.317717908 stress="-2.5e-07 0.0 -0.0 0.0 -2.3e-07 0.0 -0.0 0.0 -3.1e-07" polarization="0.000734277192 -4.02708707e-10 -4.02721345e-10" REF_dipole="0.0027918953622740046 -1.531193646854635e-09 -1.5312416995164539e-09" pbc="T T T"
Ba       1.96755951       1.96696536       1.96696536      -0.00683794       0.00000105       0.00000056       0.00100000       0.00000000       0.00000000
Ti      -0.00081170      -0.00040585      -0.00040585       0.00379170      -0.00000028      -0.00000016       0.00000000       0.00000000       0.00000000
O       -0.00081170      -0.00040585       1.96696536       0.00082386      -0.00000025      -0.00000014       0.00000000       0.00000000       0.00000000
O        1.96655951      -0.00040585      -0.00040585       0.00139852      -0.00000025      -0.00000013       0.00000000       0.00000000       0.00000000
O       -0.00081170       1.96696536      -0.00040585       0.00082386      -0.00000026      -0.00000013       0.00000000       0.00000000       0.00000000
5
Lattice="3.93474242 0.0 0.0 0.0 3.93474242 0.0 0.0 0.0 3.93474242" Properties=species:S:1:pos:R:3:forces:R:3:displacements:R:3 energy=-254338.317720846 free_energy=-254338.317720846 stress="-1.07e-06 0.0 0.0 0.0 -7e-08 0.0 0.0 0.0 -1.5e-07" polarization="0.001939632 -4.02706007e-10 -4.02731858e-10" REF_dipole="0.007374939116069197 -1.5311833808167406e-09 -1.5312816724262261e-09" pbc="T T T"
Ba       1.96655951       1.96696536       1.96696536       0.00377036       0.00000079       0.00000112       0.00000000       0.00000000       0.00000000
Ti       0.00018830      -0.00040585      -0.00040585      -0.00073914      -0.00000016      -0.00000028       0.00100000       0.00000000       0.00000000
O       -0.00081170      -0.00040585       1.96696536       0.00038101      -0.00000021      -0.00000029       0.00000000       0.00000000       0.00000000
O        1.96655951      -0.00040585      -0.00040585      -0.00379324      -0.00000021      -0.00000028       0.00000000       0.00000000       0.00000000
O       -0.00081170       1.96696536      -0.00040585       0.00038101      -0.00000022      -0.00000028       0.00000000       0.00000000       0.00000000
5
Lattice="3.93474242 0.0 0.0 0.0 3.93474242 0.0 0.0 0.0 3.93474242" Properties=species:S:1:pos:R:3:forces:R:3:displacements:R:3 energy=-254338.317718585 free_energy=-254338.317718585 stress="-1.5e-07 0.0 0.0 0.0 -7e-08 0.0 0.0 0.0 1e-08" polarization="-0.000573397221 -4.02710833e-10 -4.02739498e-10" REF_dipole="-0.0021801917034768832 -1.5312017304089179e-09 -1.5313107215112311e-09" pbc="T T T"
Ba       1.96655951       1.96696536       1.96696536       0.00082251       0.00000027       0.00000060       0.00000000       0.00000000       0.00000000
Ti      -0.00081170      -0.00040585      -0.00040585       0.00038617      -0.00000011      -0.00000021       0.00000000       0.00000000       0.00000000
O        0.00018830      -0.00040585       1.96696536      -0.00534048      -0.00000005      -0.00000014       0.00100000       0.00000000       0.00000000
O        1.96655951      -0.00040585      -0.00040585       0.00475119      -0.00000005      -0.00000013       0.00000000       0.00000000       0.00000000
O       -0.00081170       1.96696536      -0.00040585      -0.00061939      -0.00000006      -0.00000013       0.00000000       0.00000000       0.00000000
5
Lattice="3.93474242 0.0 0.0 0.0 3.93474242 0.0 0.0 0.0 3.93474242" Properties=species:S:1:pos:R:3:forces:R:3:displacements:R:3 energy=-254338.31771771 free_energy=-254338.31771771 stress="-3.5e-07 0.0 0.0 0.0 -2.5e-07 0.0 0.0 0.0 -1.18e-06" polarization="-4.02738177e-10 -4.02706295e-10 -0.001527123" REF_dipole="-1.5313056987571353e-09 -1.5311844758607826e-09 -0.005806482439838558" pbc="T T T"
Ba       1.96655951       1.96696536       1.96696536      -0.00000082       0.00000055       0.00141296       0.00000000       0.00000000       0.00000000
Ti      -0.00081170      -0.00040585      -0.00040585       0.00000022      -0.00000015      -0.00382265       0.00000000       0.00000000       0.00000000
O       -0.00081170      -0.00040585       1.96796536       0.00000020      -0.00000013      -0.00710526       0.00000000       0.00000000       0.00100000
O        1.96655951      -0.00040585      -0.00040585       0.00000019      -0.00000013       0.00475745       0.00000000       0.00000000       0.00000000
O       -0.00081170       1.96696536      -0.00040585       0.00000020      -0.00000014       0.00475749       0.00000000       0.00000000       0.00000000
5
Lattice="3.93474242 0.0 0.0 0.0 3.93474242 0.0 0.0 0.0 3.93474242" Properties=species:S:1:pos:R:3:forces:R:3:displacements:R:3 energy=-254338.317717903 free_energy=-254338.317717903 stress="-2.5e-07 -0.0 -0.0 -0.0 -2.3e-07 0.0 -0.0 0.0 -3.1e-07" polarization="-0.000734277999 -4.02702158e-10 -4.02733237e-10" REF_dipole="-0.0027918984306786643 -1.5311687460093865e-09 -1.5312869157100245e-09" pbc="T T T"
Ba       1.96555951       1.96696536       1.96696536       0.00683531       0.00000110       0.00000102      -0.00100000       0.00000000       0.00000000
Ti      -0.00081170      -0.00040585      -0.00040585      -0.00379112      -0.00000032      -0.00000028       0.00000000       0.00000000       0.00000000
O       -0.00081170      -0.00040585       1.96696536      -0.00082318      -0.00000026      -0.00000025       0.00000000       0.00000000       0.00000000
O        1.96655951      -0.00040585      -0.00040585      -0.00139784      -0.00000026      -0.00000024       0.00000000       0.00000000       0.00000000
O       -0.00081170       1.96696536      -0.00040585      -0.00082318      -0.00000027      -0.00000024       0.00000000       0.00000000       0.00000000
5
Lattice="3.93474242 0.0 0.0 0.0 3.93474242 0.0 0.0 0.0 3.93474242" Properties=species:S:1:pos:R:3:forces:R:3:displacements:R:3 energy=-254338.317720846 free_energy=-254338.317720846 stress="-1.07e-06 0.0 0.0 0.0 -7e-08 -0.0 0.0 -0.0 -1.5e-07" polarization="-0.001939633 -4.02698425e-10 -4.02727492e-10" REF_dipole="-0.007374942918305455 -1.5311545522614382e-09 -1.531265071862727e-09" pbc="T T T"
Ba       1.96655951       1.96696536       1.96696536      -0.00377273       0.00000036       0.00000071       0.00000000       0.00000000       0.00000000
Ti      -0.00181170      -0.00040585      -0.00040585       0.00073969      -0.00000009      -0.00000019      -0.00100000       0.00000000       0.00000000
O       -0.00081170      -0.00040585       1.96696536      -0.00038040      -0.00000009      -0.00000018       0.00000000       0.00000000       0.00000000
O        1.96655951      -0.00040585      -0.00040585       0.00379384      -0.00000009      -0.00000017       0.00000000       0.00000000       0.00000000
O       -0.00081170       1.96696536      -0.00040585      -0.00038040      -0.00000010      -0.00000017       0.00000000       0.00000000       0.00000000
5
Lattice="3.93474242 0.0 0.0 0.0 3.93474242 0.0 0.0 0.0 3.93474242" Properties=species:S:1:pos:R:3:forces:R:3:displacements:R:3 energy=-254338.317718584 free_energy=-254338.317718584 stress="-1.5e-07 -0.0 0.0 -0.0 -7e-08 0.0 0.0 0.0 1e-08" polarization="0.000573396413 -4.02701871e-10 -4.02739211e-10" REF_dipole="0.0021801886312699877 -1.5311676547675809e-09 -1.5313096302694253e-09" pbc="T T T"
Ba       1.96655951       1.96696536       1.96696536      -0.00082591       0.00000082       0.00000092       0.00000000       0.00000000       0.00000000
Ti      -0.00081170      -0.00040585      -0.00040585      -0.00038538      -0.00000024      -0.00000028       0.00000000       0.00000000       0.00000000
O       -0.00181170      -0.00040585       1.96696536       0.00534135      -0.00000019      -0.00000022      -0.00100000       0.00000000       0.00000000
O        1.96655951      -0.00040585      -0.00040585      -0.00475033      -0.00000019      -0.00000021       0.00000000       0.00000000       0.00000000
O       -0.00081170       1.96696536      -0.00040585       0.00062026      -0.00000020      -0.00000021       0.00000000       0.00000000       0.00000000
5
Lattice="3.93474242 0.0 0.0 0.0 3.93474242 0.0 0.0 0.0 3.93474242" Properties=species:S:1:pos:R:3:forces:R:3:displacements:R:3 energy=-254338.317717709 free_energy=-254338.317717709 stress="-3.5e-07 0.0 0.0 0.0 -2.5e-07 0.0 0.0 0.0 -1.18e-06" polarization="-4.02731973e-10 -4.02708535e-10 0.001527122" REF_dipole="-1.5312821096833956e-09 -1.5311929928699987e-09 0.0058064786376023" pbc="T T T"
Ba       1.96655951       1.96696536       1.96696536      -0.00000140      -0.00000022      -0.00141147       0.00000000       0.00000000       0.00000000
Ti      -0.00081170      -0.00040585      -0.00040585       0.00000033       0.00000002       0.00382225       0.00000000       0.00000000       0.00000000
O       -0.00081170      -0.00040585       1.96596536       0.00000036       0.00000007       0.00710488       0.00000000       0.00000000      -0.00100000
O        1.96655951      -0.00040585      -0.00040585       0.00000035       0.00000007      -0.00475782       0.00000000       0.00000000       0.00000000
O       -0.00081170       1.96696536      -0.00040585       0.00000036       0.00000006      -0.00475785       0.00000000       0.00000000       0.00000000
