5
Lattice="3.9347424189815645 5.221288681225892e-33 -9.848702997263269e-33 5.238684763108529e-34 3.9347424189815645 5.4019124159911336e-20 -8.169160927175849e-35 5.4019124159908206e-20 3.9347424189815645" Properties=species:S:1:pos:R:3:forces:R:3:displacements:R:3 energy=-254338.33196968335 free_energy=-254338.33196968335 stress="2.257080131603264e-07 -4.962403953882277e-11 3.707104455594867e-11 -4.962403953882277e-11 -3.666430468640967e-08 2.4459839492252274e-11 3.707104455594867e-11 2.4459839492252274e-11 -1.4710273538067374e-07" pbc="T T T"
Ba       1.96655951       1.96696536       1.96696536      -0.00000168      -0.00000287      -0.00000250       0.00000000       0.00000000       0.00000000
Ti      -0.00081170      -0.00040585      -0.00040585       0.00000038       0.00000075       0.00000061       0.00000000       0.00000000       0.00000000
O       -0.00081170      -0.00040585       1.96696536       0.00000043       0.00000071       0.00000063       0.00000000       0.00000000       0.00000000
O        1.96655951      -0.00040585      -0.00040585       0.00000043       0.00000070       0.00000063       0.00000000       0.00000000       0.00000000
O       -0.00081170       1.96696536      -0.00040585       0.00000043       0.00000070       0.00000063       0.00000000       0.00000000       0.00000000
5
Lattice="3.9347424189815645 5.221288681225892e-33 -9.848702997263269e-33 5.238684763108529e-34 3.9347424189815645 5.4019124159911336e-20 -8.169160927175849e-35 5.4019124159908206e-20 3.9347424189815645" Properties=species:S:1:pos:R:3:forces:R:3:displacements:R:3 energy=-254338.33196968335 free_energy=-254338.33196968335 stress="2.257080131603264e-07 -4.962403953882277e-11 3.707104455594867e-11 -4.962403953882277e-11 -3.666430468640967e-08 2.4459839492252274e-11 3.707104455594867e-11 2.4459839492252274e-11 -1.4710273538067374e-07" pbc="T T T"
Ba       1.96755951       1.96696536       1.96696536      -0.00000168      -0.00000287      -0.00000250       0.00100000       0.00000000       0.00000000
Ti      -0.00081170      -0.00040585      -0.00040585       0.00000038       0.00000075       0.00000061       0.00000000       0.00000000       0.00000000
O       -0.00081170      -0.00040585       1.96696536       0.00000043       0.00000071       0.00000063       0.00000000       0.00000000       0.00000000
O        1.96655951      -0.00040585      -0.00040585       0.00000043       0.00000070       0.00000063       0.00000000       0.00000000       0.00000000
O       -0.00081170       1.96696536      -0.00040585       0.00000043       0.00000070       0.00000063       0.00000000       0.00000000       0.00000000
5
Lattice="3.9347424189815645 5.221288681225892e-33 -9.848702997263269e-33 5.238684763108529e-34 3.9347424189815645 5.4019124159911336e-20 -8.169160927175849e-35 5.4019124159908206e-20 3.9347424189815645" Properties=species:S:1:pos:R:3:forces:R:3:displacements:R:3 energy=-254338.33196968335 free_energy=-254338.33196968335 stress="2.257080131603264e-07 -4.962403953882277e-11 3.707104455594867e-11 -4.962403953882277e-11 -3.666430468640967e-08 2.4459839492252274e-11 3.707104455594867e-11 2.4459839492252274e-11 -1.4710273538067374e-07" pbc="T T T"
Ba       1.96655951       1.96696536       1.96696536      -0.00000168      -0.00000287      -0.00000250       0.00000000       0.00000000       0.00000000
Ti       0.00018830      -0.00040585      -0.00040585       0.00000038       0.00000075       0.00000061       0.00100000       0.00000000       0.00000000
O       -0.00081170      -0.00040585       1.96696536       0.00000043       0.00000071       0.00000063       0.00000000       0.00000000       0.00000000
O        1.96655951      -0.00040585      -0.00040585       0.00000043       0.00000070       0.00000063       0.00000000       0.00000000       0.00000000
O       -0.00081170       1.96696536      -0.00040585       0.00000043       0.00000070       0.00000063       0.00000000       0.00000000       0.00000000
5
Lattice="3.9347424189815645 5.221288681225892e-33 -9.848702997263269e-33 5.238684763108529e-34 3.9347424189815645 5.4019124159911336e-20 -8.169160927175849e-35 5.4019124159908206e-20 3.9347424189815645" Properties=species:S:1:pos:R:3:forces:R:3:displacements:R:3 energy=-254338.33196968335 free_energy=-254338.33196968335 stress="2.257080131603264e-07 -4.962403953882277e-11 3.707104455594867e-11 -4.962403953882277e-11 -3.666430468640967e-08 2.4459839492252274e-11 3.707104455594867e-11 2.4459839492252274e-11 -1.4710273538067374e-07" pbc="T T T"
Ba       1.96655951       1.96696536       1.96696536      -0.00000168      -0.00000287      -0.00000250       0.00000000       0.00000000       0.00000000
Ti      -0.00081170      -0.00040585      -0.00040585       0.00000038       0.00000075       0.00000061       0.00000000       0.00000000       0.00000000
O        0.00018830      -0.00040585       1.96696536       0.00000043       0.00000071       0.00000063       0.00100000       0.00000000       0.00000000
O        1.96655951      -0.00040585      -0.00040585       0.00000043       0.00000070       0.00000063       0.00000000       0.00000000       0.00000000
O       -0.00081170       1.96696536      -0.00040585       0.00000043       0.00000070       0.00000063       0.00000000       0.00000000       0.00000000
5
Lattice="3.9347424189815645 5.221288681225892e-33 -9.848702997263269e-33 5.238684763108529e-34 3.9347424189815645 5.4019124159911336e-20 -8.169160927175849e-35 5.4019124159908206e-20 3.9347424189815645" Properties=species:S:1:pos:R:3:forces:R:3:displacements:R:3 energy=-254338.33196968335 free_energy=-254338.33196968335 stress="2.257080131603264e-07 -4.962403953882277e-11 3.707104455594867e-11 -4.962403953882277e-11 -3.666430468640967e-08 2.4459839492252274e-11 3.707104455594867e-11 2.4459839492252274e-11 -1.4710273538067374e-07" pbc="T T T"
Ba       1.96655951       1.96696536       1.96696536      -0.00000168      -0.00000287      -0.00000250       0.00000000       0.00000000       0.00000000
Ti      -0.00081170      -0.00040585      -0.00040585       0.00000038       0.00000075       0.00000061       0.00000000       0.00000000       0.00000000
O       -0.00081170      -0.00040585       1.96796536       0.00000043       0.00000071       0.00000063       0.00000000       0.00000000       0.00100000
O        1.96655951      -0.00040585      -0.00040585       0.00000043       0.00000070       0.00000063       0.00000000       0.00000000       0.00000000
O       -0.00081170       1.96696536      -0.00040585       0.00000043       0.00000070       0.00000063       0.00000000       0.00000000       0.00000000
5
Lattice="3.9347424189815645 5.221288681225892e-33 -9.848702997263269e-33 5.238684763108529e-34 3.9347424189815645 5.4019124159911336e-20 -8.169160927175849e-35 5.4019124159908206e-20 3.9347424189815645" Properties=species:S:1:pos:R:3:forces:R:3:displacements:R:3 energy=-254338.33196968335 free_energy=-254338.33196968335 stress="2.257080131603264e-07 -4.962403953882277e-11 3.707104455594867e-11 -4.962403953882277e-11 -3.666430468640967e-08 2.4459839492252274e-11 3.707104455594867e-11 2.4459839492252274e-11 -1.4710273538067374e-07" pbc="T T T"
Ba       1.96555951       1.96696536       1.96696536      -0.00000168      -0.00000287      -0.00000250      -0.00100000      -0.00000000      -0.00000000
Ti      -0.00081170      -0.00040585      -0.00040585       0.00000038       0.00000075       0.00000061      -0.00000000      -0.00000000      -0.00000000
O       -0.00081170      -0.00040585       1.96696536       0.00000043       0.00000071       0.00000063      -0.00000000      -0.00000000      -0.00000000
O        1.96655951      -0.00040585      -0.00040585       0.00000043       0.00000070       0.00000063      -0.00000000      -0.00000000      -0.00000000
O       -0.00081170       1.96696536      -0.00040585       0.00000043       0.00000070       0.00000063      -0.00000000      -0.00000000      -0.00000000
5
Lattice="3.9347424189815645 5.221288681225892e-33 -9.848702997263269e-33 5.238684763108529e-34 3.9347424189815645 5.4019124159911336e-20 -8.169160927175849e-35 5.4019124159908206e-20 3.9347424189815645" Properties=species:S:1:pos:R:3:forces:R:3:displacements:R:3 energy=-254338.33196968335 free_energy=-254338.33196968335 stress="2.257080131603264e-07 -4.962403953882277e-11 3.707104455594867e-11 -4.962403953882277e-11 -3.666430468640967e-08 2.4459839492252274e-11 3.707104455594867e-11 2.4459839492252274e-11 -1.4710273538067374e-07" pbc="T T T"
Ba       1.96655951       1.96696536       1.96696536      -0.00000168      -0.00000287      -0.00000250      -0.00000000      -0.00000000      -0.00000000
Ti      -0.00181170      -0.00040585      -0.00040585       0.00000038       0.00000075       0.00000061      -0.00100000      -0.00000000      -0.00000000
O       -0.00081170      -0.00040585       1.96696536       0.00000043       0.00000071       0.00000063      -0.00000000      -0.00000000      -0.00000000
O        1.96655951      -0.00040585      -0.00040585       0.00000043       0.00000070       0.00000063      -0.00000000      -0.00000000      -0.00000000
O       -0.00081170       1.96696536      -0.00040585       0.00000043       0.00000070       0.00000063      -0.00000000      -0.00000000      -0.00000000
5
Lattice="3.9347424189815645 5.221288681225892e-33 -9.848702997263269e-33 5.238684763108529e-34 3.9347424189815645 5.4019124159911336e-20 -8.169160927175849e-35 5.4019124159908206e-20 3.9347424189815645" Properties=species:S:1:pos:R:3:forces:R:3:displacements:R:3 energy=-254338.33196968335 free_energy=-254338.33196968335 stress="2.257080131603264e-07 -4.962403953882277e-11 3.707104455594867e-11 -4.962403953882277e-11 -3.666430468640967e-08 2.4459839492252274e-11 3.707104455594867e-11 2.4459839492252274e-11 -1.4710273538067374e-07" pbc="T T T"
Ba       1.96655951       1.96696536       1.96696536      -0.00000168      -0.00000287      -0.00000250      -0.00000000      -0.00000000      -0.00000000
Ti      -0.00081170      -0.00040585      -0.00040585       0.00000038       0.00000075       0.00000061      -0.00000000      -0.00000000      -0.00000000
O       -0.00181170      -0.00040585       1.96696536       0.00000043       0.00000071       0.00000063      -0.00100000      -0.00000000      -0.00000000
O        1.96655951      -0.00040585      -0.00040585       0.00000043       0.00000070       0.00000063      -0.00000000      -0.00000000      -0.00000000
O       -0.00081170       1.96696536      -0.00040585       0.00000043       0.00000070       0.00000063      -0.00000000      -0.00000000      -0.00000000
5
Lattice="3.9347424189815645 5.221288681225892e-33 -9.848702997263269e-33 5.238684763108529e-34 3.9347424189815645 5.4019124159911336e-20 -8.169160927175849e-35 5.4019124159908206e-20 3.9347424189815645" Properties=species:S:1:pos:R:3:forces:R:3:displacements:R:3 energy=-254338.33196968335 free_energy=-254338.33196968335 stress="2.257080131603264e-07 -4.962403953882277e-11 3.707104455594867e-11 -4.962403953882277e-11 -3.666430468640967e-08 2.4459839492252274e-11 3.707104455594867e-11 2.4459839492252274e-11 -1.4710273538067374e-07" pbc="T T T"
Ba       1.96655951       1.96696536       1.96696536      -0.00000168      -0.00000287      -0.00000250      -0.00000000      -0.00000000      -0.00000000
Ti      -0.00081170      -0.00040585      -0.00040585       0.00000038       0.00000075       0.00000061      -0.00000000      -0.00000000      -0.00000000
O       -0.00081170      -0.00040585       1.96596536       0.00000043       0.00000071       0.00000063      -0.00000000      -0.00000000      -0.00100000
O        1.96655951      -0.00040585      -0.00040585       0.00000043       0.00000070       0.00000063      -0.00000000      -0.00000000      -0.00000000
O       -0.00081170       1.96696536      -0.00040585       0.00000043       0.00000070       0.00000063      -0.00000000      -0.00000000      -0.00000000
