5
Lattice="3.98772401 0.00252199 0.00251895 0.00732644 3.98771808 0.00251895 0.00732644 0.00731762 3.98771216" Properties=species:S:1:pos:R:3:REF_BEC:R:9 pbc="T T T"
Ba       0.00154942       0.00154755       0.00154569       2.80895552      -0.01544308      -0.01542451      -0.01544308       2.80899273      -0.01540593      -0.01542451      -0.01540593       2.80902981
Ti       2.04807538       2.04560932       2.04314920       6.29895574      -0.30404474      -0.30367909      -0.30404474       6.29968837      -0.30331343      -0.30367908      -0.30331343       6.30041837
O        1.95851857       1.95616035       3.91890703      -2.00669516      -0.01063190       0.09843129      -0.01063190      -2.00666954       0.09831276       0.22799401       0.22771948      -5.09531547
O        3.92361495       1.95379278       1.95144308      -5.09452093       0.23170130       0.23142265       0.10213867      -2.00709290      -0.01102917       0.10201583      -0.01102917      -2.00706635
O        1.95851857       3.92125815       1.95144308      -2.00669516       0.09841842      -0.01075034       0.22798105      -5.09491866       0.23143577      -0.01090625       0.10202905      -2.00706635
