------------------------------------------------------------
          Invoking FHI-aims ...

          When using FHI-aims, please cite the following reference:

            Volker Blum, Ralf Gehrke, Felix Hanke, Paula Havu,
            Ville Havu, Xinguo Ren, Karsten Reuter, and Matthias Scheffler,
            'Ab Initio Molecular Simulations with Numeric Atom-Centered Orbitals',
            Computer Physics Communications 180, 2175-2196 (2009)

          In addition, many other developments in FHI-aims are likely important for
          your particular application. If so, please cite them. A partial list of references
          is written at the end of this file. Thank you for giving credit to the authors
          of these developments.

          For general information about FHI-aims please find us at

            https://fhi-aims.org

          Online tutorials can be found at

            https://fhi-aims-club.gitlab.io/tutorials/tutorials-overview/

          For any questions about FHI-aims, please visit our slack channel at

            https://fhi-aims.slack.com

          and our main development and support site at

            https://aims-git.rz-berlin.mpg.de .

          The latter site, in particular, has a wiki to collect information, as well
          as an issue tracker to log discussions, suggest improvements, and report issues
          or bugs. https://aims-git.rz-berlin.mpg.de is also the main development site
          of the project and all new and updated code versions can be obtained there.
          Please send an email to aims-coordinators@ms1p.org and we will add
          you to these sites. They are for you and everyone is welcome there.

------------------------------------------------------------



  Date     :  20260606, Time     :  213322.347
  Time zero on CPU 1             :   0.176204000000000E+00  s.
  Internal wall clock time zero  :           550013602.347  s.

  FHI-aims created a unique identifier for this run for later identification
  aims_uuid : 35994A75-A53A-4F03-A2AA-469A41DBA234

  Build configuration of the current instance of FHI-aims
  -------------------------------------------------------
  FHI-aims version      : 260527
  Commit number         : 59e070fb4
  CMake host system     : Linux-5.14.0-570.103.1.el9_6.x86_64
  CMake version         : 3.26.5
  OS Distribution       : Red Hat Enterprise Linux 9.6 (Plow)
  Built on              : AMD EPYC 9554 64-Core Processor
  Fortran compiler      : /mpcdf/soft/RHEL_9/packages/x86_64/intel_oneapi/2024.0/mpi/2021.11/bin/mpiifort (Intel) version 2021.1.0.20231117
  Fortran compiler flags: -O3 -ip -fp-model precise -diag-disable=10448
  C compiler            : /mpcdf/soft/RHEL_9/packages/x86_64/intel/2024.0.2/bin/icx (IntelLLVM) version 2024.0.2
  C compiler flags      : -O3 -std=gnu99
  C++ compiler          : /mpcdf/soft/RHEL_9/packages/x86_64/intel/2024.0.2/bin/icpx (IntelLLVM) version 2024.0.2
  C++ compiler flags    : -O3 -std=c++14
  HIP compiler          :
  HIP compiler flags    :
  HIP GPU arch          :
  Using MPI
  Using ScaLAPACK
  Using LibXC
  Using i-PI
  Using RLSY
  Using GREENX
  Linking against: /mpcdf/soft/RHEL_9/packages/x86_64/intel_oneapi/2024.0/mkl/latest/lib/libmkl_intel_lp64.so
                   /mpcdf/soft/RHEL_9/packages/x86_64/intel_oneapi/2024.0/mkl/latest/lib/libmkl_sequential.so
                   /mpcdf/soft/RHEL_9/packages/x86_64/intel_oneapi/2024.0/mkl/latest/lib/libmkl_core.so
                   /mpcdf/soft/RHEL_9/packages/x86_64/intel_oneapi/2024.0/mkl/latest/lib/libmkl_blacs_intelmpi_lp64.so
                   /mpcdf/soft/RHEL_9/packages/x86_64/intel_oneapi/2024.0/mkl/latest/lib/libmkl_scalapack_lp64.so

  Using      256 parallel tasks.
  Task        0 on host vipc2599 reporting.
  Task        1 on host vipc2599 reporting.
  Task        2 on host vipc2599 reporting.
  Task        3 on host vipc2599 reporting.
  Task        4 on host vipc2599 reporting.
  Task        5 on host vipc2599 reporting.
  Task        6 on host vipc2599 reporting.
  Task        7 on host vipc2599 reporting.
  Task        8 on host vipc2599 reporting.
  Task        9 on host vipc2599 reporting.
  Task       10 on host vipc2599 reporting.
  Task       11 on host vipc2599 reporting.
  Task       12 on host vipc2599 reporting.
  Task       13 on host vipc2599 reporting.
  Task       14 on host vipc2599 reporting.
  Task       15 on host vipc2599 reporting.
  Task       16 on host vipc2599 reporting.
  Task       17 on host vipc2599 reporting.
  Task       18 on host vipc2599 reporting.
  Task       19 on host vipc2599 reporting.
  Task       20 on host vipc2599 reporting.
  Task       21 on host vipc2599 reporting.
  Task       22 on host vipc2599 reporting.
  Task       23 on host vipc2599 reporting.
  Task       24 on host vipc2599 reporting.
  Task       25 on host vipc2599 reporting.
  Task       26 on host vipc2599 reporting.
  Task       27 on host vipc2599 reporting.
  Task       28 on host vipc2599 reporting.
  Task       29 on host vipc2599 reporting.
  Task       30 on host vipc2599 reporting.
  Task       31 on host vipc2599 reporting.
  Task       32 on host vipc2599 reporting.
  Task       33 on host vipc2599 reporting.
  Task       34 on host vipc2599 reporting.
  Task       35 on host vipc2599 reporting.
  Task       36 on host vipc2599 reporting.
  Task       37 on host vipc2599 reporting.
  Task       38 on host vipc2599 reporting.
  Task       39 on host vipc2599 reporting.
  Task       40 on host vipc2599 reporting.
  Task       41 on host vipc2599 reporting.
  Task       42 on host vipc2599 reporting.
  Task       43 on host vipc2599 reporting.
  Task       44 on host vipc2599 reporting.
  Task       45 on host vipc2599 reporting.
  Task       46 on host vipc2599 reporting.
  Task       47 on host vipc2599 reporting.
  Task       48 on host vipc2599 reporting.
  Task       49 on host vipc2599 reporting.
  Task       50 on host vipc2599 reporting.
  Task       51 on host vipc2599 reporting.
  Task       52 on host vipc2599 reporting.
  Task       53 on host vipc2599 reporting.
  Task       54 on host vipc2599 reporting.
  Task       55 on host vipc2599 reporting.
  Task       56 on host vipc2599 reporting.
  Task       57 on host vipc2599 reporting.
  Task       58 on host vipc2599 reporting.
  Task       59 on host vipc2599 reporting.
  Task       60 on host vipc2599 reporting.
  Task       61 on host vipc2599 reporting.
  Task       62 on host vipc2599 reporting.
  Task       63 on host vipc2599 reporting.
  Task       64 on host vipc2599 reporting.
  Task       65 on host vipc2599 reporting.
  Task       66 on host vipc2599 reporting.
  Task       67 on host vipc2599 reporting.
  Task       68 on host vipc2599 reporting.
  Task       69 on host vipc2599 reporting.
  Task       70 on host vipc2599 reporting.
  Task       71 on host vipc2599 reporting.
  Task       72 on host vipc2599 reporting.
  Task       73 on host vipc2599 reporting.
  Task       74 on host vipc2599 reporting.
  Task       75 on host vipc2599 reporting.
  Task       76 on host vipc2599 reporting.
  Task       77 on host vipc2599 reporting.
  Task       78 on host vipc2599 reporting.
  Task       79 on host vipc2599 reporting.
  Task       80 on host vipc2599 reporting.
  Task       81 on host vipc2599 reporting.
  Task       82 on host vipc2599 reporting.
  Task       83 on host vipc2599 reporting.
  Task       84 on host vipc2599 reporting.
  Task       85 on host vipc2599 reporting.
  Task       86 on host vipc2599 reporting.
  Task       87 on host vipc2599 reporting.
  Task       88 on host vipc2599 reporting.
  Task       89 on host vipc2599 reporting.
  Task       90 on host vipc2599 reporting.
  Task       91 on host vipc2599 reporting.
  Task       92 on host vipc2599 reporting.
  Task       93 on host vipc2599 reporting.
  Task       94 on host vipc2599 reporting.
  Task       95 on host vipc2599 reporting.
  Task       96 on host vipc2599 reporting.
  Task       97 on host vipc2599 reporting.
  Task       98 on host vipc2599 reporting.
  Task       99 on host vipc2599 reporting.
  Task      100 on host vipc2599 reporting.
  Task      101 on host vipc2599 reporting.
  Task      102 on host vipc2599 reporting.
  Task      103 on host vipc2599 reporting.
  Task      104 on host vipc2599 reporting.
  Task      105 on host vipc2599 reporting.
  Task      106 on host vipc2599 reporting.
  Task      107 on host vipc2599 reporting.
  Task      108 on host vipc2599 reporting.
  Task      109 on host vipc2599 reporting.
  Task      110 on host vipc2599 reporting.
  Task      111 on host vipc2599 reporting.
  Task      112 on host vipc2599 reporting.
  Task      113 on host vipc2599 reporting.
  Task      114 on host vipc2599 reporting.
  Task      115 on host vipc2599 reporting.
  Task      116 on host vipc2599 reporting.
  Task      117 on host vipc2599 reporting.
  Task      118 on host vipc2599 reporting.
  Task      119 on host vipc2599 reporting.
  Task      120 on host vipc2599 reporting.
  Task      121 on host vipc2599 reporting.
  Task      122 on host vipc2599 reporting.
  Task      123 on host vipc2599 reporting.
  Task      124 on host vipc2599 reporting.
  Task      125 on host vipc2599 reporting.
  Task      126 on host vipc2599 reporting.
  Task      127 on host vipc2599 reporting.
  Task      128 on host vipc2600 reporting.
  Task      129 on host vipc2600 reporting.
  Task      130 on host vipc2600 reporting.
  Task      131 on host vipc2600 reporting.
  Task      132 on host vipc2600 reporting.
  Task      133 on host vipc2600 reporting.
  Task      134 on host vipc2600 reporting.
  Task      135 on host vipc2600 reporting.
  Task      136 on host vipc2600 reporting.
  Task      137 on host vipc2600 reporting.
  Task      138 on host vipc2600 reporting.
  Task      139 on host vipc2600 reporting.
  Task      140 on host vipc2600 reporting.
  Task      141 on host vipc2600 reporting.
  Task      142 on host vipc2600 reporting.
  Task      143 on host vipc2600 reporting.
  Task      144 on host vipc2600 reporting.
  Task      145 on host vipc2600 reporting.
  Task      146 on host vipc2600 reporting.
  Task      147 on host vipc2600 reporting.
  Task      148 on host vipc2600 reporting.
  Task      149 on host vipc2600 reporting.
  Task      150 on host vipc2600 reporting.
  Task      151 on host vipc2600 reporting.
  Task      152 on host vipc2600 reporting.
  Task      153 on host vipc2600 reporting.
  Task      154 on host vipc2600 reporting.
  Task      155 on host vipc2600 reporting.
  Task      156 on host vipc2600 reporting.
  Task      157 on host vipc2600 reporting.
  Task      158 on host vipc2600 reporting.
  Task      159 on host vipc2600 reporting.
  Task      160 on host vipc2600 reporting.
  Task      161 on host vipc2600 reporting.
  Task      162 on host vipc2600 reporting.
  Task      163 on host vipc2600 reporting.
  Task      164 on host vipc2600 reporting.
  Task      165 on host vipc2600 reporting.
  Task      166 on host vipc2600 reporting.
  Task      167 on host vipc2600 reporting.
  Task      168 on host vipc2600 reporting.
  Task      169 on host vipc2600 reporting.
  Task      170 on host vipc2600 reporting.
  Task      171 on host vipc2600 reporting.
  Task      172 on host vipc2600 reporting.
  Task      173 on host vipc2600 reporting.
  Task      174 on host vipc2600 reporting.
  Task      175 on host vipc2600 reporting.
  Task      176 on host vipc2600 reporting.
  Task      177 on host vipc2600 reporting.
  Task      178 on host vipc2600 reporting.
  Task      179 on host vipc2600 reporting.
  Task      180 on host vipc2600 reporting.
  Task      181 on host vipc2600 reporting.
  Task      182 on host vipc2600 reporting.
  Task      183 on host vipc2600 reporting.
  Task      184 on host vipc2600 reporting.
  Task      185 on host vipc2600 reporting.
  Task      186 on host vipc2600 reporting.
  Task      187 on host vipc2600 reporting.
  Task      188 on host vipc2600 reporting.
  Task      189 on host vipc2600 reporting.
  Task      190 on host vipc2600 reporting.
  Task      191 on host vipc2600 reporting.
  Task      192 on host vipc2600 reporting.
  Task      193 on host vipc2600 reporting.
  Task      194 on host vipc2600 reporting.
  Task      195 on host vipc2600 reporting.
  Task      196 on host vipc2600 reporting.
  Task      197 on host vipc2600 reporting.
  Task      198 on host vipc2600 reporting.
  Task      199 on host vipc2600 reporting.
  Task      200 on host vipc2600 reporting.
  Task      201 on host vipc2600 reporting.
  Task      202 on host vipc2600 reporting.
  Task      203 on host vipc2600 reporting.
  Task      204 on host vipc2600 reporting.
  Task      205 on host vipc2600 reporting.
  Task      206 on host vipc2600 reporting.
  Task      207 on host vipc2600 reporting.
  Task      208 on host vipc2600 reporting.
  Task      209 on host vipc2600 reporting.
  Task      210 on host vipc2600 reporting.
  Task      211 on host vipc2600 reporting.
  Task      212 on host vipc2600 reporting.
  Task      213 on host vipc2600 reporting.
  Task      214 on host vipc2600 reporting.
  Task      215 on host vipc2600 reporting.
  Task      216 on host vipc2600 reporting.
  Task      217 on host vipc2600 reporting.
  Task      218 on host vipc2600 reporting.
  Task      219 on host vipc2600 reporting.
  Task      220 on host vipc2600 reporting.
  Task      221 on host vipc2600 reporting.
  Task      222 on host vipc2600 reporting.
  Task      223 on host vipc2600 reporting.
  Task      224 on host vipc2600 reporting.
  Task      225 on host vipc2600 reporting.
  Task      226 on host vipc2600 reporting.
  Task      227 on host vipc2600 reporting.
  Task      228 on host vipc2600 reporting.
  Task      229 on host vipc2600 reporting.
  Task      230 on host vipc2600 reporting.
  Task      231 on host vipc2600 reporting.
  Task      232 on host vipc2600 reporting.
  Task      233 on host vipc2600 reporting.
  Task      234 on host vipc2600 reporting.
  Task      235 on host vipc2600 reporting.
  Task      236 on host vipc2600 reporting.
  Task      237 on host vipc2600 reporting.
  Task      238 on host vipc2600 reporting.
  Task      239 on host vipc2600 reporting.
  Task      240 on host vipc2600 reporting.
  Task      241 on host vipc2600 reporting.
  Task      242 on host vipc2600 reporting.
  Task      243 on host vipc2600 reporting.
  Task      244 on host vipc2600 reporting.
  Task      245 on host vipc2600 reporting.
  Task      246 on host vipc2600 reporting.
  Task      247 on host vipc2600 reporting.
  Task      248 on host vipc2600 reporting.
  Task      249 on host vipc2600 reporting.
  Task      250 on host vipc2600 reporting.
  Task      251 on host vipc2600 reporting.
  Task      252 on host vipc2600 reporting.
  Task      253 on host vipc2600 reporting.
  Task      254 on host vipc2600 reporting.
  Task      255 on host vipc2600 reporting.

  Obtaining array dimensions for all initial allocations:
  
  -----------------------------------------------------------------------
  Parsing control.in (first pass over file, find array dimensions only).
  The contents of control.in will be repeated verbatim below
  unless switched off by setting 'verbatim_writeout .false.' .
  in the first line of control.in .
  -----------------------------------------------------------------------
  
  xc                           pbesol
  relativistic                 atomic_zora scalar
  spin                         none
  k_grid                       8 8 8
  sc_accuracy_rho              1d-6
  elsi_restart                 read
  KS_method                    serial
  output                       memory_tracking
  output polarization          3 8 8 8
  
  
  ################################################################################
  #
  #  FHI-aims code project
  #  Volker Blum, 2020
  #
  #  Suggested "intermediate" defaults for Mg atom (to be pasted into control.in file)
  #
  ################################################################################
    species        Mg
  #     global species definitions
      nucleus             12
      mass                24.3050
  #
      l_hartree           6
  #
      cut_pot             5.0          2.0  1.0
      basis_dep_cutoff    1e-4
  #
      radial_base         40 7.0
      radial_multiplier   2
      angular_grids       specified
        division   0.5421   50
        division   0.8500  110
        division   1.0736  194
        division   1.1879  302
        division   1.2806  434
  #      division   1.4147  590
  #      division   1.4867  770
  #      division   1.6422  974
  #      division   2.6134 1202
  #      outer_grid   974
        outer_grid  434
  ################################################################################
  #
  #  Definition of "minimal" basis
  #
  ################################################################################
  #     valence basis states
      valence      3  s   2.
      valence      2  p   6.
  #     ion occupancy
      ion_occ      2  s   2.
      ion_occ      2  p   6.
  ################################################################################
  #
  #  Suggested additional basis functions. For production calculations,
  #  uncomment them one after another (the most important basis functions are
  #  listed first).
  #
  #  Constructed for dimers: 2.125 A, 2.375 A, 2.875 A, 3.375 A, 4.5 A
  #
  ################################################################################
  #  "First tier" - improvements: -230.76 meV to -21.94 meV
       hydro 2 p 1.5
       ionic 3 d auto
       hydro 3 s 2.4
  #  "Second tier" - improvements: -5.43 meV to -1.64 meV
       hydro 4 f 4.3
  #     hydro 2 p 3.4
  #     hydro 4 s 11.2
  #     hydro 3 d 6.2
  #  "Third tier" - improvements: -0.92 meV to -0.22 meV
  #     hydro 2 s 0.6
  #     hydro 3 p 4.8
  #     hydro 4 f 7.4
  #     hydro 5 g 6.6
  #     hydro 2 p 1.6
  #     hydro 3 d 1.8
  #  "Fourth tier" - improvements: -0.09 meV to -0.05 meV
  #     hydro 4 p 0.45
  #     hydro 5 g 10.4
  #     hydro 2 s 12.4
  #     hydro 4 d 1.7
  ################################################################################
  #
  # For methods that use the localized form of the "resolution of identity" for
  # the two-electron Coulomb operator (RI_method LVL), particularly Hartree-Fock and
  # hybrid density functional calculations, the highest accuracy can be obtained by
  # uncommenting the line beginning with "for_aux"  below, thus adding an extra g radial
  # function to the construction of the product basis set for the expansion.
  # See Ref. New J. Phys. 17, 093020 (2015) for more information, particularly Figs. 1 and 6.
  #
  ################################################################################
  #
  # for_aux hydro 5 g 6.0
  ################################################################################
  #
  #  FHI-aims code project
  #  Volker Blum, 2017
  #
  #  Suggested "intermediate" defaults for O atom (to be pasted into control.in file)
  #
  ################################################################################
    species        O
  #     global species definitions
      nucleus             8
      mass                15.9994
  #
      l_hartree           6
  #
      cut_pot             4.0  2.0  1.0
      basis_dep_cutoff    1e-4
  #
      radial_base         36 7.0
      radial_multiplier   2
       angular_grids specified
        division   0.1817   50
        division   0.3417  110
        division   0.4949  194
        division   0.6251  302
        division   0.8014  434
  #      division   0.8507  590
  #      division   0.8762  770
  #      division   0.9023  974
  #      division   1.2339 1202
  #      outer_grid 974
        outer_grid  434
  ################################################################################
  #
  #  Definition of "minimal" basis
  #
  ################################################################################
  #     valence basis states
      valence      2  s   2.
      valence      2  p   4.
  #     ion occupancy
      ion_occ      2  s   1.
      ion_occ      2  p   3.
  ################################################################################
  #
  #  Suggested additional basis functions. For production calculations,
  #  uncomment them one after another (the most important basis functions are
  #  listed first).
  #
  #  Constructed for dimers: 1.0 A, 1.208 A, 1.5 A, 2.0 A, 3.0 A
  #
  ################################################################################
  #  "First tier" - improvements: -699.05 meV to -159.38 meV
       hydro 2 p 1.8
       hydro 3 d 7.6
       hydro 3 s 6.4
  #  "Second tier" - improvements: -49.91 meV to -5.39 meV
       hydro 4 f 11.6
  #     hydro 3 p 6.2
  #     hydro 3 d 5.6
    for_aux    hydro 5 g 17.6
  #     hydro 1 s 0.75
  #  "Third tier" - improvements: -2.83 meV to -0.50 meV
  #     ionic 2 p auto
  #     hydro 4 f 10.8
  #     hydro 4 d 4.7
  #     hydro 2 s 6.8
  #  "Fourth tier" - improvements: -0.40 meV to -0.12 meV
  #     hydro 3 p 5
  #     hydro 3 s 3.3
  #     hydro 5 g 15.6
  #     hydro 4 f 17.6
  #     hydro 4 d 14
  # Further basis functions - -0.08 meV and below
  #     hydro 3 s 2.1
  #     hydro 4 d 11.6
  #     hydro 3 p 16
  #     hydro 2 s 17.2
  
  -----------------------------------------------------------------------
  Completed first pass over input file control.in .
  -----------------------------------------------------------------------
  
  
  -----------------------------------------------------------------------
  Parsing geometry.in (first pass over file, find array dimensions only).
  The contents of geometry.in will be repeated verbatim below
  unless switched off by setting 'verbatim_writeout .false.' .
  in the first line of geometry.in .
  -----------------------------------------------------------------------
  
  #===============================================================================
  # Created using the Atomic Simulation Environment (ASE)
  
  # Sun May 17 15:17:34 2026
  
  #=======================================================
  lattice_vector -0.0000012107310000 6.3312956512440000 6.3312956513280003
  lattice_vector 6.3312972382499995 0.0000006053430000 6.3312964829790008
  lattice_vector 6.3312972381420005 6.3312964827840004 0.0000006051300000
  atom 0.0000000000780860 0.0000000000400982 0.0000000000801964 Mg
  atom -0.0000004034989140 2.1104318837880980 2.1104318838561964 Mg
  atom -0.0000008070759140 4.2208637675360974 4.2208637676321965 Mg
  atom 2.1104324128280858 0.0000002018210982 2.1104321610731969 Mg
  atom 2.1104320092510855 2.1104320855690979 4.2208640448491970 Mg
  atom 2.1104316056740857 4.2208639693170973 6.3312959286251971 Mg
  atom 4.2208648255780847 0.0000004036020982 4.2208643220661966 Mg
  atom 4.2208644220010854 2.1104322873500978 6.3312962058421967 Mg
  atom 4.2208640184240851 4.2208641710980972 8.4417280896181968 Mg
  atom 2.1104324127920862 2.1104321609680983 0.0000002017901964 Mg
  atom 2.1104320092150859 4.2208640447160981 2.1104320855661962 Mg
  atom 2.1104316056380861 6.3312959284640975 4.2208639693421963 Mg
  atom 4.2208648255420860 2.1104323627490982 2.1104323627831967 Mg
  atom 4.2208644219650857 4.2208642464970980 4.2208642465591968 Mg
  atom 4.2208640183880863 6.3312961302450974 6.3312961303351969 Mg
  atom 6.3312972382920849 2.1104325645300981 4.2208645237761964 Mg
  atom 6.3312968347150855 4.2208644482780979 6.3312964075521965 Mg
  atom 6.3312964311380853 6.3312963320260973 8.4417282913281966 Mg
  atom 4.2208648255060854 4.2208643218960979 0.0000004035001964 Mg
  atom 4.2208644219290861 6.3312962056440973 2.1104322872761965 Mg
  atom 4.2208640183520858 8.4417280893920967 4.2208641710521961 Mg
  atom 6.3312972382560853 4.2208645236770979 2.1104325644931969 Mg
  atom 6.3312968346790850 6.3312964074250973 4.2208644482691966 Mg
  atom 6.3312964311020856 8.4417282911730975 6.3312963320451967 Mg
  atom 8.4417296510060851 4.2208647254580978 4.2208647254861962 Mg
  atom 8.4417292474290857 6.3312966092060972 6.3312966092621963 Mg
  atom 8.4417288438520846 8.4417284929540966 8.4417284930381964 Mg
  atom 2.1104322108654139 2.1104321231884016 2.1104321231593035 O
  atom 2.1104318072884136 4.2208640069364014 4.2208640069353036 O
  atom 2.1104314037114138 6.3312958906844017 6.3312958907113028 O
  atom 4.2208646236154133 2.1104323249694015 4.2208642841523032 O
  atom 4.2208642200384139 4.2208642087174013 6.3312961679283033 O
  atom 4.2208638164614136 6.3312960924654016 8.4417280517043043 O
  atom 6.3312970363654140 2.1104325267504014 6.3312964451453047 O
  atom 6.3312966327884137 4.2208644104984021 8.4417283289213056 O
  atom 6.3312962292114134 6.3312962942464015 10.5521602126973058 O
  atom 4.2208646235794136 4.2208642841164012 2.1104323248693038 O
  atom 4.2208642200024133 6.3312961678644015 4.2208642086453034 O
  atom 4.2208638164254140 8.4417280516124009 6.3312960924213026 O
  atom 6.3312970363294134 4.2208644858974012 4.2208644858623030 O
  atom 6.3312966327524132 6.3312963696454014 6.3312963696383031 O
  atom 6.3312962291754129 8.4417282533934017 8.4417282534143041 O
  atom 8.4417294490794141 4.2208646876784011 6.3312966468553045 O
  atom 8.4417290455024130 6.3312965714264013 8.4417285306313055 O
  atom 8.4417286419254136 8.4417284551744007 10.5521604144073056 O
  atom 6.3312970362934138 6.3312964450444014 2.1104325265793036 O
  atom 6.3312966327164144 8.4417283287924025 4.2208644103553041 O
  atom 6.3312962291394141 10.5521602125404019 6.3312962941313033 O
  atom 8.4417294490434145 6.3312966468254022 4.2208646875723037 O
  atom 8.4417290454664133 8.4417285305734016 6.3312965713483038 O
  atom 8.4417286418894140 10.5521604143214027 8.4417284551243039 O
  atom 10.5521618617934152 6.3312968486064021 6.3312968485653052 O
  atom 10.5521614582164140 8.4417287323544024 8.4417287323413053 O
  atom 10.5521610546394147 10.5521606161024017 10.5521606161173054 O
  
  -----------------------------------------------------------------------
  Completed first pass over input file geometry.in .
  -----------------------------------------------------------------------
  

  Basic array size parameters:
  | Number of species                 :        2
  | Number of atoms                   :       54
  | Number of lattice vectors         :        3
  | Max. basis fn. angular momentum   :        4
  | Max. atomic/ionic basis occupied n:        3
  | Max. number of basis fn. types    :        3
  | Max. radial fns per species/type  :        5
  | Max. logarithmic grid size        :     1334
  | Max. radial integration grid size :       81
  | Max. angular integration grid size:      434
  | Max. angular grid division number :        8
  | Radial grid for Hartree potential :     1334
  | Number of spin channels           :        1

  Definition of standardized fundamental physical constants in this FHI-aims run:
  | Using the set of values used in FHI-aims up to 2024, which combines values from
  | different CODATA sets - see constants.f90.
  | Use the 'codata' keyword in control.in to change this selection.

  Memory overcommitment is allowed on your operating system.

------------------------------------------------------------
          Reading file control.in.
------------------------------------------------------------
  XC: Using PBEsol gradient-corrected functionals.
  Scalar relativistic treatment of kinetic energy: on-site free-atom approximation to ZORA.
  Spin treatment: No spin polarisation.
  Found k-point grid:         8         8         8
  Convergence accuracy of self-consistent charge density:  0.1000E-05
  Using elsi_restart infrastructure.
  Restarting calculation from saved density matrices.
  Kohn-Sham eigenvalues and eigenfunctions calculated by LAPACK via ELSI.
  Verbose memory tracking output has been activated.

  Polarization directive number:    1
  | Calculating polarization along reciprocal lattice vector 3 using    8 k-points parallel to this direction.
  | Full Brillouin zone sampling is thus performed on a     8 x     8 x     8 grid
 
  Reading configuration options for species Mg                  .
  | Found nuclear charge :  12.0000
  | Found atomic mass :    24.3050000000000      amu
  | Found l_max for Hartree potential  :   6
  | Found cutoff potl. onset [A], width [A], scale factor :    5.00000    2.00000    1.00000
  | Threshold for basis-dependent cutoff potential is   0.100000E-03
  | Found data for basic radial integration grid :    40 points, outermost radius =    7.000 A
  | Found multiplier for basic radial grid :   2
  | Found angular grid specification: user-specified.
  | Specified grid contains     6 separate shells.
  | Check grid settings after all constraints further below.
  | Found free-atom valence shell :  3 s   2.000
  | Found free-atom valence shell :  2 p   6.000
  | Found free-ion valence shell :  2 s   2.000
  | Found free-ion valence shell :  2 p   6.000
  | Found hydrogenic basis function :  2 p   1.500
  | Found ionic basis function :  3 d , default cutoff radius.
  | Found hydrogenic basis function :  3 s   2.400
  | Found hydrogenic basis function :  4 f   4.300
 | Encountered keyword species, ending the description of species Mg                  .
  Species Mg                  : Missing cutoff potential type.
  Defaulting to exp(1/x)/(1-x)^2 type cutoff potential.
  Species Mg: No 'logarithmic' tag. Using default grid for free atom:
  | Default logarithmic grid data [bohr] : 0.1000E-03 0.1000E+03 0.1012E+01
  | Will include ionic basis functions of  2.0-fold positive Mg                   ion.
  Species Mg: On-site basis accuracy parameter (for Gram-Schmidt orthonormalisation) not specified.
  Using default value basis_acc =  0.1000000E-03.
  Species Mg                  : Using default innermost maximum threshold i_radial=  2 for radial functions.
  Species Mg                  : Default cutoff onset for free atom density etc. : 0.50000000E+01 AA.
  Species Mg                  : Basic radial grid will be enhanced according to radial_multiplier =   2, to contain    81 grid points.
 
  Reading configuration options for species O                   .
  | Found nuclear charge :   8.0000
  | Found atomic mass :    15.9994000000000      amu
  | Found l_max for Hartree potential  :   6
  | Found cutoff potl. onset [A], width [A], scale factor :    4.00000    2.00000    1.00000
  | Threshold for basis-dependent cutoff potential is   0.100000E-03
  | Found data for basic radial integration grid :    36 points, outermost radius =    7.000 A
  | Found multiplier for basic radial grid :   2
  | Found angular grid specification: user-specified.
  | Specified grid contains     6 separate shells.
  | Check grid settings after all constraints further below.
  | Found free-atom valence shell :  2 s   2.000
  | Found free-atom valence shell :  2 p   4.000
  | Found free-ion valence shell :  2 s   1.000
  | Found free-ion valence shell :  2 p   3.000
  | Found hydrogenic basis function :  2 p   1.800
  | Found hydrogenic basis function :  3 d   7.600
  | Found hydrogenic basis function :  3 s   6.400
  | Found hydrogenic basis function :  4 f  11.600
  | Found hydrogenic extended basis function :  5 g  17.600
  Species O                   : Missing cutoff potential type.
  Defaulting to exp(1/x)/(1-x)^2 type cutoff potential.
  Species O : No 'logarithmic' tag. Using default grid for free atom:
  | Default logarithmic grid data [bohr] : 0.1000E-03 0.1000E+03 0.1012E+01
  Species O : On-site basis accuracy parameter (for Gram-Schmidt orthonormalisation) not specified.
  Using default value basis_acc =  0.1000000E-03.
  Species O                   : Using default innermost maximum threshold i_radial=  2 for radial functions.
  Species O                   : Default cutoff onset for free atom density etc. : 0.40000000E+01 AA.
  Species O                   : Basic radial grid will be enhanced according to radial_multiplier =   2, to contain    73 grid points.
 
  Finished reading input file 'control.in'.
 
------------------------------------------------------------


------------------------------------------------------------
          Reading geometry description geometry.in.
------------------------------------------------------------
  | The smallest distance between any two atoms is         2.11043192 AA.
  | The first atom of this pair is atom number                     10 .
  | The second atom of this pair is atom number                    43 .
  | Wigner-Seitz cell of the first atom image           0     0     0 .
  | (The Wigner-Seitz cell of the second atom is 0 0 0  by definition.)

  Symmetry information by spglib:
  | Precision set to  0.1E-04
  | Number of Operations  : 1296
  | Space group           : 225
  | International         : Fm-3m   Dv
  | Schoenflies           : Oh^5
  Input structure read successfully.
  The structure contains       54 atoms,  and a total of        540.000 electrons.

  Input geometry:
  | Unit cell:
  |       -0.00000121        6.33129565        6.33129565
  |        6.33129724        0.00000061        6.33129648
  |        6.33129724        6.33129648        0.00000061
  | Atomic structure:
  |       Atom                x [A]            y [A]            z [A]
  |    1: Species Mg            0.00000000        0.00000000        0.00000000
  |    2: Species Mg           -0.00000040        2.11043188        2.11043188
  |    3: Species Mg           -0.00000081        4.22086377        4.22086377
  |    4: Species Mg            2.11043241        0.00000020        2.11043216
  |    5: Species Mg            2.11043201        2.11043209        4.22086404
  |    6: Species Mg            2.11043161        4.22086397        6.33129593
  |    7: Species Mg            4.22086483        0.00000040        4.22086432
  |    8: Species Mg            4.22086442        2.11043229        6.33129621
  |    9: Species Mg            4.22086402        4.22086417        8.44172809
  |   10: Species Mg            2.11043241        2.11043216        0.00000020
  |   11: Species Mg            2.11043201        4.22086404        2.11043209
  |   12: Species Mg            2.11043161        6.33129593        4.22086397
  |   13: Species Mg            4.22086483        2.11043236        2.11043236
  |   14: Species Mg            4.22086442        4.22086425        4.22086425
  |   15: Species Mg            4.22086402        6.33129613        6.33129613
  |   16: Species Mg            6.33129724        2.11043256        4.22086452
  |   17: Species Mg            6.33129683        4.22086445        6.33129641
  |   18: Species Mg            6.33129643        6.33129633        8.44172829
  |   19: Species Mg            4.22086483        4.22086432        0.00000040
  |   20: Species Mg            4.22086442        6.33129621        2.11043229
  |   21: Species Mg            4.22086402        8.44172809        4.22086417
  |   22: Species Mg            6.33129724        4.22086452        2.11043256
  |   23: Species Mg            6.33129683        6.33129641        4.22086445
  |   24: Species Mg            6.33129643        8.44172829        6.33129633
  |   25: Species Mg            8.44172965        4.22086473        4.22086473
  |   26: Species Mg            8.44172925        6.33129661        6.33129661
  |   27: Species Mg            8.44172884        8.44172849        8.44172849
  |   28: Species O             2.11043221        2.11043212        2.11043212
  |   29: Species O             2.11043181        4.22086401        4.22086401
  |   30: Species O             2.11043140        6.33129589        6.33129589
  |   31: Species O             4.22086462        2.11043232        4.22086428
  |   32: Species O             4.22086422        4.22086421        6.33129617
  |   33: Species O             4.22086382        6.33129609        8.44172805
  |   34: Species O             6.33129704        2.11043253        6.33129645
  |   35: Species O             6.33129663        4.22086441        8.44172833
  |   36: Species O             6.33129623        6.33129629       10.55216021
  |   37: Species O             4.22086462        4.22086428        2.11043232
  |   38: Species O             4.22086422        6.33129617        4.22086421
  |   39: Species O             4.22086382        8.44172805        6.33129609
  |   40: Species O             6.33129704        4.22086449        4.22086449
  |   41: Species O             6.33129663        6.33129637        6.33129637
  |   42: Species O             6.33129623        8.44172825        8.44172825
  |   43: Species O             8.44172945        4.22086469        6.33129665
  |   44: Species O             8.44172905        6.33129657        8.44172853
  |   45: Species O             8.44172864        8.44172846       10.55216041
  |   46: Species O             6.33129704        6.33129645        2.11043253
  |   47: Species O             6.33129663        8.44172833        4.22086441
  |   48: Species O             6.33129623       10.55216021        6.33129629
  |   49: Species O             8.44172945        6.33129665        4.22086469
  |   50: Species O             8.44172905        8.44172853        6.33129657
  |   51: Species O             8.44172864       10.55216041        8.44172846
  |   52: Species O            10.55216186        6.33129685        6.33129685
  |   53: Species O            10.55216146        8.44172873        8.44172873
  |   54: Species O            10.55216105       10.55216062       10.55216062

  Lattice parameters for 3D lattice (in Angstroms) :     8.953804    8.953806    8.953806
  Angle(s) between unit vectors (in degrees)       :    59.999990   60.000005   60.000005


  Quantities derived from the lattice vectors (in Angstrom^-1):
  | Reciprocal lattice vector 1: -0.496201  0.496201  0.496201
  | Reciprocal lattice vector 2:  0.496200 -0.496201  0.496201
  | Reciprocal lattice vector 3:  0.496200  0.496201 -0.496201
  | Unit cell volume                               :   0.507584E+03  Angstrom^3

  Fractional coordinates:
                         L1                L2                L3
       atom_frac         0.00000000        0.00000000        0.00000000  Mg
       atom_frac         0.33333333        0.00000000        0.00000000  Mg
       atom_frac         0.66666667        0.00000000        0.00000000  Mg
       atom_frac         0.00000000        0.33333333        0.00000000  Mg
       atom_frac         0.33333333        0.33333333        0.00000000  Mg
       atom_frac         0.66666667        0.33333333        0.00000000  Mg
       atom_frac         0.00000000        0.66666667        0.00000000  Mg
       atom_frac         0.33333333        0.66666667        0.00000000  Mg
       atom_frac         0.66666667        0.66666667        0.00000000  Mg
       atom_frac         0.00000000        0.00000000        0.33333333  Mg
       atom_frac         0.33333333        0.00000000        0.33333333  Mg
       atom_frac         0.66666667        0.00000000        0.33333333  Mg
       atom_frac         0.00000000        0.33333333        0.33333333  Mg
       atom_frac         0.33333333        0.33333333        0.33333333  Mg
       atom_frac         0.66666667        0.33333333        0.33333333  Mg
       atom_frac         0.00000000        0.66666667        0.33333333  Mg
       atom_frac         0.33333333        0.66666667        0.33333333  Mg
       atom_frac         0.66666667        0.66666667        0.33333333  Mg
       atom_frac         0.00000000        0.00000000        0.66666667  Mg
       atom_frac         0.33333333        0.00000000        0.66666667  Mg
       atom_frac         0.66666667        0.00000000        0.66666667  Mg
       atom_frac         0.00000000        0.33333333        0.66666667  Mg
       atom_frac         0.33333333        0.33333333        0.66666667  Mg
       atom_frac         0.66666667        0.33333333        0.66666667  Mg
       atom_frac         0.00000000        0.66666667        0.66666667  Mg
       atom_frac         0.33333333        0.66666667        0.66666667  Mg
       atom_frac         0.66666667        0.66666667        0.66666667  Mg
       atom_frac         0.16666667        0.16666667        0.16666667  O
       atom_frac         0.50000000        0.16666667        0.16666667  O
       atom_frac         0.83333333        0.16666667        0.16666667  O
       atom_frac         0.16666667        0.50000000        0.16666667  O
       atom_frac         0.50000000        0.50000000        0.16666667  O
       atom_frac         0.83333333        0.50000000        0.16666667  O
       atom_frac         0.16666667        0.83333333        0.16666667  O
       atom_frac         0.50000000        0.83333333        0.16666667  O
       atom_frac         0.83333333        0.83333333        0.16666667  O
       atom_frac         0.16666667        0.16666667        0.50000000  O
       atom_frac         0.50000000        0.16666667        0.50000000  O
       atom_frac         0.83333333        0.16666667        0.50000000  O
       atom_frac         0.16666667        0.50000000        0.50000000  O
       atom_frac         0.50000000        0.50000000        0.50000000  O
       atom_frac         0.83333333        0.50000000        0.50000000  O
       atom_frac         0.16666667        0.83333333        0.50000000  O
       atom_frac         0.50000000        0.83333333        0.50000000  O
       atom_frac         0.83333333        0.83333333        0.50000000  O
       atom_frac         0.16666667        0.16666667        0.83333333  O
       atom_frac         0.50000000        0.16666667        0.83333333  O
       atom_frac         0.83333333        0.16666667        0.83333333  O
       atom_frac         0.16666667        0.50000000        0.83333333  O
       atom_frac         0.50000000        0.50000000        0.83333333  O
       atom_frac         0.83333333        0.50000000        0.83333333  O
       atom_frac         0.16666667        0.83333333        0.83333333  O
       atom_frac         0.50000000        0.83333333        0.83333333  O
       atom_frac         0.83333333        0.83333333        0.83333333  O

  Slab Identifier: This seems to be a bulk system.
 
  Finished reading input file 'geometry.in'.
 

 
  Consistency checks for stacksize environment parameter are next.
 
  | Maximum stacksize for task 0: unlimited
  | Maximum stacksize for task 1: unlimited
  | Maximum stacksize for task 2: unlimited
  | Maximum stacksize for task 3: unlimited
  | Maximum stacksize for task 4: unlimited
  | Maximum stacksize for task 5: unlimited
  | Maximum stacksize for task 6: unlimited
  | Maximum stacksize for task 7: unlimited
  | Maximum stacksize for task 8: unlimited
  | Maximum stacksize for task 9: unlimited
  | Maximum stacksize for task 10: unlimited
  | Maximum stacksize for task 11: unlimited
  | Maximum stacksize for task 12: unlimited
  | Maximum stacksize for task 13: unlimited
  | Maximum stacksize for task 14: unlimited
  | Maximum stacksize for task 15: unlimited
  | Maximum stacksize for task 16: unlimited
  | Maximum stacksize for task 17: unlimited
  | Maximum stacksize for task 18: unlimited
  | Maximum stacksize for task 19: unlimited
  | Maximum stacksize for task 20: unlimited
  | Maximum stacksize for task 21: unlimited
  | Maximum stacksize for task 22: unlimited
  | Maximum stacksize for task 23: unlimited
  | Maximum stacksize for task 24: unlimited
  | Maximum stacksize for task 25: unlimited
  | Maximum stacksize for task 26: unlimited
  | Maximum stacksize for task 27: unlimited
  | Maximum stacksize for task 28: unlimited
  | Maximum stacksize for task 29: unlimited
  | Maximum stacksize for task 30: unlimited
  | Maximum stacksize for task 31: unlimited
  | Maximum stacksize for task 32: unlimited
  | Maximum stacksize for task 33: unlimited
  | Maximum stacksize for task 34: unlimited
  | Maximum stacksize for task 35: unlimited
  | Maximum stacksize for task 36: unlimited
  | Maximum stacksize for task 37: unlimited
  | Maximum stacksize for task 38: unlimited
  | Maximum stacksize for task 39: unlimited
  | Maximum stacksize for task 40: unlimited
  | Maximum stacksize for task 41: unlimited
  | Maximum stacksize for task 42: unlimited
  | Maximum stacksize for task 43: unlimited
  | Maximum stacksize for task 44: unlimited
  | Maximum stacksize for task 45: unlimited
  | Maximum stacksize for task 46: unlimited
  | Maximum stacksize for task 47: unlimited
  | Maximum stacksize for task 48: unlimited
  | Maximum stacksize for task 49: unlimited
  | Maximum stacksize for task 50: unlimited
  | Maximum stacksize for task 51: unlimited
  | Maximum stacksize for task 52: unlimited
  | Maximum stacksize for task 53: unlimited
  | Maximum stacksize for task 54: unlimited
  | Maximum stacksize for task 55: unlimited
  | Maximum stacksize for task 56: unlimited
  | Maximum stacksize for task 57: unlimited
  | Maximum stacksize for task 58: unlimited
  | Maximum stacksize for task 59: unlimited
  | Maximum stacksize for task 60: unlimited
  | Maximum stacksize for task 61: unlimited
  | Maximum stacksize for task 62: unlimited
  | Maximum stacksize for task 63: unlimited
  | Maximum stacksize for task 64: unlimited
  | Maximum stacksize for task 65: unlimited
  | Maximum stacksize for task 66: unlimited
  | Maximum stacksize for task 67: unlimited
  | Maximum stacksize for task 68: unlimited
  | Maximum stacksize for task 69: unlimited
  | Maximum stacksize for task 70: unlimited
  | Maximum stacksize for task 71: unlimited
  | Maximum stacksize for task 72: unlimited
  | Maximum stacksize for task 73: unlimited
  | Maximum stacksize for task 74: unlimited
  | Maximum stacksize for task 75: unlimited
  | Maximum stacksize for task 76: unlimited
  | Maximum stacksize for task 77: unlimited
  | Maximum stacksize for task 78: unlimited
  | Maximum stacksize for task 79: unlimited
  | Maximum stacksize for task 80: unlimited
  | Maximum stacksize for task 81: unlimited
  | Maximum stacksize for task 82: unlimited
  | Maximum stacksize for task 83: unlimited
  | Maximum stacksize for task 84: unlimited
  | Maximum stacksize for task 85: unlimited
  | Maximum stacksize for task 86: unlimited
  | Maximum stacksize for task 87: unlimited
  | Maximum stacksize for task 88: unlimited
  | Maximum stacksize for task 89: unlimited
  | Maximum stacksize for task 90: unlimited
  | Maximum stacksize for task 91: unlimited
  | Maximum stacksize for task 92: unlimited
  | Maximum stacksize for task 93: unlimited
  | Maximum stacksize for task 94: unlimited
  | Maximum stacksize for task 95: unlimited
  | Maximum stacksize for task 96: unlimited
  | Maximum stacksize for task 97: unlimited
  | Maximum stacksize for task 98: unlimited
  | Maximum stacksize for task 99: unlimited
  | Maximum stacksize for task 100: unlimited
  | Maximum stacksize for task 101: unlimited
  | Maximum stacksize for task 102: unlimited
  | Maximum stacksize for task 103: unlimited
  | Maximum stacksize for task 104: unlimited
  | Maximum stacksize for task 105: unlimited
  | Maximum stacksize for task 106: unlimited
  | Maximum stacksize for task 107: unlimited
  | Maximum stacksize for task 108: unlimited
  | Maximum stacksize for task 109: unlimited
  | Maximum stacksize for task 110: unlimited
  | Maximum stacksize for task 111: unlimited
  | Maximum stacksize for task 112: unlimited
  | Maximum stacksize for task 113: unlimited
  | Maximum stacksize for task 114: unlimited
  | Maximum stacksize for task 115: unlimited
  | Maximum stacksize for task 116: unlimited
  | Maximum stacksize for task 117: unlimited
  | Maximum stacksize for task 118: unlimited
  | Maximum stacksize for task 119: unlimited
  | Maximum stacksize for task 120: unlimited
  | Maximum stacksize for task 121: unlimited
  | Maximum stacksize for task 122: unlimited
  | Maximum stacksize for task 123: unlimited
  | Maximum stacksize for task 124: unlimited
  | Maximum stacksize for task 125: unlimited
  | Maximum stacksize for task 126: unlimited
  | Maximum stacksize for task 127: unlimited
  | Maximum stacksize for task 128: unlimited
  | Maximum stacksize for task 129: unlimited
  | Maximum stacksize for task 130: unlimited
  | Maximum stacksize for task 131: unlimited
  | Maximum stacksize for task 132: unlimited
  | Maximum stacksize for task 133: unlimited
  | Maximum stacksize for task 134: unlimited
  | Maximum stacksize for task 135: unlimited
  | Maximum stacksize for task 136: unlimited
  | Maximum stacksize for task 137: unlimited
  | Maximum stacksize for task 138: unlimited
  | Maximum stacksize for task 139: unlimited
  | Maximum stacksize for task 140: unlimited
  | Maximum stacksize for task 141: unlimited
  | Maximum stacksize for task 142: unlimited
  | Maximum stacksize for task 143: unlimited
  | Maximum stacksize for task 144: unlimited
  | Maximum stacksize for task 145: unlimited
  | Maximum stacksize for task 146: unlimited
  | Maximum stacksize for task 147: unlimited
  | Maximum stacksize for task 148: unlimited
  | Maximum stacksize for task 149: unlimited
  | Maximum stacksize for task 150: unlimited
  | Maximum stacksize for task 151: unlimited
  | Maximum stacksize for task 152: unlimited
  | Maximum stacksize for task 153: unlimited
  | Maximum stacksize for task 154: unlimited
  | Maximum stacksize for task 155: unlimited
  | Maximum stacksize for task 156: unlimited
  | Maximum stacksize for task 157: unlimited
  | Maximum stacksize for task 158: unlimited
  | Maximum stacksize for task 159: unlimited
  | Maximum stacksize for task 160: unlimited
  | Maximum stacksize for task 161: unlimited
  | Maximum stacksize for task 162: unlimited
  | Maximum stacksize for task 163: unlimited
  | Maximum stacksize for task 164: unlimited
  | Maximum stacksize for task 165: unlimited
  | Maximum stacksize for task 166: unlimited
  | Maximum stacksize for task 167: unlimited
  | Maximum stacksize for task 168: unlimited
  | Maximum stacksize for task 169: unlimited
  | Maximum stacksize for task 170: unlimited
  | Maximum stacksize for task 171: unlimited
  | Maximum stacksize for task 172: unlimited
  | Maximum stacksize for task 173: unlimited
  | Maximum stacksize for task 174: unlimited
  | Maximum stacksize for task 175: unlimited
  | Maximum stacksize for task 176: unlimited
  | Maximum stacksize for task 177: unlimited
  | Maximum stacksize for task 178: unlimited
  | Maximum stacksize for task 179: unlimited
  | Maximum stacksize for task 180: unlimited
  | Maximum stacksize for task 181: unlimited
  | Maximum stacksize for task 182: unlimited
  | Maximum stacksize for task 183: unlimited
  | Maximum stacksize for task 184: unlimited
  | Maximum stacksize for task 185: unlimited
  | Maximum stacksize for task 186: unlimited
  | Maximum stacksize for task 187: unlimited
  | Maximum stacksize for task 188: unlimited
  | Maximum stacksize for task 189: unlimited
  | Maximum stacksize for task 190: unlimited
  | Maximum stacksize for task 191: unlimited
  | Maximum stacksize for task 192: unlimited
  | Maximum stacksize for task 193: unlimited
  | Maximum stacksize for task 194: unlimited
  | Maximum stacksize for task 195: unlimited
  | Maximum stacksize for task 196: unlimited
  | Maximum stacksize for task 197: unlimited
  | Maximum stacksize for task 198: unlimited
  | Maximum stacksize for task 199: unlimited
  | Maximum stacksize for task 200: unlimited
  | Maximum stacksize for task 201: unlimited
  | Maximum stacksize for task 202: unlimited
  | Maximum stacksize for task 203: unlimited
  | Maximum stacksize for task 204: unlimited
  | Maximum stacksize for task 205: unlimited
  | Maximum stacksize for task 206: unlimited
  | Maximum stacksize for task 207: unlimited
  | Maximum stacksize for task 208: unlimited
  | Maximum stacksize for task 209: unlimited
  | Maximum stacksize for task 210: unlimited
  | Maximum stacksize for task 211: unlimited
  | Maximum stacksize for task 212: unlimited
  | Maximum stacksize for task 213: unlimited
  | Maximum stacksize for task 214: unlimited
  | Maximum stacksize for task 215: unlimited
  | Maximum stacksize for task 216: unlimited
  | Maximum stacksize for task 217: unlimited
  | Maximum stacksize for task 218: unlimited
  | Maximum stacksize for task 219: unlimited
  | Maximum stacksize for task 220: unlimited
  | Maximum stacksize for task 221: unlimited
  | Maximum stacksize for task 222: unlimited
  | Maximum stacksize for task 223: unlimited
  | Maximum stacksize for task 224: unlimited
  | Maximum stacksize for task 225: unlimited
  | Maximum stacksize for task 226: unlimited
  | Maximum stacksize for task 227: unlimited
  | Maximum stacksize for task 228: unlimited
  | Maximum stacksize for task 229: unlimited
  | Maximum stacksize for task 230: unlimited
  | Maximum stacksize for task 231: unlimited
  | Maximum stacksize for task 232: unlimited
  | Maximum stacksize for task 233: unlimited
  | Maximum stacksize for task 234: unlimited
  | Maximum stacksize for task 235: unlimited
  | Maximum stacksize for task 236: unlimited
  | Maximum stacksize for task 237: unlimited
  | Maximum stacksize for task 238: unlimited
  | Maximum stacksize for task 239: unlimited
  | Maximum stacksize for task 240: unlimited
  | Maximum stacksize for task 241: unlimited
  | Maximum stacksize for task 242: unlimited
  | Maximum stacksize for task 243: unlimited
  | Maximum stacksize for task 244: unlimited
  | Maximum stacksize for task 245: unlimited
  | Maximum stacksize for task 246: unlimited
  | Maximum stacksize for task 247: unlimited
  | Maximum stacksize for task 248: unlimited
  | Maximum stacksize for task 249: unlimited
  | Maximum stacksize for task 250: unlimited
  | Maximum stacksize for task 251: unlimited
  | Maximum stacksize for task 252: unlimited
  | Maximum stacksize for task 253: unlimited
  | Maximum stacksize for task 254: unlimited
  | Maximum stacksize for task 255: unlimited
  | Current stacksize for task 0: unlimited
  | Current stacksize for task 1: unlimited
  | Current stacksize for task 2: unlimited
  | Current stacksize for task 3: unlimited
  | Current stacksize for task 4: unlimited
  | Current stacksize for task 5: unlimited
  | Current stacksize for task 6: unlimited
  | Current stacksize for task 7: unlimited
  | Current stacksize for task 8: unlimited
  | Current stacksize for task 9: unlimited
  | Current stacksize for task 10: unlimited
  | Current stacksize for task 11: unlimited
  | Current stacksize for task 12: unlimited
  | Current stacksize for task 13: unlimited
  | Current stacksize for task 14: unlimited
  | Current stacksize for task 15: unlimited
  | Current stacksize for task 16: unlimited
  | Current stacksize for task 17: unlimited
  | Current stacksize for task 18: unlimited
  | Current stacksize for task 19: unlimited
  | Current stacksize for task 20: unlimited
  | Current stacksize for task 21: unlimited
  | Current stacksize for task 22: unlimited
  | Current stacksize for task 23: unlimited
  | Current stacksize for task 24: unlimited
  | Current stacksize for task 25: unlimited
  | Current stacksize for task 26: unlimited
  | Current stacksize for task 27: unlimited
  | Current stacksize for task 28: unlimited
  | Current stacksize for task 29: unlimited
  | Current stacksize for task 30: unlimited
  | Current stacksize for task 31: unlimited
  | Current stacksize for task 32: unlimited
  | Current stacksize for task 33: unlimited
  | Current stacksize for task 34: unlimited
  | Current stacksize for task 35: unlimited
  | Current stacksize for task 36: unlimited
  | Current stacksize for task 37: unlimited
  | Current stacksize for task 38: unlimited
  | Current stacksize for task 39: unlimited
  | Current stacksize for task 40: unlimited
  | Current stacksize for task 41: unlimited
  | Current stacksize for task 42: unlimited
  | Current stacksize for task 43: unlimited
  | Current stacksize for task 44: unlimited
  | Current stacksize for task 45: unlimited
  | Current stacksize for task 46: unlimited
  | Current stacksize for task 47: unlimited
  | Current stacksize for task 48: unlimited
  | Current stacksize for task 49: unlimited
  | Current stacksize for task 50: unlimited
  | Current stacksize for task 51: unlimited
  | Current stacksize for task 52: unlimited
  | Current stacksize for task 53: unlimited
  | Current stacksize for task 54: unlimited
  | Current stacksize for task 55: unlimited
  | Current stacksize for task 56: unlimited
  | Current stacksize for task 57: unlimited
  | Current stacksize for task 58: unlimited
  | Current stacksize for task 59: unlimited
  | Current stacksize for task 60: unlimited
  | Current stacksize for task 61: unlimited
  | Current stacksize for task 62: unlimited
  | Current stacksize for task 63: unlimited
  | Current stacksize for task 64: unlimited
  | Current stacksize for task 65: unlimited
  | Current stacksize for task 66: unlimited
  | Current stacksize for task 67: unlimited
  | Current stacksize for task 68: unlimited
  | Current stacksize for task 69: unlimited
  | Current stacksize for task 70: unlimited
  | Current stacksize for task 71: unlimited
  | Current stacksize for task 72: unlimited
  | Current stacksize for task 73: unlimited
  | Current stacksize for task 74: unlimited
  | Current stacksize for task 75: unlimited
  | Current stacksize for task 76: unlimited
  | Current stacksize for task 77: unlimited
  | Current stacksize for task 78: unlimited
  | Current stacksize for task 79: unlimited
  | Current stacksize for task 80: unlimited
  | Current stacksize for task 81: unlimited
  | Current stacksize for task 82: unlimited
  | Current stacksize for task 83: unlimited
  | Current stacksize for task 84: unlimited
  | Current stacksize for task 85: unlimited
  | Current stacksize for task 86: unlimited
  | Current stacksize for task 87: unlimited
  | Current stacksize for task 88: unlimited
  | Current stacksize for task 89: unlimited
  | Current stacksize for task 90: unlimited
  | Current stacksize for task 91: unlimited
  | Current stacksize for task 92: unlimited
  | Current stacksize for task 93: unlimited
  | Current stacksize for task 94: unlimited
  | Current stacksize for task 95: unlimited
  | Current stacksize for task 96: unlimited
  | Current stacksize for task 97: unlimited
  | Current stacksize for task 98: unlimited
  | Current stacksize for task 99: unlimited
  | Current stacksize for task 100: unlimited
  | Current stacksize for task 101: unlimited
  | Current stacksize for task 102: unlimited
  | Current stacksize for task 103: unlimited
  | Current stacksize for task 104: unlimited
  | Current stacksize for task 105: unlimited
  | Current stacksize for task 106: unlimited
  | Current stacksize for task 107: unlimited
  | Current stacksize for task 108: unlimited
  | Current stacksize for task 109: unlimited
  | Current stacksize for task 110: unlimited
  | Current stacksize for task 111: unlimited
  | Current stacksize for task 112: unlimited
  | Current stacksize for task 113: unlimited
  | Current stacksize for task 114: unlimited
  | Current stacksize for task 115: unlimited
  | Current stacksize for task 116: unlimited
  | Current stacksize for task 117: unlimited
  | Current stacksize for task 118: unlimited
  | Current stacksize for task 119: unlimited
  | Current stacksize for task 120: unlimited
  | Current stacksize for task 121: unlimited
  | Current stacksize for task 122: unlimited
  | Current stacksize for task 123: unlimited
  | Current stacksize for task 124: unlimited
  | Current stacksize for task 125: unlimited
  | Current stacksize for task 126: unlimited
  | Current stacksize for task 127: unlimited
  | Current stacksize for task 128: unlimited
  | Current stacksize for task 129: unlimited
  | Current stacksize for task 130: unlimited
  | Current stacksize for task 131: unlimited
  | Current stacksize for task 132: unlimited
  | Current stacksize for task 133: unlimited
  | Current stacksize for task 134: unlimited
  | Current stacksize for task 135: unlimited
  | Current stacksize for task 136: unlimited
  | Current stacksize for task 137: unlimited
  | Current stacksize for task 138: unlimited
  | Current stacksize for task 139: unlimited
  | Current stacksize for task 140: unlimited
  | Current stacksize for task 141: unlimited
  | Current stacksize for task 142: unlimited
  | Current stacksize for task 143: unlimited
  | Current stacksize for task 144: unlimited
  | Current stacksize for task 145: unlimited
  | Current stacksize for task 146: unlimited
  | Current stacksize for task 147: unlimited
  | Current stacksize for task 148: unlimited
  | Current stacksize for task 149: unlimited
  | Current stacksize for task 150: unlimited
  | Current stacksize for task 151: unlimited
  | Current stacksize for task 152: unlimited
  | Current stacksize for task 153: unlimited
  | Current stacksize for task 154: unlimited
  | Current stacksize for task 155: unlimited
  | Current stacksize for task 156: unlimited
  | Current stacksize for task 157: unlimited
  | Current stacksize for task 158: unlimited
  | Current stacksize for task 159: unlimited
  | Current stacksize for task 160: unlimited
  | Current stacksize for task 161: unlimited
  | Current stacksize for task 162: unlimited
  | Current stacksize for task 163: unlimited
  | Current stacksize for task 164: unlimited
  | Current stacksize for task 165: unlimited
  | Current stacksize for task 166: unlimited
  | Current stacksize for task 167: unlimited
  | Current stacksize for task 168: unlimited
  | Current stacksize for task 169: unlimited
  | Current stacksize for task 170: unlimited
  | Current stacksize for task 171: unlimited
  | Current stacksize for task 172: unlimited
  | Current stacksize for task 173: unlimited
  | Current stacksize for task 174: unlimited
  | Current stacksize for task 175: unlimited
  | Current stacksize for task 176: unlimited
  | Current stacksize for task 177: unlimited
  | Current stacksize for task 178: unlimited
  | Current stacksize for task 179: unlimited
  | Current stacksize for task 180: unlimited
  | Current stacksize for task 181: unlimited
  | Current stacksize for task 182: unlimited
  | Current stacksize for task 183: unlimited
  | Current stacksize for task 184: unlimited
  | Current stacksize for task 185: unlimited
  | Current stacksize for task 186: unlimited
  | Current stacksize for task 187: unlimited
  | Current stacksize for task 188: unlimited
  | Current stacksize for task 189: unlimited
  | Current stacksize for task 190: unlimited
  | Current stacksize for task 191: unlimited
  | Current stacksize for task 192: unlimited
  | Current stacksize for task 193: unlimited
  | Current stacksize for task 194: unlimited
  | Current stacksize for task 195: unlimited
  | Current stacksize for task 196: unlimited
  | Current stacksize for task 197: unlimited
  | Current stacksize for task 198: unlimited
  | Current stacksize for task 199: unlimited
  | Current stacksize for task 200: unlimited
  | Current stacksize for task 201: unlimited
  | Current stacksize for task 202: unlimited
  | Current stacksize for task 203: unlimited
  | Current stacksize for task 204: unlimited
  | Current stacksize for task 205: unlimited
  | Current stacksize for task 206: unlimited
  | Current stacksize for task 207: unlimited
  | Current stacksize for task 208: unlimited
  | Current stacksize for task 209: unlimited
  | Current stacksize for task 210: unlimited
  | Current stacksize for task 211: unlimited
  | Current stacksize for task 212: unlimited
  | Current stacksize for task 213: unlimited
  | Current stacksize for task 214: unlimited
  | Current stacksize for task 215: unlimited
  | Current stacksize for task 216: unlimited
  | Current stacksize for task 217: unlimited
  | Current stacksize for task 218: unlimited
  | Current stacksize for task 219: unlimited
  | Current stacksize for task 220: unlimited
  | Current stacksize for task 221: unlimited
  | Current stacksize for task 222: unlimited
  | Current stacksize for task 223: unlimited
  | Current stacksize for task 224: unlimited
  | Current stacksize for task 225: unlimited
  | Current stacksize for task 226: unlimited
  | Current stacksize for task 227: unlimited
  | Current stacksize for task 228: unlimited
  | Current stacksize for task 229: unlimited
  | Current stacksize for task 230: unlimited
  | Current stacksize for task 231: unlimited
  | Current stacksize for task 232: unlimited
  | Current stacksize for task 233: unlimited
  | Current stacksize for task 234: unlimited
  | Current stacksize for task 235: unlimited
  | Current stacksize for task 236: unlimited
  | Current stacksize for task 237: unlimited
  | Current stacksize for task 238: unlimited
  | Current stacksize for task 239: unlimited
  | Current stacksize for task 240: unlimited
  | Current stacksize for task 241: unlimited
  | Current stacksize for task 242: unlimited
  | Current stacksize for task 243: unlimited
  | Current stacksize for task 244: unlimited
  | Current stacksize for task 245: unlimited
  | Current stacksize for task 246: unlimited
  | Current stacksize for task 247: unlimited
  | Current stacksize for task 248: unlimited
  | Current stacksize for task 249: unlimited
  | Current stacksize for task 250: unlimited
  | Current stacksize for task 251: unlimited
  | Current stacksize for task 252: unlimited
  | Current stacksize for task 253: unlimited
  | Current stacksize for task 254: unlimited
  | Current stacksize for task 255: unlimited
 
  Consistency checks for the contents of control.in are next.
 
  MPI_IN_PLACE appears to work with this MPI implementation.
  | Keeping use_mpi_in_place .true. (see manual).
  Target number of points in a grid batch is not set. Defaulting to  100
  Method for grid partitioning is not set. Defaulting to parallel hash+maxmin partitioning.
  Batch size limit is not set. Defaulting to    200
  By default, will store active basis functions for each batch.
  If in need of memory, prune_basis_once .false. can be used to disable this option.
  communication_type for Hartree potential was not specified.
  Defaulting to calc_hartree .
  Defaulting to Pulay charge density mixer.
  Pulay mixer: Number of relevant iterations not set.
  Defaulting to    8 iterations.
  Pulay mixer: Number of initial linear mixing iterations not set.
  Defaulting to    0 iterations.
  Work space size for distributed Hartree potential not set.
  Defaulting to   0.200000E+03 MB.
  Mixing parameter for charge density mixing has not been set.
  Using default: charge_mix_param =     0.0500.
  The mixing parameter will be adjusted in iteration number     2 of each s.c.f. cycle (i.e., each geometry step).
  Algorithm-dependent basis array size parameters:
  | n_max_pulay                         :        8
  Maximum number of self-consistency iterations not provided.
  Presetting  1000 iterations.
  Presetting      1001 iterations before the initial mixing cycle
  is restarted anyway using the sc_init_iter criterion / keyword.
  Presetting a factor      1.000 between actual scf density residual
  and density convergence criterion sc_accuracy_rho below which sc_init_iter
  takes no effect.
  Calculation of forces was not defined in control.in. No forces will be calculated.
  Geometry relaxation not requested: no relaxation will be performed.
  No accuracy limit for integral partition fn. given. Defaulting to  0.1000E-14.
  No threshold value for u(r) in integrations given. Defaulting to  0.1000E-05.
  No occupation type (smearing scheme) given. Defaulting to Gaussian broadening, width =  0.1000E-01 eV.
  The width will be adjusted in iteration number     2 of each s.c.f. cycle (i.e., each geometry step).
  No accuracy for occupation numbers given. Defaulting to  0.1000E-12.
  No threshold value for occupation numbers given. Defaulting to  0.0000E+00.
  No accuracy for fermi level given. Defaulting to  0.1000E-19.
  Maximum # of iterations to find E_F not set. Defaulting to  200.
  Threshold for basis singularities not set.
  Default threshold for basis singularities:  0.1000E-04
  partition_type (choice of integration weights) for integrals was not specified.
  | Using a version of the partition function of Stratmann and coworkers ('stratmann_sparse').
  | At each grid point, the set of atoms used to build the partition table is smoothly restricted to
  | only those atoms whose free-atom density would be non-zero at that grid point.
  Partitioning for Hartree potential was not defined. Using partition_type for integrals.
  | Adjusted default value of keyword multip_moments_threshold to:       0.10000000E-11
  | This value may affect high angular momentum components of the Hartree potential in periodic systems.
  Using 2025 definition of centers list for evaluation of the Stratmann partition function.
  No q(lm)/r^(l+1) cutoff set for long-range Hartree potential.
  | Using default value of  0.100000E-09 .
  | Verify using the multipole_threshold keyword.
  Defaulting to new monopole extrapolation.
  Density update method: automatic selection selected.
  Using density matrix based charge density update.
  Using density matrix based charge density update.
  Using packed matrix style: index .
  Threshold of packed matrixes:  0.000000E+00
  Defaulting to use time-reversal symmetry for k-point grid.
  Charge integration errors on the 3D integration grid will be compensated
  by explicit normalization and distribution of residual charges.
  Use the "compensate_multipole_errors" flag to change this behaviour.
  You have selected one (or more) of: output band; output band_mulliken; output polarization
  output Z2_invariant; and use_spin_texture_scf in your control.in
  Therefore COMPLEX eigenvectors will be used in the calculation.
  Allocating        0.000 MB for psi_at_nucleus_mod::psi_at_nucleus_atomic
    mem              80 current_memory_estimate              80
  Allocating        0.000 MB for psi_at_nucleus_mod::psi_at_nucleus_hydro
    mem              80 current_memory_estimate             160
  Allocating        0.000 MB for psi_at_nucleus_mod::psi_at_nucleus_ionic
    mem              80 current_memory_estimate             240
  Allocating        0.000 MB for psi_at_nucleus_mod::psi_at_nucleus_gauss
    mem              80 current_memory_estimate             320
  Set 'collect_eigenvectors' to be '.true.' for all serial calculations. This is mandatory.
  Set 'collect_eigenvectors' to be '.true.' for KS_method lapack_fast and serial.
  Found potential conflicts with setting 'use_local_index' for this calculation. Will not set it.
 
  Consistency checks for the contents of geometry.in are next.
 

  Range separation radius for Ewald summation (hartree_convergence_parameter):      2.90111125 bohr.
  Number of empty states per atom not set in control.in - providing a guess from actual geometry.
  | Total number of empty states used during s.c.f. cycle:      162
  If you use a very high smearing, use empty_states (per atom!) in control.in to increase this value.

  Structure-dependent array size parameters: 
  | Maximum number of distinct radial functions  :       16
  | Maximum number of basis functions            :     1404
  | Number of Kohn-Sham states (occupied + empty):      432
------------------------------------------------------------

  Checking k-grid inconsistencies now:
  | k-point density for reciprocal lattice vector 1 is    9.31 nkpts / Angstrom^-1
  | k-point density for reciprocal lattice vector 2 is    9.31 nkpts / Angstrom^-1
  | k-point density for reciprocal lattice vector 3 is    9.31 nkpts / Angstrom^-1

  | Ratio of k-point densities for reciprocal lattice vectors 1 vs 2 is    1.00
  | Ratio of k-point densities for reciprocal lattice vectors 1 vs 3 is    1.00
  | Ratio of k-point densities for reciprocal lattice vectors 2 vs 3 is    1.00

  * The specified k_grid leads to a nearly homogenous k-grid density in non-vacuum directions,
  * and seems sensible.

  | Checks passed.
  After read_input_data [GB]:    495.92

  Performing system and environment tests:
  | Environment variable OMP_NUM_THREADS correctly set to 1.
  | Checking for ScaLAPACK...
  | Testing pdtran()...
  | All pdtran() tests passed.
  | Testing CPU compatibility for run-time vs. build-time.
  | Reading /proc/cpuinfo for CPU information ...
  | Built for  : AMD EPYC 9554 64-Core Processor
  | Running on : AMD EPYC 9554 64-Core Processor
  | Runtime CPU compatibility verified.
  
  After prepare_system [GB]:    495.82

------------------------------------------------------------
          Preparing all fixed parts of the calculation.
------------------------------------------------------------
  Determining machine precision:
    2.225073858507201E-308
  Setting up grids for atomic and cluster calculations.

  Creating wave function, potential, and density for free atoms.
  Runtime choices for atomic solver:
  | atomic solver xc        : PBEsol
  | compute density gradient: 1
  | compute kinetic density : F

  Species: Mg

  List of occupied orbitals and eigenvalues:
    n    l              occ      energy [Ha]    energy [eV]
    1    0           2.0000       -46.254657     -1258.6533
    2    0           2.0000        -2.924408       -79.5772
    3    0           2.0000        -0.171366        -4.6631
    2    1           6.0000        -1.709890       -46.5285


  Species: O

  List of occupied orbitals and eigenvalues:
    n    l              occ      energy [Ha]    energy [eV]
    1    0           2.0000       -18.856576      -513.1135
    2    0           2.0000        -0.874917       -23.8077
    2    1           4.0000        -0.329738        -8.9726


  Adding cutoff potential to free-atom effective potential.
  Creating fixed part of basis set: Ionic, confined, hydrogenic.
 
  Mg                   ion:
  Runtime choices for ionic solver:
  | ionic solver xc        : PBEsol

  List of free ionic orbitals and eigenvalues:
    n    l      energy [Ha]    energy [eV]
    1    0       -47.008739     -1279.1729
    2    0        -3.662638       -99.6654
    2    1        -2.446692       -66.5779


  List of ionic basis orbitals and eigenvalues:
    n    l      energy [Ha]    energy [eV]    outer radius [A]
    3    2        -0.256688        -6.9848       6.433556

 
  Mg                   hydrogenic:
 
  List of hydrogenic basis orbitals: 
    n    l      effective z      eigenvalue [eV]  inner max. [A]     outer max. [A]     outer radius [A]   
    2    1         1.500000        -7.6477           1.412879           1.412879           6.433556
    3    0         2.400000        -8.6076           0.162319           2.871052           6.433556
    4    3         4.300000       -15.7168           1.965416           1.965416           6.433556
 
 
  O                    hydrogenic:
 
  List of hydrogenic basis orbitals: 
    n    l      effective z      eigenvalue [eV]  inner max. [A]     outer max. [A]     outer radius [A]   
    2    1         1.800000       -11.0118           1.178562           1.178562           5.432602
    3    2         7.600000       -87.3182           0.624125           0.624125           3.541477
    3    0         6.400000       -61.9209           0.061167           1.081902           4.306578
    4    3        11.600000      -114.4238           0.731631           0.731631           3.585037
 
  List of extra hydrogenic orbitals for auxiliary basis: 
    n    l      effective z      eigenvalue [eV]  inner max. [A]     outer max. [A]     outer radius [A]   
    5    4        17.600000      -168.5799           0.749740           0.749740           3.372465
 
  Creating atomic-like basis functions for current effective potential.

  Species Mg                  :

  List of atomic basis orbitals and eigenvalues:
    n    l      energy [Ha]    energy [eV]    outer radius [A]
    1    0       -46.254657     -1258.6533       0.932375
    2    0        -2.924408       -79.5772       3.621735
    3    0        -0.171366        -4.6631       6.355385
    2    1        -1.709890       -46.5285       4.513184


  Species O                   :

  List of atomic basis orbitals and eigenvalues:
    n    l      energy [Ha]    energy [eV]    outer radius [A]
    1    0       -18.856576      -513.1135       1.415765
    2    0        -0.874917       -23.8077       5.048385
    2    1        -0.329738        -8.9726       5.301386

  Assembling full basis from fixed parts.
  Allocating        0.000 MB for shrink_fixed_basis_phi_thresh::psi_at_nucleus
    mem             128 current_memory_estimate             448
  | Species Mg :   atomic orbital   1 s accepted.
  | Species Mg :   atomic orbital   2 s accepted.
  | Species Mg :   atomic orbital   3 s accepted.
  | Species Mg :    hydro orbital   3 s accepted.
  | Species Mg :   atomic orbital   2 p accepted.
  | Species Mg :    hydro orbital   2 p accepted.
  | Species Mg :    ionic orbital   3 d accepted.
  | Species Mg :    hydro orbital   4 f accepted.
  | Species O :   atomic orbital   1 s accepted.
  | Species O :    hydro orbital   3 s accepted.
  | Species O :   atomic orbital   2 s accepted.
  | Species O :   atomic orbital   2 p accepted.
  | Species O :    hydro orbital   2 p accepted.
  | Species O :    hydro orbital   3 d accepted.
  | Species O :    hydro orbital   4 f accepted.
 
  Basis size parameters after reduction:
  | Total number of radial functions:       15
  | Total number of basis functions :     1161
 
  Assembling extended basis for auxiliary basis.
  | Species Mg :   atomic orbital   1 s accepted.
  | Species Mg :   atomic orbital   2 s accepted.
  | Species Mg :   atomic orbital   3 s accepted.
  | Species Mg :    hydro orbital   3 s accepted.
  | Species Mg :   atomic orbital   2 p accepted.
  | Species Mg :    hydro orbital   2 p accepted.
  | Species Mg :    ionic orbital   3 d accepted.
  | Species Mg :    hydro orbital   4 f accepted.
  | Species O :   atomic orbital   1 s accepted.
  | Species O :    hydro orbital   3 s accepted.
  | Species O :   atomic orbital   2 s accepted.
  | Species O :   atomic orbital   2 p accepted.
  | Species O :    hydro orbital   2 p accepted.
  | Species O :    hydro orbital   3 d accepted.
  | Species O :    hydro orbital   4 f accepted.
  | Species O :    hydro orbital   5 g accepted.
  Per-task memory consumption for arrays in subroutine allocate_ext:
  |           5.497096MB.
 
  Extended basis size parameters after reduction:
  | Total number of radial functions:       16
  | Total number of basis functions :     1404
 
  Testing on-site integration grid accuracy.
  |  Species  Function  <phi|h_atom|phi> (log., in eV)  <phi|h_atom|phi> (rad., in eV)
           1        1              -1258.6532676216              -1258.6532484744
           1        2                -79.5771797993                -79.5771795128
           1        3                 -4.6637377766                 -4.6637712397
           1        4                  2.7898252397                  2.7890862290
           1        5                -46.5284717602                -46.5284716807
           1        6                 -0.7358062439                 -0.7358775435
           1        7                  3.3105754701                  3.3103602550
           1        8                  9.9659781853                  9.9658534980
           2        9               -513.1135426335               -513.1135381065
           2       10                 15.2033728996                 15.2033659762
           2       11                -21.4071248108                -21.4071290296
           2       12                 -8.9726634544                 -8.9726636634
           2       13                  8.0245740532                  8.0245701723
           2       14                 45.8617855537                 45.8617855346
           2       15                 85.4064222961                 85.4064223248

  Preparing densities etc. for the partition functions (integrals / Hartree potential).

  Preparations completed.
  max(cpu_time)          :      0.147 s.
  Wall clock time (cpu1) :      0.148 s.
------------------------------------------------------------
  After prepare_scf [GB]:    490.26

  Initializing index lists of integration centers etc. from given atomic structure:
  Mapping all atomic coordinates to central unit cell.

  Initializing the k-points
  Using symmetry for reducing the k-points
  | k-points reduced from:      512 to      260
  | Number of k-points                             :       260
  The eigenvectors in the calculations are COMPLEX.
  | K-points in task   0:         1
  | K-points in task   1:         2
  | K-points in task   2:         2
  | K-points in task   3:         2
  | K-points in task   4:         2
  | K-points in task   5:         1
  | K-points in task   6:         1
  | K-points in task   7:         1
  | K-points in task   8:         1
  | K-points in task   9:         1
  | K-points in task  10:         1
  | K-points in task  11:         1
  | K-points in task  12:         1
  | K-points in task  13:         1
  | K-points in task  14:         1
  | K-points in task  15:         1
  | K-points in task  16:         1
  | K-points in task  17:         1
  | K-points in task  18:         1
  | K-points in task  19:         1
  | K-points in task  20:         1
  | K-points in task  21:         1
  | K-points in task  22:         1
  | K-points in task  23:         1
  | K-points in task  24:         1
  | K-points in task  25:         1
  | K-points in task  26:         1
  | K-points in task  27:         1
  | K-points in task  28:         1
  | K-points in task  29:         1
  | K-points in task  30:         1
  | K-points in task  31:         1
  | K-points in task  32:         1
  | K-points in task  33:         1
  | K-points in task  34:         1
  | K-points in task  35:         1
  | K-points in task  36:         1
  | K-points in task  37:         1
  | K-points in task  38:         1
  | K-points in task  39:         1
  | K-points in task  40:         1
  | K-points in task  41:         1
  | K-points in task  42:         1
  | K-points in task  43:         1
  | K-points in task  44:         1
  | K-points in task  45:         1
  | K-points in task  46:         1
  | K-points in task  47:         1
  | K-points in task  48:         1
  | K-points in task  49:         1
  | K-points in task  50:         1
  | K-points in task  51:         1
  | K-points in task  52:         1
  | K-points in task  53:         1
  | K-points in task  54:         1
  | K-points in task  55:         1
  | K-points in task  56:         1
  | K-points in task  57:         1
  | K-points in task  58:         1
  | K-points in task  59:         1
  | K-points in task  60:         1
  | K-points in task  61:         1
  | K-points in task  62:         1
  | K-points in task  63:         1
  | K-points in task  64:         1
  | K-points in task  65:         1
  | K-points in task  66:         1
  | K-points in task  67:         1
  | K-points in task  68:         1
  | K-points in task  69:         1
  | K-points in task  70:         1
  | K-points in task  71:         1
  | K-points in task  72:         1
  | K-points in task  73:         1
  | K-points in task  74:         1
  | K-points in task  75:         1
  | K-points in task  76:         1
  | K-points in task  77:         1
  | K-points in task  78:         1
  | K-points in task  79:         1
  | K-points in task  80:         1
  | K-points in task  81:         1
  | K-points in task  82:         1
  | K-points in task  83:         1
  | K-points in task  84:         1
  | K-points in task  85:         1
  | K-points in task  86:         1
  | K-points in task  87:         1
  | K-points in task  88:         1
  | K-points in task  89:         1
  | K-points in task  90:         1
  | K-points in task  91:         1
  | K-points in task  92:         1
  | K-points in task  93:         1
  | K-points in task  94:         1
  | K-points in task  95:         1
  | K-points in task  96:         1
  | K-points in task  97:         1
  | K-points in task  98:         1
  | K-points in task  99:         1
  | K-points in task 100:         1
  | K-points in task 101:         1
  | K-points in task 102:         1
  | K-points in task 103:         1
  | K-points in task 104:         1
  | K-points in task 105:         1
  | K-points in task 106:         1
  | K-points in task 107:         1
  | K-points in task 108:         1
  | K-points in task 109:         1
  | K-points in task 110:         1
  | K-points in task 111:         1
  | K-points in task 112:         1
  | K-points in task 113:         1
  | K-points in task 114:         1
  | K-points in task 115:         1
  | K-points in task 116:         1
  | K-points in task 117:         1
  | K-points in task 118:         1
  | K-points in task 119:         1
  | K-points in task 120:         1
  | K-points in task 121:         1
  | K-points in task 122:         1
  | K-points in task 123:         1
  | K-points in task 124:         1
  | K-points in task 125:         1
  | K-points in task 126:         1
  | K-points in task 127:         1
  | K-points in task 128:         1
  | K-points in task 129:         1
  | K-points in task 130:         1
  | K-points in task 131:         1
  | K-points in task 132:         1
  | K-points in task 133:         1
  | K-points in task 134:         1
  | K-points in task 135:         1
  | K-points in task 136:         1
  | K-points in task 137:         1
  | K-points in task 138:         1
  | K-points in task 139:         1
  | K-points in task 140:         1
  | K-points in task 141:         1
  | K-points in task 142:         1
  | K-points in task 143:         1
  | K-points in task 144:         1
  | K-points in task 145:         1
  | K-points in task 146:         1
  | K-points in task 147:         1
  | K-points in task 148:         1
  | K-points in task 149:         1
  | K-points in task 150:         1
  | K-points in task 151:         1
  | K-points in task 152:         1
  | K-points in task 153:         1
  | K-points in task 154:         1
  | K-points in task 155:         1
  | K-points in task 156:         1
  | K-points in task 157:         1
  | K-points in task 158:         1
  | K-points in task 159:         1
  | K-points in task 160:         1
  | K-points in task 161:         1
  | K-points in task 162:         1
  | K-points in task 163:         1
  | K-points in task 164:         1
  | K-points in task 165:         1
  | K-points in task 166:         1
  | K-points in task 167:         1
  | K-points in task 168:         1
  | K-points in task 169:         1
  | K-points in task 170:         1
  | K-points in task 171:         1
  | K-points in task 172:         1
  | K-points in task 173:         1
  | K-points in task 174:         1
  | K-points in task 175:         1
  | K-points in task 176:         1
  | K-points in task 177:         1
  | K-points in task 178:         1
  | K-points in task 179:         1
  | K-points in task 180:         1
  | K-points in task 181:         1
  | K-points in task 182:         1
  | K-points in task 183:         1
  | K-points in task 184:         1
  | K-points in task 185:         1
  | K-points in task 186:         1
  | K-points in task 187:         1
  | K-points in task 188:         1
  | K-points in task 189:         1
  | K-points in task 190:         1
  | K-points in task 191:         1
  | K-points in task 192:         1
  | K-points in task 193:         1
  | K-points in task 194:         1
  | K-points in task 195:         1
  | K-points in task 196:         1
  | K-points in task 197:         1
  | K-points in task 198:         1
  | K-points in task 199:         1
  | K-points in task 200:         1
  | K-points in task 201:         1
  | K-points in task 202:         1
  | K-points in task 203:         1
  | K-points in task 204:         1
  | K-points in task 205:         1
  | K-points in task 206:         1
  | K-points in task 207:         1
  | K-points in task 208:         1
  | K-points in task 209:         1
  | K-points in task 210:         1
  | K-points in task 211:         1
  | K-points in task 212:         1
  | K-points in task 213:         1
  | K-points in task 214:         1
  | K-points in task 215:         1
  | K-points in task 216:         1
  | K-points in task 217:         1
  | K-points in task 218:         1
  | K-points in task 219:         1
  | K-points in task 220:         1
  | K-points in task 221:         1
  | K-points in task 222:         1
  | K-points in task 223:         1
  | K-points in task 224:         1
  | K-points in task 225:         1
  | K-points in task 226:         1
  | K-points in task 227:         1
  | K-points in task 228:         1
  | K-points in task 229:         1
  | K-points in task 230:         1
  | K-points in task 231:         1
  | K-points in task 232:         1
  | K-points in task 233:         1
  | K-points in task 234:         1
  | K-points in task 235:         1
  | K-points in task 236:         1
  | K-points in task 237:         1
  | K-points in task 238:         1
  | K-points in task 239:         1
  | K-points in task 240:         1
  | K-points in task 241:         1
  | K-points in task 242:         1
  | K-points in task 243:         1
  | K-points in task 244:         1
  | K-points in task 245:         1
  | K-points in task 246:         1
  | K-points in task 247:         1
  | K-points in task 248:         1
  | K-points in task 249:         1
  | K-points in task 250:         1
  | K-points in task 251:         1
  | K-points in task 252:         1
  | K-points in task 253:         1
  | K-points in task 254:         1
  | K-points in task 255:         1
  | Number of basis functions in the Hamiltonian integrals       :     14226
  | Number of basis functions in a single unit cell              :      1161
  | Number of centers in hartree potential                       :      3127
  | Number of centers in hartree multipole                       :      2968
  | Number of centers in electron density summation              :      2364
  | Number of centers in basis integrals                         :      2514
  | Number of centers in integrals                               :       921
  | Number of centers in hamiltonian                             :      2676
  | Number of centers in partition table from touching 0-cell    :      1475
  | Number of centers in partition table total                   :      3484
  Allocating        0.006 MB for centers_basis_integrals_other
    mem            6372 current_memory_estimate            6820
  Allocating        0.008 MB for centers_partition_other
    mem            8036 current_memory_estimate           14856
  Allocating        0.071 MB for inv_centers_basis_integrals
    mem           74088 current_memory_estimate           88944
  Allocating        0.071 MB for inv_centers_in_hamiltonian
    mem           74088 current_memory_estimate          163032
  Deallocating        0.006 MB for centers_basis_integrals_other
    mem            6372 current_memory_estimate          156660
  Deallocating        0.008 MB for centers_partition_other
    mem            8036 current_memory_estimate          148624
  | Consuming        406 KiB for k_phase.
  Allocating       25.684 MB for column_index_hamiltonian
    mem        26931856 current_memory_estimate        27080480
  | Number of super-cells (origin) [n_cells]                     :         343
  | Number of super-cells (after PM_index) [n_cells]             :         100
  | Number of super-cells in hamiltonian [n_cells_in_hamiltonian]:         100
  | Size of matrix packed + index [n_hamiltonian_matrix_size]    :     6732964
  After initialize_bc_dependent_lists [GB]:    488.61

------------------------------------------------------------
          Begin self-consistency loop: Initialization.

          Date     :  20260606, Time     :  213324.311
------------------------------------------------------------
  Available memory per node after initialize_hartree_non_periodic_ewald [GB]:    488.61
  | Estimated reciprocal-space cutoff momentum G_max:         3.44585923 bohr^-1 .
  | Reciprocal lattice points for long-range Hartree potential:    2420
  Available memory per node after initialize_recip_hartree_potential [GB]:    488.61
  Available memory per node after initialize_scalapack [GB]:    488.61
  Available memory per node after aims_elsi_init_scf [GB]:    488.61
  Available memory per node after initialize_fixed_grids [GB]:    488.75
  Allocating        0.099 MB for all_coords
    mem          103872 current_memory_estimate        27184352
  Allocating        0.033 MB for point_weight
    mem           34624 current_memory_estimate        27218976
  Allocating        0.017 MB for grid_partition
    mem           17312 current_memory_estimate        27236288
  Partitioning the integration grid into batches with parallel hashing+maxmin method.
  Deallocating        0.033 MB for point_weight
    mem           34624 current_memory_estimate        27201664
  Allocating        0.055 MB for batch_sizes
    mem           58128 current_memory_estimate        27259792
  Allocating        0.333 MB for batch_coords
    mem          348768 current_memory_estimate        27608560
  | Number of batches:    14532
  | Maximal batch size:     120
  | Minimal batch size:      49
  | Average batch size:      68.797
  | Standard deviation of batch sizes:      16.717

  Integration load balanced across   256 MPI tasks.
  Work distribution over tasks is as follows:
  Task     0 has       3882 integration points.
  Task     1 has       3915 integration points.
  Task     2 has       3927 integration points.
  Task     3 has       3899 integration points.
  Task     4 has       3926 integration points.
  Task     5 has       3909 integration points.
  Task     6 has       3911 integration points.
  Task     7 has       3923 integration points.
  Task     8 has       3906 integration points.
  Task     9 has       3917 integration points.
  Task    10 has       3898 integration points.
  Task    11 has       3927 integration points.
  Task    12 has       3869 integration points.
  Task    13 has       3922 integration points.
  Task    14 has       3908 integration points.
  Task    15 has       3908 integration points.
  Task    16 has       3922 integration points.
  Task    17 has       3925 integration points.
  Task    18 has       3924 integration points.
  Task    19 has       3920 integration points.
  Task    20 has       3913 integration points.
  Task    21 has       3882 integration points.
  Task    22 has       3919 integration points.
  Task    23 has       3911 integration points.
  Task    24 has       3911 integration points.
  Task    25 has       3907 integration points.
  Task    26 has       3888 integration points.
  Task    27 has       3909 integration points.
  Task    28 has       3912 integration points.
  Task    29 has       3906 integration points.
  Task    30 has       3913 integration points.
  Task    31 has       3900 integration points.
  Task    32 has       3896 integration points.
  Task    33 has       3869 integration points.
  Task    34 has       3926 integration points.
  Task    35 has       3924 integration points.
  Task    36 has       3867 integration points.
  Task    37 has       3913 integration points.
  Task    38 has       3902 integration points.
  Task    39 has       3871 integration points.
  Task    40 has       3914 integration points.
  Task    41 has       3904 integration points.
  Task    42 has       3924 integration points.
  Task    43 has       3912 integration points.
  Task    44 has       3887 integration points.
  Task    45 has       3906 integration points.
  Task    46 has       3917 integration points.
  Task    47 has       3927 integration points.
  Task    48 has       3925 integration points.
  Task    49 has       3915 integration points.
  Task    50 has       3925 integration points.
  Task    51 has       3907 integration points.
  Task    52 has       3899 integration points.
  Task    53 has       3929 integration points.
  Task    54 has       3908 integration points.
  Task    55 has       3921 integration points.
  Task    56 has       3923 integration points.
  Task    57 has       3916 integration points.
  Task    58 has       3925 integration points.
  Task    59 has       3920 integration points.
  Task    60 has       3925 integration points.
  Task    61 has       3891 integration points.
  Task    62 has       3901 integration points.
  Task    63 has       3888 integration points.
  Task    64 has       3929 integration points.
  Task    65 has       3915 integration points.
  Task    66 has       3887 integration points.
  Task    67 has       3868 integration points.
  Task    68 has       3913 integration points.
  Task    69 has       3897 integration points.
  Task    70 has       3908 integration points.
  Task    71 has       3914 integration points.
  Task    72 has       3875 integration points.
  Task    73 has       3928 integration points.
  Task    74 has       3901 integration points.
  Task    75 has       3890 integration points.
  Task    76 has       3886 integration points.
  Task    77 has       3923 integration points.
  Task    78 has       3876 integration points.
  Task    79 has       3908 integration points.
  Task    80 has       3925 integration points.
  Task    81 has       3882 integration points.
  Task    82 has       3914 integration points.
  Task    83 has       3885 integration points.
  Task    84 has       3923 integration points.
  Task    85 has       3914 integration points.
  Task    86 has       3878 integration points.
  Task    87 has       3910 integration points.
  Task    88 has       3926 integration points.
  Task    89 has       3918 integration points.
  Task    90 has       3886 integration points.
  Task    91 has       3869 integration points.
  Task    92 has       3897 integration points.
  Task    93 has       3877 integration points.
  Task    94 has       3916 integration points.
  Task    95 has       3926 integration points.
  Task    96 has       3860 integration points.
  Task    97 has       3923 integration points.
  Task    98 has       3913 integration points.
  Task    99 has       3927 integration points.
  Task   100 has       3902 integration points.
  Task   101 has       3912 integration points.
  Task   102 has       3916 integration points.
  Task   103 has       3888 integration points.
  Task   104 has       3911 integration points.
  Task   105 has       3878 integration points.
  Task   106 has       3925 integration points.
  Task   107 has       3881 integration points.
  Task   108 has       3927 integration points.
  Task   109 has       3926 integration points.
  Task   110 has       3878 integration points.
  Task   111 has       3908 integration points.
  Task   112 has       3922 integration points.
  Task   113 has       3900 integration points.
  Task   114 has       3860 integration points.
  Task   115 has       3909 integration points.
  Task   116 has       3914 integration points.
  Task   117 has       3921 integration points.
  Task   118 has       3887 integration points.
  Task   119 has       3896 integration points.
  Task   120 has       3901 integration points.
  Task   121 has       3909 integration points.
  Task   122 has       3889 integration points.
  Task   123 has       3899 integration points.
  Task   124 has       3880 integration points.
  Task   125 has       3903 integration points.
  Task   126 has       3925 integration points.
  Task   127 has       3924 integration points.
  Task   128 has       3922 integration points.
  Task   129 has       3925 integration points.
  Task   130 has       3884 integration points.
  Task   131 has       3888 integration points.
  Task   132 has       3918 integration points.
  Task   133 has       3925 integration points.
  Task   134 has       3866 integration points.
  Task   135 has       3911 integration points.
  Task   136 has       3865 integration points.
  Task   137 has       3898 integration points.
  Task   138 has       3898 integration points.
  Task   139 has       3856 integration points.
  Task   140 has       3912 integration points.
  Task   141 has       3913 integration points.
  Task   142 has       3910 integration points.
  Task   143 has       3879 integration points.
  Task   144 has       3923 integration points.
  Task   145 has       3927 integration points.
  Task   146 has       3915 integration points.
  Task   147 has       3885 integration points.
  Task   148 has       3884 integration points.
  Task   149 has       3912 integration points.
  Task   150 has       3924 integration points.
  Task   151 has       3927 integration points.
  Task   152 has       3909 integration points.
  Task   153 has       3901 integration points.
  Task   154 has       3897 integration points.
  Task   155 has       3858 integration points.
  Task   156 has       3883 integration points.
  Task   157 has       3912 integration points.
  Task   158 has       3900 integration points.
  Task   159 has       3910 integration points.
  Task   160 has       3914 integration points.
  Task   161 has       3925 integration points.
  Task   162 has       3914 integration points.
  Task   163 has       3865 integration points.
  Task   164 has       3882 integration points.
  Task   165 has       3907 integration points.
  Task   166 has       3904 integration points.
  Task   167 has       3924 integration points.
  Task   168 has       3926 integration points.
  Task   169 has       3883 integration points.
  Task   170 has       3870 integration points.
  Task   171 has       3899 integration points.
  Task   172 has       3909 integration points.
  Task   173 has       3897 integration points.
  Task   174 has       3912 integration points.
  Task   175 has       3923 integration points.
  Task   176 has       3890 integration points.
  Task   177 has       3903 integration points.
  Task   178 has       3925 integration points.
  Task   179 has       3911 integration points.
  Task   180 has       3874 integration points.
  Task   181 has       3919 integration points.
  Task   182 has       3884 integration points.
  Task   183 has       3914 integration points.
  Task   184 has       3929 integration points.
  Task   185 has       3924 integration points.
  Task   186 has       3878 integration points.
  Task   187 has       3899 integration points.
  Task   188 has       3921 integration points.
  Task   189 has       3902 integration points.
  Task   190 has       3927 integration points.
  Task   191 has       3923 integration points.
  Task   192 has       3916 integration points.
  Task   193 has       3879 integration points.
  Task   194 has       3904 integration points.
  Task   195 has       3928 integration points.
  Task   196 has       3900 integration points.
  Task   197 has       3885 integration points.
  Task   198 has       3884 integration points.
  Task   199 has       3925 integration points.
  Task   200 has       3895 integration points.
  Task   201 has       3900 integration points.
  Task   202 has       3923 integration points.
  Task   203 has       3922 integration points.
  Task   204 has       3913 integration points.
  Task   205 has       3888 integration points.
  Task   206 has       3897 integration points.
  Task   207 has       3920 integration points.
  Task   208 has       3910 integration points.
  Task   209 has       3913 integration points.
  Task   210 has       3925 integration points.
  Task   211 has       3883 integration points.
  Task   212 has       3910 integration points.
  Task   213 has       3901 integration points.
  Task   214 has       3885 integration points.
  Task   215 has       3924 integration points.
  Task   216 has       3924 integration points.
  Task   217 has       3912 integration points.
  Task   218 has       3886 integration points.
  Task   219 has       3886 integration points.
  Task   220 has       3924 integration points.
  Task   221 has       3922 integration points.
  Task   222 has       3922 integration points.
  Task   223 has       3881 integration points.
  Task   224 has       3925 integration points.
  Task   225 has       3884 integration points.
  Task   226 has       3870 integration points.
  Task   227 has       3925 integration points.
  Task   228 has       3889 integration points.
  Task   229 has       3881 integration points.
  Task   230 has       3906 integration points.
  Task   231 has       3923 integration points.
  Task   232 has       3913 integration points.
  Task   233 has       3916 integration points.
  Task   234 has       3899 integration points.
  Task   235 has       3920 integration points.
  Task   236 has       3918 integration points.
  Task   237 has       3909 integration points.
  Task   238 has       3916 integration points.
  Task   239 has       3912 integration points.
  Task   240 has       3897 integration points.
  Task   241 has       3914 integration points.
  Task   242 has       3881 integration points.
  Task   243 has       3914 integration points.
  Task   244 has       3896 integration points.
  Task   245 has       3912 integration points.
  Task   246 has       3885 integration points.
  Task   247 has       3873 integration points.
  Task   248 has       3898 integration points.
  Task   249 has       3921 integration points.
  Task   250 has       3916 integration points.
  Task   251 has       3906 integration points.
  Task   252 has       3926 integration points.
  Task   253 has       3915 integration points.
  Task   254 has       3922 integration points.
  Task   255 has       3909 integration points.
  Deallocating        0.099 MB for all_coords
    mem          103872 current_memory_estimate        27504688
  Deallocating        0.055 MB for batch_sizes
    mem           58128 current_memory_estimate        27446560
  Deallocating        0.333 MB for batch_coords
    mem          348768 current_memory_estimate        27097792
  Deallocating        0.017 MB for grid_partition
    mem           17312 current_memory_estimate        27080480
  Available memory per node after partition_grid [GB]:    488.84
  Initializing partition tables, free-atom densities, potentials, etc. across the integration grid (initialize_grid_storage).
  | initialize_grid_storage: Actual outermost partition radius vs. multipole_radius_free
  | (-- VB: in principle, multipole_radius_free should be larger, hence this output)
  | Species        1: Confinement radius =              7.000000000000000 AA, multipole_radius_free =              7.008349926986249 AA.
  | Species        1: outer_partition_radius set to              7.008349926986249 AA .
  | Species        2: Confinement radius =              6.000000000000000 AA, multipole_radius_free =              6.064445521808699 AA.
  | Species        2: outer_partition_radius set to              6.064445521808699 AA .
  Allocating        0.000 MB for atom_atom_tab
    mem               8 current_memory_estimate        27080488
  Allocating        0.013 MB for atom_atom_index
    mem           13936 current_memory_estimate        27094424
  Allocating        0.027 MB for min_atom_atom_tab
    mem           27872 current_memory_estimate        27122296
  | The sparse table of interatomic distances needs      50841.33 kbyte instead of     97106.05 kbyte of memory.
  | Net number of integration points:   999756
  | of which are non-zero points    :   661068
  | Numerical average free-atom electrostatic potential    :    -17.88409672 eV
  Deallocating        0.027 MB for min_atom_atom_tab
    mem           27872 current_memory_estimate        27094424
  Deallocating        0.013 MB for atom_atom_index
    mem           13936 current_memory_estimate        27080488
  Deallocating        0.000 MB for atom_atom_tab
    mem               8 current_memory_estimate        27080480
  Available memory per node after initialize_grid_storage_p1 [GB]:    488.76
  Renormalizing the initial density to the exact electron count on the 3D integration grid.
  | Initial density: Formal number of electrons (from input files) :     540.0000000000
  | Integrated number of electrons on 3D grid     :     540.0311139520
  | Charge integration error                      :       0.0311139520
  | Normalization factor for density and gradient :       0.9999423849
  Renormalizing the free-atom superposition density to the exact electron count on the 3D integration grid.
  | Formal number of electrons (from input files) :     540.0000000000
  | Integrated number of electrons on 3D grid     :     540.0311139520
  | Charge integration error                      :       0.0311139520
  | Normalization factor for density and gradient :       0.9999423849
  Obtaining max. number of non-zero basis functions in each batch (get_n_compute_maxes).
  | Maximal number of non-zero basis functions:     1868 in task     0
  | Maximal number of non-zero basis functions:     1860 in task     1
  | Maximal number of non-zero basis functions:     1882 in task     2
  | Maximal number of non-zero basis functions:     1869 in task     3
  | Maximal number of non-zero basis functions:     1899 in task     4
  | Maximal number of non-zero basis functions:     1862 in task     5
  | Maximal number of non-zero basis functions:     1875 in task     6
  | Maximal number of non-zero basis functions:     1874 in task     7
  | Maximal number of non-zero basis functions:     1904 in task     8
  | Maximal number of non-zero basis functions:     1866 in task     9
  | Maximal number of non-zero basis functions:     1844 in task    10
  | Maximal number of non-zero basis functions:     1879 in task    11
  | Maximal number of non-zero basis functions:     1843 in task    12
  | Maximal number of non-zero basis functions:     1874 in task    13
  | Maximal number of non-zero basis functions:     1870 in task    14
  | Maximal number of non-zero basis functions:     1868 in task    15
  | Maximal number of non-zero basis functions:     1841 in task    16
  | Maximal number of non-zero basis functions:     1867 in task    17
  | Maximal number of non-zero basis functions:     1883 in task    18
  | Maximal number of non-zero basis functions:     1866 in task    19
  | Maximal number of non-zero basis functions:     1895 in task    20
  | Maximal number of non-zero basis functions:     1865 in task    21
  | Maximal number of non-zero basis functions:     1851 in task    22
  | Maximal number of non-zero basis functions:     1862 in task    23
  | Maximal number of non-zero basis functions:     1849 in task    24
  | Maximal number of non-zero basis functions:     1904 in task    25
  | Maximal number of non-zero basis functions:     1860 in task    26
  | Maximal number of non-zero basis functions:     1879 in task    27
  | Maximal number of non-zero basis functions:     1862 in task    28
  | Maximal number of non-zero basis functions:     1859 in task    29
  | Maximal number of non-zero basis functions:     1872 in task    30
  | Maximal number of non-zero basis functions:     1845 in task    31
  | Maximal number of non-zero basis functions:     1876 in task    32
  | Maximal number of non-zero basis functions:     1845 in task    33
  | Maximal number of non-zero basis functions:     1883 in task    34
  | Maximal number of non-zero basis functions:     1848 in task    35
  | Maximal number of non-zero basis functions:     1855 in task    36
  | Maximal number of non-zero basis functions:     1884 in task    37
  | Maximal number of non-zero basis functions:     1847 in task    38
  | Maximal number of non-zero basis functions:     1850 in task    39
  | Maximal number of non-zero basis functions:     1865 in task    40
  | Maximal number of non-zero basis functions:     1876 in task    41
  | Maximal number of non-zero basis functions:     1859 in task    42
  | Maximal number of non-zero basis functions:     1880 in task    43
  | Maximal number of non-zero basis functions:     1868 in task    44
  | Maximal number of non-zero basis functions:     1881 in task    45
  | Maximal number of non-zero basis functions:     1852 in task    46
  | Maximal number of non-zero basis functions:     1860 in task    47
  | Maximal number of non-zero basis functions:     1876 in task    48
  | Maximal number of non-zero basis functions:     1862 in task    49
  | Maximal number of non-zero basis functions:     1837 in task    50
  | Maximal number of non-zero basis functions:     1854 in task    51
  | Maximal number of non-zero basis functions:     1904 in task    52
  | Maximal number of non-zero basis functions:     1878 in task    53
  | Maximal number of non-zero basis functions:     1868 in task    54
  | Maximal number of non-zero basis functions:     1867 in task    55
  | Maximal number of non-zero basis functions:     1861 in task    56
  | Maximal number of non-zero basis functions:     1891 in task    57
  | Maximal number of non-zero basis functions:     1864 in task    58
  | Maximal number of non-zero basis functions:     1872 in task    59
  | Maximal number of non-zero basis functions:     1879 in task    60
  | Maximal number of non-zero basis functions:     1874 in task    61
  | Maximal number of non-zero basis functions:     1863 in task    62
  | Maximal number of non-zero basis functions:     1872 in task    63
  | Maximal number of non-zero basis functions:     1881 in task    64
  | Maximal number of non-zero basis functions:     1889 in task    65
  | Maximal number of non-zero basis functions:     1868 in task    66
  | Maximal number of non-zero basis functions:     1870 in task    67
  | Maximal number of non-zero basis functions:     1869 in task    68
  | Maximal number of non-zero basis functions:     1915 in task    69
  | Maximal number of non-zero basis functions:     1874 in task    70
  | Maximal number of non-zero basis functions:     1856 in task    71
  | Maximal number of non-zero basis functions:     1889 in task    72
  | Maximal number of non-zero basis functions:     1861 in task    73
  | Maximal number of non-zero basis functions:     1896 in task    74
  | Maximal number of non-zero basis functions:     1868 in task    75
  | Maximal number of non-zero basis functions:     1856 in task    76
  | Maximal number of non-zero basis functions:     1879 in task    77
  | Maximal number of non-zero basis functions:     1879 in task    78
  | Maximal number of non-zero basis functions:     1894 in task    79
  | Maximal number of non-zero basis functions:     1882 in task    80
  | Maximal number of non-zero basis functions:     1879 in task    81
  | Maximal number of non-zero basis functions:     1889 in task    82
  | Maximal number of non-zero basis functions:     1868 in task    83
  | Maximal number of non-zero basis functions:     1854 in task    84
  | Maximal number of non-zero basis functions:     1882 in task    85
  | Maximal number of non-zero basis functions:     1872 in task    86
  | Maximal number of non-zero basis functions:     1844 in task    87
  | Maximal number of non-zero basis functions:     1854 in task    88
  | Maximal number of non-zero basis functions:     1858 in task    89
  | Maximal number of non-zero basis functions:     1899 in task    90
  | Maximal number of non-zero basis functions:     1874 in task    91
  | Maximal number of non-zero basis functions:     1858 in task    92
  | Maximal number of non-zero basis functions:     1904 in task    93
  | Maximal number of non-zero basis functions:     1882 in task    94
  | Maximal number of non-zero basis functions:     1865 in task    95
  | Maximal number of non-zero basis functions:     1874 in task    96
  | Maximal number of non-zero basis functions:     1868 in task    97
  | Maximal number of non-zero basis functions:     1865 in task    98
  | Maximal number of non-zero basis functions:     1885 in task    99
  | Maximal number of non-zero basis functions:     1877 in task   100
  | Maximal number of non-zero basis functions:     1864 in task   101
  | Maximal number of non-zero basis functions:     1882 in task   102
  | Maximal number of non-zero basis functions:     1857 in task   103
  | Maximal number of non-zero basis functions:     1883 in task   104
  | Maximal number of non-zero basis functions:     1881 in task   105
  | Maximal number of non-zero basis functions:     1904 in task   106
  | Maximal number of non-zero basis functions:     1889 in task   107
  | Maximal number of non-zero basis functions:     1861 in task   108
  | Maximal number of non-zero basis functions:     1869 in task   109
  | Maximal number of non-zero basis functions:     1869 in task   110
  | Maximal number of non-zero basis functions:     1910 in task   111
  | Maximal number of non-zero basis functions:     1889 in task   112
  | Maximal number of non-zero basis functions:     1880 in task   113
  | Maximal number of non-zero basis functions:     1859 in task   114
  | Maximal number of non-zero basis functions:     1872 in task   115
  | Maximal number of non-zero basis functions:     1879 in task   116
  | Maximal number of non-zero basis functions:     1868 in task   117
  | Maximal number of non-zero basis functions:     1894 in task   118
  | Maximal number of non-zero basis functions:     1879 in task   119
  | Maximal number of non-zero basis functions:     1865 in task   120
  | Maximal number of non-zero basis functions:     1873 in task   121
  | Maximal number of non-zero basis functions:     1849 in task   122
  | Maximal number of non-zero basis functions:     1869 in task   123
  | Maximal number of non-zero basis functions:     1862 in task   124
  | Maximal number of non-zero basis functions:     1873 in task   125
  | Maximal number of non-zero basis functions:     1881 in task   126
  | Maximal number of non-zero basis functions:     1834 in task   127
  | Maximal number of non-zero basis functions:     1869 in task   128
  | Maximal number of non-zero basis functions:     1873 in task   129
  | Maximal number of non-zero basis functions:     1846 in task   130
  | Maximal number of non-zero basis functions:     1848 in task   131
  | Maximal number of non-zero basis functions:     1879 in task   132
  | Maximal number of non-zero basis functions:     1856 in task   133
  | Maximal number of non-zero basis functions:     1878 in task   134
  | Maximal number of non-zero basis functions:     1883 in task   135
  | Maximal number of non-zero basis functions:     1855 in task   136
  | Maximal number of non-zero basis functions:     1898 in task   137
  | Maximal number of non-zero basis functions:     1874 in task   138
  | Maximal number of non-zero basis functions:     1876 in task   139
  | Maximal number of non-zero basis functions:     1862 in task   140
  | Maximal number of non-zero basis functions:     1901 in task   141
  | Maximal number of non-zero basis functions:     1884 in task   142
  | Maximal number of non-zero basis functions:     1869 in task   143
  | Maximal number of non-zero basis functions:     1867 in task   144
  | Maximal number of non-zero basis functions:     1887 in task   145
  | Maximal number of non-zero basis functions:     1894 in task   146
  | Maximal number of non-zero basis functions:     1873 in task   147
  | Maximal number of non-zero basis functions:     1869 in task   148
  | Maximal number of non-zero basis functions:     1933 in task   149
  | Maximal number of non-zero basis functions:     1871 in task   150
  | Maximal number of non-zero basis functions:     1866 in task   151
  | Maximal number of non-zero basis functions:     1857 in task   152
  | Maximal number of non-zero basis functions:     1868 in task   153
  | Maximal number of non-zero basis functions:     1861 in task   154
  | Maximal number of non-zero basis functions:     1882 in task   155
  | Maximal number of non-zero basis functions:     1868 in task   156
  | Maximal number of non-zero basis functions:     1883 in task   157
  | Maximal number of non-zero basis functions:     1857 in task   158
  | Maximal number of non-zero basis functions:     1879 in task   159
  | Maximal number of non-zero basis functions:     1862 in task   160
  | Maximal number of non-zero basis functions:     1881 in task   161
  | Maximal number of non-zero basis functions:     1888 in task   162
  | Maximal number of non-zero basis functions:     1864 in task   163
  | Maximal number of non-zero basis functions:     1852 in task   164
  | Maximal number of non-zero basis functions:     1885 in task   165
  | Maximal number of non-zero basis functions:     1873 in task   166
  | Maximal number of non-zero basis functions:     1900 in task   167
  | Maximal number of non-zero basis functions:     1891 in task   168
  | Maximal number of non-zero basis functions:     1842 in task   169
  | Maximal number of non-zero basis functions:     1867 in task   170
  | Maximal number of non-zero basis functions:     1878 in task   171
  | Maximal number of non-zero basis functions:     1879 in task   172
  | Maximal number of non-zero basis functions:     1893 in task   173
  | Maximal number of non-zero basis functions:     1877 in task   174
  | Maximal number of non-zero basis functions:     1862 in task   175
  | Maximal number of non-zero basis functions:     1863 in task   176
  | Maximal number of non-zero basis functions:     1858 in task   177
  | Maximal number of non-zero basis functions:     1868 in task   178
  | Maximal number of non-zero basis functions:     1867 in task   179
  | Maximal number of non-zero basis functions:     1861 in task   180
  | Maximal number of non-zero basis functions:     1869 in task   181
  | Maximal number of non-zero basis functions:     1882 in task   182
  | Maximal number of non-zero basis functions:     1850 in task   183
  | Maximal number of non-zero basis functions:     1878 in task   184
  | Maximal number of non-zero basis functions:     1860 in task   185
  | Maximal number of non-zero basis functions:     1864 in task   186
  | Maximal number of non-zero basis functions:     1857 in task   187
  | Maximal number of non-zero basis functions:     1879 in task   188
  | Maximal number of non-zero basis functions:     1853 in task   189
  | Maximal number of non-zero basis functions:     1882 in task   190
  | Maximal number of non-zero basis functions:     1872 in task   191
  | Maximal number of non-zero basis functions:     1873 in task   192
  | Maximal number of non-zero basis functions:     1883 in task   193
  | Maximal number of non-zero basis functions:     1868 in task   194
  | Maximal number of non-zero basis functions:     1871 in task   195
  | Maximal number of non-zero basis functions:     1856 in task   196
  | Maximal number of non-zero basis functions:     1870 in task   197
  | Maximal number of non-zero basis functions:     1871 in task   198
  | Maximal number of non-zero basis functions:     1872 in task   199
  | Maximal number of non-zero basis functions:     1859 in task   200
  | Maximal number of non-zero basis functions:     1872 in task   201
  | Maximal number of non-zero basis functions:     1889 in task   202
  | Maximal number of non-zero basis functions:     1879 in task   203
  | Maximal number of non-zero basis functions:     1868 in task   204
  | Maximal number of non-zero basis functions:     1865 in task   205
  | Maximal number of non-zero basis functions:     1861 in task   206
  | Maximal number of non-zero basis functions:     1857 in task   207
  | Maximal number of non-zero basis functions:     1853 in task   208
  | Maximal number of non-zero basis functions:     1882 in task   209
  | Maximal number of non-zero basis functions:     1869 in task   210
  | Maximal number of non-zero basis functions:     1920 in task   211
  | Maximal number of non-zero basis functions:     1868 in task   212
  | Maximal number of non-zero basis functions:     1880 in task   213
  | Maximal number of non-zero basis functions:     1848 in task   214
  | Maximal number of non-zero basis functions:     1849 in task   215
  | Maximal number of non-zero basis functions:     1880 in task   216
  | Maximal number of non-zero basis functions:     1866 in task   217
  | Maximal number of non-zero basis functions:     1882 in task   218
  | Maximal number of non-zero basis functions:     1868 in task   219
  | Maximal number of non-zero basis functions:     1881 in task   220
  | Maximal number of non-zero basis functions:     1856 in task   221
  | Maximal number of non-zero basis functions:     1880 in task   222
  | Maximal number of non-zero basis functions:     1901 in task   223
  | Maximal number of non-zero basis functions:     1867 in task   224
  | Maximal number of non-zero basis functions:     1874 in task   225
  | Maximal number of non-zero basis functions:     1881 in task   226
  | Maximal number of non-zero basis functions:     1878 in task   227
  | Maximal number of non-zero basis functions:     1852 in task   228
  | Maximal number of non-zero basis functions:     1872 in task   229
  | Maximal number of non-zero basis functions:     1883 in task   230
  | Maximal number of non-zero basis functions:     1875 in task   231
  | Maximal number of non-zero basis functions:     1848 in task   232
  | Maximal number of non-zero basis functions:     1901 in task   233
  | Maximal number of non-zero basis functions:     1879 in task   234
  | Maximal number of non-zero basis functions:     1887 in task   235
  | Maximal number of non-zero basis functions:     1882 in task   236
  | Maximal number of non-zero basis functions:     1873 in task   237
  | Maximal number of non-zero basis functions:     1862 in task   238
  | Maximal number of non-zero basis functions:     1880 in task   239
  | Maximal number of non-zero basis functions:     1859 in task   240
  | Maximal number of non-zero basis functions:     1866 in task   241
  | Maximal number of non-zero basis functions:     1868 in task   242
  | Maximal number of non-zero basis functions:     1881 in task   243
  | Maximal number of non-zero basis functions:     1870 in task   244
  | Maximal number of non-zero basis functions:     1871 in task   245
  | Maximal number of non-zero basis functions:     1857 in task   246
  | Maximal number of non-zero basis functions:     1859 in task   247
  | Maximal number of non-zero basis functions:     1865 in task   248
  | Maximal number of non-zero basis functions:     1896 in task   249
  | Maximal number of non-zero basis functions:     1861 in task   250
  | Maximal number of non-zero basis functions:     1859 in task   251
  | Maximal number of non-zero basis functions:     1889 in task   252
  | Maximal number of non-zero basis functions:     1878 in task   253
  | Maximal number of non-zero basis functions:     1864 in task   254
  | Maximal number of non-zero basis functions:     1882 in task   255
  Available memory per node after get_n_compute_maxes_p1 [GB]:    488.45
  Allocating       51.368 MB for overlap_matrix
    mem        53863712 current_memory_estimate        80944192
  Allocating       51.368 MB for hamiltonian
    mem        53863712 current_memory_estimate       134807904
  Allocating        0.000 MB for KS_eigenvector_soc_perturbed
    mem              16 current_memory_estimate       134807920
  Allocating        0.000 MB for KS_eigenvalue_soc_perturbed
    mem               8 current_memory_estimate       134807928
  Allocating        0.000 MB for occ_numbers_soc
    mem               8 current_memory_estimate       134807936
  Allocating        7.653 MB for KS_eigenvector_complex
    mem         8024832 current_memory_estimate       142832768
  Allocating        0.000 MB for KS_eigenvector
    mem               8 current_memory_estimate       142832776
  Available memory per node after allocate_matrices [GB]:    487.69
  Available memory per node after init_comm_sparse_local_matrix_scalapack [GB]:    487.67
  Integrating Hamiltonian matrix: batch-based integration.
  Allocating        0.043 MB for gradient_basis_wave
    mem           44832 current_memory_estimate       142877608
  Allocating       26.622 MB for hamiltonian_shell
    mem        27915392 current_memory_estimate       170793000
  Allocating        1.710 MB for H_times_psi
    mem         1793280 current_memory_estimate       172586280
  Allocating        1.710 MB for sq_psi
    mem         1793280 current_memory_estimate       174379560
  Allocating        1.710 MB for wave
    mem         1793280 current_memory_estimate       176172840
  Time summed over all CPUs for integration: real work      619.348 s, elapsed      649.983 s
  Deallocating        1.710 MB for H_times_psi
    mem         1793280 current_memory_estimate       174379560
  Deallocating       26.622 MB for hamiltonian_shell
    mem        27915392 current_memory_estimate       146464168
  Deallocating        1.710 MB for wave
    mem         1793280 current_memory_estimate       144670888
  Deallocating        1.710 MB for sq_psi
    mem         1793280 current_memory_estimate       142877608
  Deallocating        0.043 MB for gradient_basis_wave
    mem           44832 current_memory_estimate       142832776
  Available memory per node after integrate hamiltonian matrix [GB]:    472.23
  Integrating overlap matrix.
  Time summed over all CPUs for integration: real work      563.644 s, elapsed      588.713 s
  Available memory per node after integrate ovlp matrix [GB]:    465.08
  Available memory per node after save_overlap_scalapack [GB]:    465.34
  Available memory per node after advance_KS_solution [GB]:    465.34
  Calculating total energy contributions from superposition of free atom densities.
  Initialize hartree_potential_storage
  Max. number of atoms included in rho_multipole:           54

  End scf initialization - timings             :  max(cpu_time)    wall_clock(cpu1)
  | Time for scf. initialization                :        9.418 s          18.896 s
  | Boundary condition initialization           :        0.856 s           0.897 s
  | Integration                                 :        7.749 s           7.833 s
  | Grid partitioning                           :        0.624 s           0.700 s
  | Preloading free-atom quantities on grid     :        0.910 s           0.919 s
  | Free-atom superposition energy              :        0.058 s           0.058 s

  Partial memory accounting:
  | Current value for overall tracked memory usage:
  |   Minimum:      136.216 MB (on task   0)
  |   Maximum:      143.869 MB (on task   1)
  |   Average:      136.336 MB
  | Peak value for overall tracked memory usage:
  |   Minimum:      166.957 MB (on task 127 after allocating wave)
  |   Maximum:      176.641 MB (on task   4 after allocating wave)
  |   Average:      168.249 MB
  | Largest tracked array allocation so far:
  |   Minimum:       51.368 MB (overlap_matrix on task   0)
  |   Maximum:       51.368 MB (overlap_matrix on task   0)
  |   Average:       51.368 MB
  | current_memory_estimate       142832776
  Note:  These values currently only include a subset of arrays which are explicitly tracked.
  The "true" memory usage will be greater.
------------------------------------------------------------
  Available memory after initialize_scf [GB]:    465.20
  Allocating        0.030 MB for rho_diff
    mem           31056 current_memory_estimate       142863832
  Allocating        0.030 MB for delta_rho_KS
    mem           31056 current_memory_estimate       142894888
  Allocating        0.030 MB for rho_KS_save
    mem           31056 current_memory_estimate       142925944
  Allocating        0.089 MB for delta_rho_gradient
    mem           93168 current_memory_estimate       143019112
  Allocating        0.000 MB for delta_kinetic_density
    mem               8 current_memory_estimate       143019120
  Allocating        0.089 MB for rho_gradient_diff
    mem           93168 current_memory_estimate       143112288
  Allocating        0.000 MB for kinetic_density_diff
    mem               8 current_memory_estimate       143112296
  Allocating        0.237 MB for previous_rho_diff
    mem          248448 current_memory_estimate       143360744
  Allocating        0.237 MB for previous_rho_error
    mem          248448 current_memory_estimate       143609192
  Allocating        0.711 MB for previous_rho_gradient_diff
    mem          745344 current_memory_estimate       144354536
  Allocating        0.711 MB for previous_rho_gradient_error
    mem          745344 current_memory_estimate       145099880
  Allocating        0.000 MB for previous_kinetic_density_diff
    mem               8 current_memory_estimate       145099888
  Allocating        0.000 MB for previous_kinetic_density_error
    mem               8 current_memory_estimate       145099896
  Available memory after allocating mixing [GB]:    465.18
  Evaluating new KS density using the density matrix
  Allocating        0.000 MB for density_matrix
    mem               8 current_memory_estimate       145099904
  Evaluating density matrix
  Allocating       20.568 MB for kdm_complex
    mem        21566736 current_memory_estimate       166666640
  Allocating        0.000 MB for kdm
    mem               8 current_memory_estimate       166666648
  Deallocating        0.000 MB for kdm
    mem               8 current_memory_estimate       166666640
  Deallocating       20.568 MB for kdm_complex
    mem        21566736 current_memory_estimate       145099904
  Finished reading density matrices from file
  | Time :      0.585 s

  Allocating       26.622 MB for density_matrix_con
    mem        27915392 current_memory_estimate       173015296
  Allocating        1.710 MB for work
    mem         1793280 current_memory_estimate       174808576
  Allocating        1.710 MB for grad_work
    mem         1793280 current_memory_estimate       176601856
  Allocating        1.710 MB for wave
    mem         1793280 current_memory_estimate       178395136
  Allocating        5.131 MB for gradient_basis_wave
    mem         5379840 current_memory_estimate       183774976
  Time summed over all CPUs for getting density from density matrix: real work     1035.044 s, elapsed     1081.616 s
  Deallocating        0.000 MB for density_matrix
    mem               8 current_memory_estimate       183774968
  Deallocating       26.622 MB for density_matrix_con
    mem        27915392 current_memory_estimate       155859576
  Deallocating        1.710 MB for work
    mem         1793280 current_memory_estimate       154066296
  Deallocating        1.710 MB for grad_work
    mem         1793280 current_memory_estimate       152273016
  Deallocating        1.710 MB for wave
    mem         1793280 current_memory_estimate       150479736
  Deallocating        5.131 MB for gradient_basis_wave
    mem         5379840 current_memory_estimate       145099896
  Integration grid: deviation in total charge (<rho> - N_e) =   9.094947E-13

  Time for density update prior                :  max(cpu_time)    wall_clock(cpu1)
  | self-consistency iterative process          :        5.903 s           6.212 s
  Available memory before start of SCF loop [GB]:    463.89

------------------------------------------------------------
          Initial SCF-cycle to compute last known
          density from restart information.

  Date     :  20260606, Time     :  213349.441
------------------------------------------------------------
  Available memory per node after mixing [GB]:    463.89
  Renormalizing the density to the exact electron count on the 3D integration grid.
  | Formal number of electrons (from input files) :     540.0000000000
  | Integrated number of electrons on 3D grid     :     540.0000000000
  | Charge integration error                      :       0.0000000000
  | Normalization factor for density and gradient :       1.0000000000

  Evaluating partitioned Hartree potential by multipole expansion.
  | Original multipole sum: apparent total charge =  -0.105328E-12
  | Sum of charges compensated after spline to logarithmic grids =   0.470354E-05
  | Analytical far-field extrapolation by fixed multipoles:
  | Hartree multipole sum: apparent total charge =  -0.109411E-12
  Summing up the Hartree potential.
  Time summed over all CPUs for potential: real work        0.137 s, elapsed        0.143 s
  | RMS charge density error from multipole expansion :   0.464128E-01
  | Average real-space part of the electrostatic potential :      0.57516663 eV

  Integrating Hamiltonian matrix: batch-based integration.
  Allocating        0.043 MB for gradient_basis_wave
    mem           44832 current_memory_estimate       145144728
  Allocating       26.622 MB for hamiltonian_shell
    mem        27915392 current_memory_estimate       173060120
  Allocating        1.710 MB for H_times_psi
    mem         1793280 current_memory_estimate       174853400
  Allocating        1.710 MB for sq_psi
    mem         1793280 current_memory_estimate       176646680
  Allocating        1.710 MB for wave
    mem         1793280 current_memory_estimate       178439960
  Time summed over all CPUs for integration: real work      614.446 s, elapsed      652.480 s
  Deallocating        1.710 MB for H_times_psi
    mem         1793280 current_memory_estimate       176646680
  Deallocating       26.622 MB for hamiltonian_shell
    mem        27915392 current_memory_estimate       148731288
  Deallocating        1.710 MB for wave
    mem         1793280 current_memory_estimate       146938008
  Deallocating        1.710 MB for sq_psi
    mem         1793280 current_memory_estimate       145144728
  Deallocating        0.043 MB for gradient_basis_wave
    mem           44832 current_memory_estimate       145099896

  Updating Kohn-Sham eigenvalues and eigenvectors using ELSI and the (modified) LAPACK eigensolver.
  Allocating        0.002 MB for ovlp_ev_min_k
    mem            2080 current_memory_estimate       145101976
  Allocating        0.002 MB for ovlp_ev_max_k
    mem            2080 current_memory_estimate       145104056
  Singularity check in k-point 256, task 0 (analysis for other k-points/tasks may follow below):
  Allocating       10.293 MB for ham_work_c
    mem        10792656 current_memory_estimate       155896712
  Allocating       10.293 MB for ovlp_work_c
    mem        10792656 current_memory_estimate       166689368
  Allocating        0.000 MB for ham_work
    mem               8 current_memory_estimate       166689376
  Allocating        0.000 MB for ovlp_work
    mem               8 current_memory_estimate       166689384
  Allocating        0.000 MB for work_ham
    mem               8 current_memory_estimate       166689392
  Allocating        0.000 MB for work_ovlp
    mem               8 current_memory_estimate       166689400
  Allocating        5.142 MB for index_b
    mem         5391684 current_memory_estimate       172081084
  Deallocating        5.142 MB for index_b
    mem         5391684 current_memory_estimate       166689400
  Allocating       20.568 MB for ovlp_work
    mem        21566736 current_memory_estimate       188256136
  Allocating       20.568 MB for ham_work
    mem        21566736 current_memory_estimate       209822872
  Allocating       20.568 MB for evec_work
    mem        21566736 current_memory_estimate       231389608
  Allocating        0.009 MB for eval_tmp
    mem            9288 current_memory_estimate       231398896
  Overlap matrix is not singular
  | Lowest and highest eigenvalues :  0.2639E-03,  0.1976E+02
  Finished singularity check of overlap matrix
  | Time :     1.087 s
  Starting LAPACK eigensolver
  Finished Cholesky decomposition
  | Time :     0.116 s
  Finished transformation to standard eigenproblem
  | Time :     0.204 s
  Finished solving standard eigenproblem
  | Time :     1.112 s
  Finished back-transformation of eigenvectors
  | Time :     0.064 s
  Deallocating       20.568 MB for ovlp_work
    mem        21566736 current_memory_estimate       209832160
  Deallocating       20.568 MB for ham_work
    mem        21566736 current_memory_estimate       188265424
  Deallocating       20.568 MB for evec_work
    mem        21566736 current_memory_estimate       166698688
  Deallocating        0.009 MB for eval_tmp
    mem            9288 current_memory_estimate       166689400
  Deallocating        0.000 MB for work_ham
    mem               8 current_memory_estimate       166689392
  Deallocating        0.000 MB for work_ovlp
    mem               8 current_memory_estimate       166689384
  Deallocating       10.293 MB for ham_work_c
    mem        10792656 current_memory_estimate       155896728
  Deallocating       10.293 MB for ovlp_work_c
    mem        10792656 current_memory_estimate       145104072
  Deallocating        0.000 MB for ham_work
    mem               8 current_memory_estimate       145104064
  Deallocating        0.000 MB for ovlp_work
    mem               8 current_memory_estimate       145104056
  Deallocating        0.002 MB for ovlp_ev_min_k
    mem            2080 current_memory_estimate       145101976
  Deallocating        0.002 MB for ovlp_ev_max_k
    mem            2080 current_memory_estimate       145099896

  Obtaining occupation numbers and electronic chemical potential using ELSI.
  | Note that, for insulating systems, the printed 'chemical potential' value is not uniquely defined.
  | It can be anywhere in the energy gap, as long as it correctly separates occupied and unoccupied states.
  | In systems with a gap, the physically relevant chemical potential is the VBM or HOMO.

  | Chemical potential (Fermi level):    -7.91746895 eV
  Writing Kohn-Sham eigenvalues.
  K-point:       1 at    0.000000    0.000000    0.000000 (in units of recip. lattice)

  State    Occupation    Eigenvalue [Ha]    Eigenvalue [eV]
      1       2.00000         -46.339376        -1260.95856
      2       2.00000         -46.339376        -1260.95856
      3       2.00000         -46.339376        -1260.95856
      4       2.00000         -46.339376        -1260.95856
      5       2.00000         -46.339376        -1260.95856
      6       2.00000         -46.339376        -1260.95856
      7       2.00000         -46.339376        -1260.95856
      8       2.00000         -46.339376        -1260.95856
      9       2.00000         -46.339376        -1260.95856
     10       2.00000         -46.339376        -1260.95856
     11       2.00000         -46.339376        -1260.95856
     12       2.00000         -46.339376        -1260.95856
     13       2.00000         -46.339376        -1260.95856
     14       2.00000         -46.339376        -1260.95856
     15       2.00000         -46.339376        -1260.95856
     16       2.00000         -46.339376        -1260.95856
     17       2.00000         -46.339376        -1260.95856
     18       2.00000         -46.339376        -1260.95856
     19       2.00000         -46.339376        -1260.95856
     20       2.00000         -46.339376        -1260.95856
     21       2.00000         -46.339376        -1260.95856
     22       2.00000         -46.339376        -1260.95856
     23       2.00000         -46.339376        -1260.95856
     24       2.00000         -46.339376        -1260.95856
     25       2.00000         -46.339376        -1260.95856
     26       2.00000         -46.339376        -1260.95856
     27       2.00000         -46.339376        -1260.95856
     28       2.00000         -18.814010         -511.95525
     29       2.00000         -18.814010         -511.95525
     30       2.00000         -18.814010         -511.95525
     31       2.00000         -18.814010         -511.95525
     32       2.00000         -18.814010         -511.95525
     33       2.00000         -18.814010         -511.95525
     34       2.00000         -18.814010         -511.95525
     35       2.00000         -18.814010         -511.95525
     36       2.00000         -18.814010         -511.95525
     37       2.00000         -18.814010         -511.95525
     38       2.00000         -18.814010         -511.95525
     39       2.00000         -18.814010         -511.95525
     40       2.00000         -18.814010         -511.95525
     41       2.00000         -18.814010         -511.95525
     42       2.00000         -18.814010         -511.95525
     43       2.00000         -18.814010         -511.95525
     44       2.00000         -18.814010         -511.95525
     45       2.00000         -18.814010         -511.95525
     46       2.00000         -18.814010         -511.95525
     47       2.00000         -18.814010         -511.95525
     48       2.00000         -18.814010         -511.95525
     49       2.00000         -18.814010         -511.95525
     50       2.00000         -18.814010         -511.95525
     51       2.00000         -18.814010         -511.95525
     52       2.00000         -18.814010         -511.95525
     53       2.00000         -18.814010         -511.95525
     54       2.00000         -18.814010         -511.95525
     55       2.00000          -3.018848          -82.14703
     56       2.00000          -3.018608          -82.14050
     57       2.00000          -3.018608          -82.14050
     58       2.00000          -3.018608          -82.14050
     59       2.00000          -3.018608          -82.14050
     60       2.00000          -3.018608          -82.14050
     61       2.00000          -3.018608          -82.14050
     62       2.00000          -3.018608          -82.14050
     63       2.00000          -3.018608          -82.14050
     64       2.00000          -3.018528          -82.13833
     65       2.00000          -3.018528          -82.13833
     66       2.00000          -3.018528          -82.13833
     67       2.00000          -3.018528          -82.13833
     68       2.00000          -3.018528          -82.13833
     69       2.00000          -3.018528          -82.13833
     70       2.00000          -3.018448          -82.13615
     71       2.00000          -3.018448          -82.13615
     72       2.00000          -3.018448          -82.13615
     73       2.00000          -3.018448          -82.13615
     74       2.00000          -3.018448          -82.13615
     75       2.00000          -3.018448          -82.13615
     76       2.00000          -3.018448          -82.13615
     77       2.00000          -3.018448          -82.13615
     78       2.00000          -3.018448          -82.13615
     79       2.00000          -3.018448          -82.13615
     80       2.00000          -3.018448          -82.13615
     81       2.00000          -3.018448          -82.13615
     82       2.00000          -1.805319          -49.12524
     83       2.00000          -1.805319          -49.12524
     84       2.00000          -1.805319          -49.12524
     85       2.00000          -1.805319          -49.12524
     86       2.00000          -1.805319          -49.12524
     87       2.00000          -1.805319          -49.12524
     88       2.00000          -1.805319          -49.12524
     89       2.00000          -1.805319          -49.12524
     90       2.00000          -1.805017          -49.11702
     91       2.00000          -1.805017          -49.11702
     92       2.00000          -1.805017          -49.11702
     93       2.00000          -1.805017          -49.11702
     94       2.00000          -1.805017          -49.11702
     95       2.00000          -1.805017          -49.11702
     96       2.00000          -1.804998          -49.11650
     97       2.00000          -1.804998          -49.11650
     98       2.00000          -1.804998          -49.11650
     99       2.00000          -1.804998          -49.11650
    100       2.00000          -1.804998          -49.11650
    101       2.00000          -1.804998          -49.11650
    102       2.00000          -1.804998          -49.11650
    103       2.00000          -1.804998          -49.11650
    104       2.00000          -1.804998          -49.11650
    105       2.00000          -1.804998          -49.11650
    106       2.00000          -1.804998          -49.11650
    107       2.00000          -1.804998          -49.11650
    108       2.00000          -1.804840          -49.11218
    109       2.00000          -1.804840          -49.11218
    110       2.00000          -1.804840          -49.11218
    111       2.00000          -1.804840          -49.11218
    112       2.00000          -1.804840          -49.11218
    113       2.00000          -1.804840          -49.11218
    114       2.00000          -1.804840          -49.11218
    115       2.00000          -1.804840          -49.11218
    116       2.00000          -1.804840          -49.11218
    117       2.00000          -1.804840          -49.11218
    118       2.00000          -1.804840          -49.11218
    119       2.00000          -1.804840          -49.11218
    120       2.00000          -1.803719          -49.08170
    121       2.00000          -1.803719          -49.08170
    122       2.00000          -1.803719          -49.08170
    123       2.00000          -1.803719          -49.08170
    124       2.00000          -1.803719          -49.08170
    125       2.00000          -1.803719          -49.08170
    126       2.00000          -1.803719          -49.08170
    127       2.00000          -1.803719          -49.08170
    128       2.00000          -1.803719          -49.08170
    129       2.00000          -1.803719          -49.08170
    130       2.00000          -1.803719          -49.08170
    131       2.00000          -1.803719          -49.08170
    132       2.00000          -1.803569          -49.07760
    133       2.00000          -1.803569          -49.07760
    134       2.00000          -1.803569          -49.07760
    135       2.00000          -1.803569          -49.07760
    136       2.00000          -1.803569          -49.07760
    137       2.00000          -1.803569          -49.07760
    138       2.00000          -1.803569          -49.07760
    139       2.00000          -1.803569          -49.07760
    140       2.00000          -1.803569          -49.07760
    141       2.00000          -1.803569          -49.07760
    142       2.00000          -1.803569          -49.07760
    143       2.00000          -1.803569          -49.07760
    144       2.00000          -1.803168          -49.06669
    145       2.00000          -1.803168          -49.06669
    146       2.00000          -1.803168          -49.06669
    147       2.00000          -1.803168          -49.06669
    148       2.00000          -1.803168          -49.06669
    149       2.00000          -1.803168          -49.06669
    150       2.00000          -1.803168          -49.06669
    151       2.00000          -1.803168          -49.06669
    152       2.00000          -1.803168          -49.06669
    153       2.00000          -1.803168          -49.06669
    154       2.00000          -1.803168          -49.06669
    155       2.00000          -1.803168          -49.06669
    156       2.00000          -1.803168          -49.06669
    157       2.00000          -1.803168          -49.06669
    158       2.00000          -1.803168          -49.06669
    159       2.00000          -1.803168          -49.06669
    160       2.00000          -1.802924          -49.06005
    161       2.00000          -1.802924          -49.06005
    162       2.00000          -1.802924          -49.06005
    163       2.00000          -1.005923          -27.37256
    164       2.00000          -0.970917          -26.42000
    165       2.00000          -0.970917          -26.42000
    166       2.00000          -0.970917          -26.42000
    167       2.00000          -0.970917          -26.42000
    168       2.00000          -0.970917          -26.42000
    169       2.00000          -0.970917          -26.42000
    170       2.00000          -0.970917          -26.42000
    171       2.00000          -0.970917          -26.42000
    172       2.00000          -0.963184          -26.20957
    173       2.00000          -0.963184          -26.20957
    174       2.00000          -0.963184          -26.20957
    175       2.00000          -0.963184          -26.20957
    176       2.00000          -0.963184          -26.20957
    177       2.00000          -0.963184          -26.20957
    178       2.00000          -0.949123          -25.82695
    179       2.00000          -0.949123          -25.82695
    180       2.00000          -0.949123          -25.82695
    181       2.00000          -0.949123          -25.82695
    182       2.00000          -0.949123          -25.82695
    183       2.00000          -0.949123          -25.82695
    184       2.00000          -0.949123          -25.82695
    185       2.00000          -0.949123          -25.82695
    186       2.00000          -0.949123          -25.82695
    187       2.00000          -0.949123          -25.82695
    188       2.00000          -0.949123          -25.82695
    189       2.00000          -0.949123          -25.82695
    190       2.00000          -0.510909          -13.90255
    191       2.00000          -0.510909          -13.90255
    192       2.00000          -0.510909          -13.90255
    193       2.00000          -0.510909          -13.90255
    194       2.00000          -0.510909          -13.90255
    195       2.00000          -0.510909          -13.90255
    196       2.00000          -0.510909          -13.90255
    197       2.00000          -0.510909          -13.90255
    198       2.00000          -0.502286          -13.66789
    199       2.00000          -0.502286          -13.66789
    200       2.00000          -0.502286          -13.66789
    201       2.00000          -0.502286          -13.66789
    202       2.00000          -0.502286          -13.66789
    203       2.00000          -0.502286          -13.66789
    204       2.00000          -0.494302          -13.45064
    205       2.00000          -0.494302          -13.45064
    206       2.00000          -0.494302          -13.45064
    207       2.00000          -0.494302          -13.45064
    208       2.00000          -0.494302          -13.45064
    209       2.00000          -0.494302          -13.45064
    210       2.00000          -0.494302          -13.45064
    211       2.00000          -0.494302          -13.45064
    212       2.00000          -0.494302          -13.45064
    213       2.00000          -0.494302          -13.45064
    214       2.00000          -0.494302          -13.45064
    215       2.00000          -0.494302          -13.45064
    216       2.00000          -0.488333          -13.28820
    217       2.00000          -0.488333          -13.28820
    218       2.00000          -0.488333          -13.28820
    219       2.00000          -0.488333          -13.28820
    220       2.00000          -0.488333          -13.28820
    221       2.00000          -0.488333          -13.28820
    222       2.00000          -0.488333          -13.28820
    223       2.00000          -0.488333          -13.28820
    224       2.00000          -0.488333          -13.28820
    225       2.00000          -0.488333          -13.28820
    226       2.00000          -0.488333          -13.28820
    227       2.00000          -0.488333          -13.28820
    228       2.00000          -0.414049          -11.26684
    229       2.00000          -0.414049          -11.26684
    230       2.00000          -0.414049          -11.26684
    231       2.00000          -0.414049          -11.26684
    232       2.00000          -0.414049          -11.26684
    233       2.00000          -0.414049          -11.26684
    234       2.00000          -0.414049          -11.26684
    235       2.00000          -0.414049          -11.26684
    236       2.00000          -0.414049          -11.26684
    237       2.00000          -0.414049          -11.26684
    238       2.00000          -0.414049          -11.26684
    239       2.00000          -0.414049          -11.26684
    240       2.00000          -0.411943          -11.20954
    241       2.00000          -0.411943          -11.20954
    242       2.00000          -0.411943          -11.20954
    243       2.00000          -0.411943          -11.20954
    244       2.00000          -0.411943          -11.20954
    245       2.00000          -0.411943          -11.20954
    246       2.00000          -0.411943          -11.20954
    247       2.00000          -0.411943          -11.20954
    248       2.00000          -0.411943          -11.20954
    249       2.00000          -0.411943          -11.20954
    250       2.00000          -0.411943          -11.20954
    251       2.00000          -0.411943          -11.20954
    252       2.00000          -0.393463          -10.70667
    253       2.00000          -0.393463          -10.70667
    254       2.00000          -0.393463          -10.70667
    255       2.00000          -0.393463          -10.70667
    256       2.00000          -0.393463          -10.70667
    257       2.00000          -0.393463          -10.70667
    258       2.00000          -0.393463          -10.70667
    259       2.00000          -0.393463          -10.70667
    260       2.00000          -0.393463          -10.70667
    261       2.00000          -0.393463          -10.70667
    262       2.00000          -0.393463          -10.70667
    263       2.00000          -0.393463          -10.70667
    264       2.00000          -0.393463          -10.70667
    265       2.00000          -0.393463          -10.70667
    266       2.00000          -0.393463          -10.70667
    267       2.00000          -0.393463          -10.70667
    268       2.00000          -0.375132          -10.20786
    269       2.00000          -0.375132          -10.20786
    270       2.00000          -0.375132          -10.20786
    271       0.00000          -0.206791           -5.62708
    272       0.00000          -0.099028           -2.69468
    273       0.00000          -0.099028           -2.69468
    274       0.00000          -0.099028           -2.69468
    275       0.00000          -0.099028           -2.69468
    276       0.00000          -0.099028           -2.69468
    277       0.00000          -0.099028           -2.69468
    278       0.00000          -0.099028           -2.69468
    279       0.00000          -0.099028           -2.69468
    280       0.00000          -0.039479           -1.07428
    281       0.00000          -0.039479           -1.07428
    282       0.00000          -0.039479           -1.07428
    283       0.00000          -0.039479           -1.07428
    284       0.00000          -0.039479           -1.07428
    285       0.00000          -0.039479           -1.07428
    286       0.00000          -0.013833           -0.37641
    287       0.00000          -0.013833           -0.37641
    288       0.00000          -0.013833           -0.37641
    289       0.00000          -0.013833           -0.37641
    290       0.00000          -0.013833           -0.37641
    291       0.00000          -0.013833           -0.37641
    292       0.00000          -0.001834           -0.04992
    293       0.00000          -0.001834           -0.04992
    294       0.00000          -0.001834           -0.04992
    295       0.00000          -0.001834           -0.04992
    296       0.00000          -0.001834           -0.04992
    297       0.00000          -0.001834           -0.04992
    298       0.00000          -0.001834           -0.04992
    299       0.00000          -0.001834           -0.04992
    300       0.00000          -0.001834           -0.04992
    301       0.00000          -0.001834           -0.04992
    302       0.00000          -0.001834           -0.04991
    303       0.00000          -0.001834           -0.04991
    304       0.00000           0.067195            1.82847
    305       0.00000           0.067195            1.82847
    306       0.00000           0.067195            1.82847
    307       0.00000           0.067195            1.82847
    308       0.00000           0.067195            1.82847
    309       0.00000           0.067195            1.82847
    310       0.00000           0.067195            1.82847
    311       0.00000           0.067195            1.82847
    312       0.00000           0.067195            1.82847
    313       0.00000           0.067195            1.82847
    314       0.00000           0.067195            1.82847
    315       0.00000           0.067195            1.82847
    316       0.00000           0.071373            1.94217
    317       0.00000           0.071373            1.94217
    318       0.00000           0.071373            1.94217
    319       0.00000           0.071373            1.94217
    320       0.00000           0.071373            1.94217
    321       0.00000           0.071373            1.94217
    322       0.00000           0.071373            1.94217
    323       0.00000           0.071373            1.94217
    324       0.00000           0.081453            2.21645
    325       0.00000           0.081453            2.21645
    326       0.00000           0.081453            2.21645
    327       0.00000           0.081453            2.21645
    328       0.00000           0.081453            2.21645
    329       0.00000           0.081453            2.21645
    330       0.00000           0.081453            2.21645
    331       0.00000           0.081453            2.21645
    332       0.00000           0.081453            2.21645
    333       0.00000           0.081453            2.21645
    334       0.00000           0.081453            2.21645
    335       0.00000           0.081453            2.21645
    336       0.00000           0.139698            3.80138
    337       0.00000           0.139698            3.80138
    338       0.00000           0.139698            3.80138
    339       0.00000           0.139698            3.80138
    340       0.00000           0.139698            3.80138
    341       0.00000           0.139698            3.80138
    342       0.00000           0.205039            5.57939
    343       0.00000           0.205039            5.57939
    344       0.00000           0.205039            5.57939
    345       0.00000           0.237579            6.46487
    346       0.00000           0.237579            6.46487
    347       0.00000           0.237579            6.46487
    348       0.00000           0.237579            6.46487
    349       0.00000           0.237579            6.46487
    350       0.00000           0.237579            6.46487
    351       0.00000           0.237580            6.46487
    352       0.00000           0.237580            6.46487
    353       0.00000           0.237580            6.46487
    354       0.00000           0.237580            6.46487
    355       0.00000           0.237580            6.46487
    356       0.00000           0.237580            6.46487
    357       0.00000           0.237580            6.46487
    358       0.00000           0.237580            6.46487
    359       0.00000           0.237580            6.46487
    360       0.00000           0.237580            6.46487
    361       0.00000           0.288454            7.84924
    362       0.00000           0.288454            7.84924
    363       0.00000           0.288454            7.84924
    364       0.00000           0.288454            7.84924
    365       0.00000           0.288454            7.84924
    366       0.00000           0.288454            7.84924
    367       0.00000           0.288454            7.84924
    368       0.00000           0.288454            7.84924
    369       0.00000           0.288454            7.84925
    370       0.00000           0.288454            7.84925
    371       0.00000           0.288455            7.84925
    372       0.00000           0.288455            7.84925
    373       0.00000           0.294663            8.01819
    374       0.00000           0.294663            8.01819
    375       0.00000           0.294663            8.01819
    376       0.00000           0.294663            8.01819
    377       0.00000           0.294663            8.01820
    378       0.00000           0.294663            8.01820
    379       0.00000           0.294663            8.01820
    380       0.00000           0.294663            8.01820
    381       0.00000           0.294663            8.01820
    382       0.00000           0.294663            8.01820
    383       0.00000           0.294663            8.01820
    384       0.00000           0.294663            8.01820
    385       0.00000           0.316828            8.62133
    386       0.00000           0.316828            8.62133
    387       0.00000           0.316828            8.62133
    388       0.00000           0.316828            8.62133
    389       0.00000           0.316828            8.62133
    390       0.00000           0.316828            8.62133
    391       0.00000           0.316828            8.62133
    392       0.00000           0.316828            8.62133
    393       0.00000           0.316828            8.62133
    394       0.00000           0.316828            8.62133
    395       0.00000           0.316828            8.62133
    396       0.00000           0.316828            8.62133
    397       0.00000           0.337859            9.19360
    398       0.00000           0.399447           10.86950
    399       0.00000           0.399447           10.86950
    400       0.00000           0.399447           10.86950
    401       0.00000           0.399447           10.86950
    402       0.00000           0.399447           10.86950
    403       0.00000           0.399447           10.86950
    404       0.00000           0.399447           10.86950
    405       0.00000           0.399447           10.86950
    406       0.00000           0.399447           10.86950
    407       0.00000           0.399447           10.86950
    408       0.00000           0.399447           10.86950
    409       0.00000           0.399447           10.86950
    410       0.00000           0.399447           10.86950
    411       0.00000           0.399447           10.86950
    412       0.00000           0.399447           10.86950
    413       0.00000           0.399447           10.86950
    414       0.00000           0.420168           11.43336
    415       0.00000           0.420169           11.43337
    416       0.00000           0.439911           11.97059
    417       0.00000           0.439911           11.97059
    418       0.00000           0.439911           11.97059
    419       0.00000           0.439911           11.97059
    420       0.00000           0.439911           11.97059
    421       0.00000           0.439911           11.97059
    422       0.00000           0.439911           11.97059
    423       0.00000           0.439911           11.97059
    424       0.00000           0.478928           13.03230
    425       0.00000           0.478928           13.03230
    426       0.00000           0.478928           13.03230
    427       0.00000           0.478928           13.03230
    428       0.00000           0.478928           13.03230
    429       0.00000           0.478928           13.03230
    430       0.00000           0.478928           13.03230
    431       0.00000           0.478928           13.03230
    432       0.00000           0.478928           13.03231

  What follows are estimated values for band gap, HOMO, LUMO, etc.
  | They are estimated on a discrete k-point grid and not necessarily exact.
  | For converged numbers, create a DOS and/or band structure plot on a denser k-grid.

  Highest occupied state (VBM) at    -10.20785937 eV (relative to internal zero)
  | Occupation number:      2.00000000
  | K-point:       1 at    0.000000    0.000000    0.000000 (in units of recip. lattice)

  Lowest unoccupied state (CBM) at    -5.62707853 eV (relative to internal zero)
  | Occupation number:      0.00000000
  | K-point:       1 at    0.000000    0.000000    0.000000 (in units of recip. lattice)

  The gap value is above 0.2 eV. Unless you are using a very sparse k-point grid,
  this system is most likely an insulator or a semiconductor.
  ESTIMATED overall HOMO-LUMO gap:      4.58078085 eV between HOMO at k-point 1 and LUMO at k-point 1
  | This appears to be a direct band gap.

  Total energy components:
  | Sum of eigenvalues            :       -4097.98609440 Ha     -111511.87529049 eV
  | XC energy correction          :        -659.68718287 Ha      -17951.00158283 eV
  | XC potential correction       :         859.29287989 Ha       23382.54895285 eV
  | Free-atom electrostatic energy:       -3520.83114206 Ha      -95806.68996607 eV
  | Hartree energy correction     :         -12.35665967 Ha        -336.24181742 eV
  | Entropy correction            :           0.00000000 Ha           0.00000000 eV
  | ---------------------------
  | Total energy                  :       -7431.56819911 Ha     -202223.25970397 eV
  | Total energy, T -> 0          :       -7431.56819911 Ha     -202223.25970397 eV  <-- do not rely on this value for anything but (periodic) metals
  | Electronic free energy        :       -7431.56819911 Ha     -202223.25970397 eV

  Derived energy quantities:
  | Kinetic energy                :        7432.40205440 Ha      202245.95006100 eV
  | Electrostatic energy          :      -14204.28307064 Ha     -386518.20818213 eV
  | Energy correction for multipole
  | error in Hartree potential    :           0.02686741 Ha           0.73109937 eV
  | Sum of eigenvalues per atom                           :       -2065.03472760 eV
  | Total energy (T->0) per atom                          :       -3744.87517970 eV  <-- do not rely on this value for anything but (periodic) metals
  | Electronic free energy per atom                       :       -3744.87517970 eV
  Evaluating new KS density using the density matrix
  Allocating        0.000 MB for density_matrix
    mem               8 current_memory_estimate       145099904
  Evaluating density matrix
  Allocating       20.568 MB for kdm_complex
    mem        21566736 current_memory_estimate       166666640
  Allocating        0.000 MB for kdm
    mem               8 current_memory_estimate       166666648
  Allocating        7.653 MB for KS_scaled_cmplx
    mem         8024832 current_memory_estimate       174691480
  Deallocating        7.653 MB for KS_scaled_cmplx
    mem         8024832 current_memory_estimate       166666648
  Deallocating        0.000 MB for kdm
    mem               8 current_memory_estimate       166666640
  Deallocating       20.568 MB for kdm_complex
    mem        21566736 current_memory_estimate       145099904
  Allocating       26.622 MB for density_matrix_con
    mem        27915392 current_memory_estimate       173015296
  Allocating        1.710 MB for work
    mem         1793280 current_memory_estimate       174808576
  Allocating        1.710 MB for grad_work
    mem         1793280 current_memory_estimate       176601856
  Allocating        1.710 MB for wave
    mem         1793280 current_memory_estimate       178395136
  Allocating        5.131 MB for gradient_basis_wave
    mem         5379840 current_memory_estimate       183774976
  Time summed over all CPUs for getting density from density matrix: real work     1046.743 s, elapsed     1086.908 s
  Deallocating        0.000 MB for density_matrix
    mem               8 current_memory_estimate       183774968
  Deallocating       26.622 MB for density_matrix_con
    mem        27915392 current_memory_estimate       155859576
  Deallocating        1.710 MB for work
    mem         1793280 current_memory_estimate       154066296
  Deallocating        1.710 MB for grad_work
    mem         1793280 current_memory_estimate       152273016
  Deallocating        1.710 MB for wave
    mem         1793280 current_memory_estimate       150479736
  Deallocating        5.131 MB for gradient_basis_wave
    mem         5379840 current_memory_estimate       145099896
  Integration grid: deviation in total charge (<rho> - N_e) =   6.821210E-13

  Self-consistency convergence accuracy:
  | Change of charge density      :  0.6024E+00
  | Change of unmixed KS density  :  0.1034E+03
  | Change of sum of eigenvalues  : -0.1115E+06 eV
  | Change of total energy        : -0.2022E+06 eV


------------------------------------------------------------
  End self-consistency iteration #     0       :  max(cpu_time)    wall_clock(cpu1)
  | Time for this iteration                     :       14.607 s          14.734 s
  | Charge density update                       :        5.831 s           5.894 s
  | Density mixing                              :        0.001 s           0.000 s
  | Hartree multipole update                    :        0.042 s           0.042 s
  | Hartree multipole summation                 :        0.202 s           0.206 s
  | Integration                                 :        4.066 s           4.088 s
  | Solution of K.-S. eqns.                     :        4.474 s           4.498 s
  | Total energy evaluation                     :        0.003 s           0.004 s

  Partial memory accounting:
  | Current value for overall tracked memory usage:
  |   Minimum:      138.364 MB (on task 139)
  |   Maximum:      146.056 MB (on task   2)
  |   Average:      138.511 MB
  | Peak value for overall tracked memory usage:
  |   Minimum:      220.665 MB (on task 139 after allocating eval_tmp)
  |   Maximum:      228.357 MB (on task   2 after allocating eval_tmp)
  |   Average:      220.812 MB
  | Largest tracked array allocation so far:
  |   Minimum:       51.368 MB (overlap_matrix on task   0)
  |   Maximum:       51.368 MB (overlap_matrix on task   0)
  |   Average:       51.368 MB
  | current_memory_estimate       145099896
  Note:  These values currently only include a subset of arrays which are explicitly tracked.
  The "true" memory usage will be greater.
------------------------------------------------------------

------------------------------------------------------------
          Begin self-consistency iteration #    1

  Date     :  20260606, Time     :  213404.184
------------------------------------------------------------
  Pulay mixing of updated and previous charge densities.
  Available memory per node after mixing [GB]:    455.22
  Renormalizing the density to the exact electron count on the 3D integration grid.
  | Formal number of electrons (from input files) :     540.0000000000
  | Integrated number of electrons on 3D grid     :     540.0000000000
  | Charge integration error                      :       0.0000000000
  | Normalization factor for density and gradient :       1.0000000000

  Evaluating partitioned Hartree potential by multipole expansion.
  | Original multipole sum: apparent total charge =  -0.129581E-12
  | Sum of charges compensated after spline to logarithmic grids =   0.470354E-05
  | Analytical far-field extrapolation by fixed multipoles:
  | Hartree multipole sum: apparent total charge =  -0.132680E-12
  Summing up the Hartree potential.
  Time summed over all CPUs for potential: real work        0.138 s, elapsed        0.145 s
  | RMS charge density error from multipole expansion :   0.464128E-01
  | Average real-space part of the electrostatic potential :      0.57516663 eV

  Integrating Hamiltonian matrix: batch-based integration.
  Allocating        0.043 MB for gradient_basis_wave
    mem           44832 current_memory_estimate       145144728
  Allocating       26.622 MB for hamiltonian_shell
    mem        27915392 current_memory_estimate       173060120
  Allocating        1.710 MB for H_times_psi
    mem         1793280 current_memory_estimate       174853400
  Allocating        1.710 MB for sq_psi
    mem         1793280 current_memory_estimate       176646680
  Allocating        1.710 MB for wave
    mem         1793280 current_memory_estimate       178439960
  Time summed over all CPUs for integration: real work      621.202 s, elapsed      648.338 s
  Deallocating        1.710 MB for H_times_psi
    mem         1793280 current_memory_estimate       176646680
  Deallocating       26.622 MB for hamiltonian_shell
    mem        27915392 current_memory_estimate       148731288
  Deallocating        1.710 MB for wave
    mem         1793280 current_memory_estimate       146938008
  Deallocating        1.710 MB for sq_psi
    mem         1793280 current_memory_estimate       145144728
  Deallocating        0.043 MB for gradient_basis_wave
    mem           44832 current_memory_estimate       145099896

  Updating Kohn-Sham eigenvalues and eigenvectors using ELSI and the (modified) LAPACK eigensolver.
  Allocating       10.293 MB for ham_work_c
    mem        10792656 current_memory_estimate       155892552
  Allocating       10.293 MB for ovlp_work_c
    mem        10792656 current_memory_estimate       166685208
  Allocating        0.000 MB for ham_work
    mem               8 current_memory_estimate       166685216
  Allocating        0.000 MB for ovlp_work
    mem               8 current_memory_estimate       166685224
  Allocating        0.000 MB for work_ham
    mem               8 current_memory_estimate       166685232
  Allocating        0.000 MB for work_ovlp
    mem               8 current_memory_estimate       166685240
  Allocating        5.142 MB for index_b
    mem         5391684 current_memory_estimate       172076924
  Deallocating        5.142 MB for index_b
    mem         5391684 current_memory_estimate       166685240
  Allocating       20.568 MB for ovlp_work
    mem        21566736 current_memory_estimate       188251976
  Allocating       20.568 MB for ham_work
    mem        21566736 current_memory_estimate       209818712
  Allocating       20.568 MB for evec_work
    mem        21566736 current_memory_estimate       231385448
  Allocating        0.009 MB for eval_tmp
    mem            9288 current_memory_estimate       231394736
  Starting LAPACK eigensolver
  Finished Cholesky decomposition
  | Time :     0.120 s
  Finished transformation to standard eigenproblem
  | Time :     0.194 s
  Finished solving standard eigenproblem
  | Time :     1.158 s
  Finished back-transformation of eigenvectors
  | Time :     0.061 s
  Deallocating       20.568 MB for ovlp_work
    mem        21566736 current_memory_estimate       209828000
  Deallocating       20.568 MB for ham_work
    mem        21566736 current_memory_estimate       188261264
  Deallocating       20.568 MB for evec_work
    mem        21566736 current_memory_estimate       166694528
  Deallocating        0.009 MB for eval_tmp
    mem            9288 current_memory_estimate       166685240
  Deallocating        0.000 MB for work_ham
    mem               8 current_memory_estimate       166685232
  Deallocating        0.000 MB for work_ovlp
    mem               8 current_memory_estimate       166685224
  Deallocating       10.293 MB for ham_work_c
    mem        10792656 current_memory_estimate       155892568
  Deallocating       10.293 MB for ovlp_work_c
    mem        10792656 current_memory_estimate       145099912
  Deallocating        0.000 MB for ham_work
    mem               8 current_memory_estimate       145099904
  Deallocating        0.000 MB for ovlp_work
    mem               8 current_memory_estimate       145099896

  Obtaining occupation numbers and electronic chemical potential using ELSI.
  | Note that, for insulating systems, the printed 'chemical potential' value is not uniquely defined.
  | It can be anywhere in the energy gap, as long as it correctly separates occupied and unoccupied states.
  | In systems with a gap, the physically relevant chemical potential is the VBM or HOMO.

  | Chemical potential (Fermi level):    -7.91746895 eV
  Writing Kohn-Sham eigenvalues.
  K-point:       1 at    0.000000    0.000000    0.000000 (in units of recip. lattice)

  State    Occupation    Eigenvalue [Ha]    Eigenvalue [eV]
      1       2.00000         -46.339376        -1260.95856
      2       2.00000         -46.339376        -1260.95856
      3       2.00000         -46.339376        -1260.95856
      4       2.00000         -46.339376        -1260.95856
      5       2.00000         -46.339376        -1260.95856
      6       2.00000         -46.339376        -1260.95856
      7       2.00000         -46.339376        -1260.95856
      8       2.00000         -46.339376        -1260.95856
      9       2.00000         -46.339376        -1260.95856
     10       2.00000         -46.339376        -1260.95856
     11       2.00000         -46.339376        -1260.95856
     12       2.00000         -46.339376        -1260.95856
     13       2.00000         -46.339376        -1260.95856
     14       2.00000         -46.339376        -1260.95856
     15       2.00000         -46.339376        -1260.95856
     16       2.00000         -46.339376        -1260.95856
     17       2.00000         -46.339376        -1260.95856
     18       2.00000         -46.339376        -1260.95856
     19       2.00000         -46.339376        -1260.95856
     20       2.00000         -46.339376        -1260.95856
     21       2.00000         -46.339376        -1260.95856
     22       2.00000         -46.339376        -1260.95856
     23       2.00000         -46.339376        -1260.95856
     24       2.00000         -46.339376        -1260.95856
     25       2.00000         -46.339376        -1260.95856
     26       2.00000         -46.339376        -1260.95856
     27       2.00000         -46.339376        -1260.95856
     28       2.00000         -18.814010         -511.95525
     29       2.00000         -18.814010         -511.95525
     30       2.00000         -18.814010         -511.95525
     31       2.00000         -18.814010         -511.95525
     32       2.00000         -18.814010         -511.95525
     33       2.00000         -18.814010         -511.95525
     34       2.00000         -18.814010         -511.95525
     35       2.00000         -18.814010         -511.95525
     36       2.00000         -18.814010         -511.95525
     37       2.00000         -18.814010         -511.95525
     38       2.00000         -18.814010         -511.95525
     39       2.00000         -18.814010         -511.95525
     40       2.00000         -18.814010         -511.95525
     41       2.00000         -18.814010         -511.95525
     42       2.00000         -18.814010         -511.95525
     43       2.00000         -18.814010         -511.95525
     44       2.00000         -18.814010         -511.95525
     45       2.00000         -18.814010         -511.95525
     46       2.00000         -18.814010         -511.95525
     47       2.00000         -18.814010         -511.95525
     48       2.00000         -18.814010         -511.95525
     49       2.00000         -18.814010         -511.95525
     50       2.00000         -18.814010         -511.95525
     51       2.00000         -18.814010         -511.95525
     52       2.00000         -18.814010         -511.95525
     53       2.00000         -18.814010         -511.95525
     54       2.00000         -18.814010         -511.95525
     55       2.00000          -3.018848          -82.14703
     56       2.00000          -3.018608          -82.14050
     57       2.00000          -3.018608          -82.14050
     58       2.00000          -3.018608          -82.14050
     59       2.00000          -3.018608          -82.14050
     60       2.00000          -3.018608          -82.14050
     61       2.00000          -3.018608          -82.14050
     62       2.00000          -3.018608          -82.14050
     63       2.00000          -3.018608          -82.14050
     64       2.00000          -3.018528          -82.13833
     65       2.00000          -3.018528          -82.13833
     66       2.00000          -3.018528          -82.13833
     67       2.00000          -3.018528          -82.13833
     68       2.00000          -3.018528          -82.13833
     69       2.00000          -3.018528          -82.13833
     70       2.00000          -3.018448          -82.13615
     71       2.00000          -3.018448          -82.13615
     72       2.00000          -3.018448          -82.13615
     73       2.00000          -3.018448          -82.13615
     74       2.00000          -3.018448          -82.13615
     75       2.00000          -3.018448          -82.13615
     76       2.00000          -3.018448          -82.13615
     77       2.00000          -3.018448          -82.13615
     78       2.00000          -3.018448          -82.13615
     79       2.00000          -3.018448          -82.13615
     80       2.00000          -3.018448          -82.13615
     81       2.00000          -3.018448          -82.13615
     82       2.00000          -1.805319          -49.12524
     83       2.00000          -1.805319          -49.12524
     84       2.00000          -1.805319          -49.12524
     85       2.00000          -1.805319          -49.12524
     86       2.00000          -1.805319          -49.12524
     87       2.00000          -1.805319          -49.12524
     88       2.00000          -1.805319          -49.12524
     89       2.00000          -1.805319          -49.12524
     90       2.00000          -1.805017          -49.11702
     91       2.00000          -1.805017          -49.11702
     92       2.00000          -1.805017          -49.11702
     93       2.00000          -1.805017          -49.11702
     94       2.00000          -1.805017          -49.11702
     95       2.00000          -1.805017          -49.11702
     96       2.00000          -1.804998          -49.11650
     97       2.00000          -1.804998          -49.11650
     98       2.00000          -1.804998          -49.11650
     99       2.00000          -1.804998          -49.11650
    100       2.00000          -1.804998          -49.11650
    101       2.00000          -1.804998          -49.11650
    102       2.00000          -1.804998          -49.11650
    103       2.00000          -1.804998          -49.11650
    104       2.00000          -1.804998          -49.11650
    105       2.00000          -1.804998          -49.11650
    106       2.00000          -1.804998          -49.11650
    107       2.00000          -1.804998          -49.11650
    108       2.00000          -1.804840          -49.11218
    109       2.00000          -1.804840          -49.11218
    110       2.00000          -1.804840          -49.11218
    111       2.00000          -1.804840          -49.11218
    112       2.00000          -1.804840          -49.11218
    113       2.00000          -1.804840          -49.11218
    114       2.00000          -1.804840          -49.11218
    115       2.00000          -1.804840          -49.11218
    116       2.00000          -1.804840          -49.11218
    117       2.00000          -1.804840          -49.11218
    118       2.00000          -1.804840          -49.11218
    119       2.00000          -1.804840          -49.11218
    120       2.00000          -1.803719          -49.08170
    121       2.00000          -1.803719          -49.08170
    122       2.00000          -1.803719          -49.08170
    123       2.00000          -1.803719          -49.08170
    124       2.00000          -1.803719          -49.08170
    125       2.00000          -1.803719          -49.08170
    126       2.00000          -1.803719          -49.08170
    127       2.00000          -1.803719          -49.08170
    128       2.00000          -1.803719          -49.08170
    129       2.00000          -1.803719          -49.08170
    130       2.00000          -1.803719          -49.08170
    131       2.00000          -1.803719          -49.08170
    132       2.00000          -1.803569          -49.07760
    133       2.00000          -1.803569          -49.07760
    134       2.00000          -1.803569          -49.07760
    135       2.00000          -1.803569          -49.07760
    136       2.00000          -1.803569          -49.07760
    137       2.00000          -1.803569          -49.07760
    138       2.00000          -1.803569          -49.07760
    139       2.00000          -1.803569          -49.07760
    140       2.00000          -1.803569          -49.07760
    141       2.00000          -1.803569          -49.07760
    142       2.00000          -1.803569          -49.07760
    143       2.00000          -1.803569          -49.07760
    144       2.00000          -1.803168          -49.06669
    145       2.00000          -1.803168          -49.06669
    146       2.00000          -1.803168          -49.06669
    147       2.00000          -1.803168          -49.06669
    148       2.00000          -1.803168          -49.06669
    149       2.00000          -1.803168          -49.06669
    150       2.00000          -1.803168          -49.06669
    151       2.00000          -1.803168          -49.06669
    152       2.00000          -1.803168          -49.06669
    153       2.00000          -1.803168          -49.06669
    154       2.00000          -1.803168          -49.06669
    155       2.00000          -1.803168          -49.06669
    156       2.00000          -1.803168          -49.06669
    157       2.00000          -1.803168          -49.06669
    158       2.00000          -1.803168          -49.06669
    159       2.00000          -1.803168          -49.06669
    160       2.00000          -1.802924          -49.06005
    161       2.00000          -1.802924          -49.06005
    162       2.00000          -1.802924          -49.06005
    163       2.00000          -1.005923          -27.37256
    164       2.00000          -0.970917          -26.42000
    165       2.00000          -0.970917          -26.42000
    166       2.00000          -0.970917          -26.42000
    167       2.00000          -0.970917          -26.42000
    168       2.00000          -0.970917          -26.42000
    169       2.00000          -0.970917          -26.42000
    170       2.00000          -0.970917          -26.42000
    171       2.00000          -0.970917          -26.42000
    172       2.00000          -0.963184          -26.20957
    173       2.00000          -0.963184          -26.20957
    174       2.00000          -0.963184          -26.20957
    175       2.00000          -0.963184          -26.20957
    176       2.00000          -0.963184          -26.20957
    177       2.00000          -0.963184          -26.20957
    178       2.00000          -0.949123          -25.82695
    179       2.00000          -0.949123          -25.82695
    180       2.00000          -0.949123          -25.82695
    181       2.00000          -0.949123          -25.82695
    182       2.00000          -0.949123          -25.82695
    183       2.00000          -0.949123          -25.82695
    184       2.00000          -0.949123          -25.82695
    185       2.00000          -0.949123          -25.82695
    186       2.00000          -0.949123          -25.82695
    187       2.00000          -0.949123          -25.82695
    188       2.00000          -0.949123          -25.82695
    189       2.00000          -0.949123          -25.82695
    190       2.00000          -0.510909          -13.90255
    191       2.00000          -0.510909          -13.90255
    192       2.00000          -0.510909          -13.90255
    193       2.00000          -0.510909          -13.90255
    194       2.00000          -0.510909          -13.90255
    195       2.00000          -0.510909          -13.90255
    196       2.00000          -0.510909          -13.90255
    197       2.00000          -0.510909          -13.90255
    198       2.00000          -0.502286          -13.66789
    199       2.00000          -0.502286          -13.66789
    200       2.00000          -0.502286          -13.66789
    201       2.00000          -0.502286          -13.66789
    202       2.00000          -0.502286          -13.66789
    203       2.00000          -0.502286          -13.66789
    204       2.00000          -0.494302          -13.45064
    205       2.00000          -0.494302          -13.45064
    206       2.00000          -0.494302          -13.45064
    207       2.00000          -0.494302          -13.45064
    208       2.00000          -0.494302          -13.45064
    209       2.00000          -0.494302          -13.45064
    210       2.00000          -0.494302          -13.45064
    211       2.00000          -0.494302          -13.45064
    212       2.00000          -0.494302          -13.45064
    213       2.00000          -0.494302          -13.45064
    214       2.00000          -0.494302          -13.45064
    215       2.00000          -0.494302          -13.45064
    216       2.00000          -0.488333          -13.28820
    217       2.00000          -0.488333          -13.28820
    218       2.00000          -0.488333          -13.28820
    219       2.00000          -0.488333          -13.28820
    220       2.00000          -0.488333          -13.28820
    221       2.00000          -0.488333          -13.28820
    222       2.00000          -0.488333          -13.28820
    223       2.00000          -0.488333          -13.28820
    224       2.00000          -0.488333          -13.28820
    225       2.00000          -0.488333          -13.28820
    226       2.00000          -0.488333          -13.28820
    227       2.00000          -0.488333          -13.28820
    228       2.00000          -0.414049          -11.26684
    229       2.00000          -0.414049          -11.26684
    230       2.00000          -0.414049          -11.26684
    231       2.00000          -0.414049          -11.26684
    232       2.00000          -0.414049          -11.26684
    233       2.00000          -0.414049          -11.26684
    234       2.00000          -0.414049          -11.26684
    235       2.00000          -0.414049          -11.26684
    236       2.00000          -0.414049          -11.26684
    237       2.00000          -0.414049          -11.26684
    238       2.00000          -0.414049          -11.26684
    239       2.00000          -0.414049          -11.26684
    240       2.00000          -0.411943          -11.20954
    241       2.00000          -0.411943          -11.20954
    242       2.00000          -0.411943          -11.20954
    243       2.00000          -0.411943          -11.20954
    244       2.00000          -0.411943          -11.20954
    245       2.00000          -0.411943          -11.20954
    246       2.00000          -0.411943          -11.20954
    247       2.00000          -0.411943          -11.20954
    248       2.00000          -0.411943          -11.20954
    249       2.00000          -0.411943          -11.20954
    250       2.00000          -0.411943          -11.20954
    251       2.00000          -0.411943          -11.20954
    252       2.00000          -0.393463          -10.70667
    253       2.00000          -0.393463          -10.70667
    254       2.00000          -0.393463          -10.70667
    255       2.00000          -0.393463          -10.70667
    256       2.00000          -0.393463          -10.70667
    257       2.00000          -0.393463          -10.70667
    258       2.00000          -0.393463          -10.70667
    259       2.00000          -0.393463          -10.70667
    260       2.00000          -0.393463          -10.70667
    261       2.00000          -0.393463          -10.70667
    262       2.00000          -0.393463          -10.70667
    263       2.00000          -0.393463          -10.70667
    264       2.00000          -0.393463          -10.70667
    265       2.00000          -0.393463          -10.70667
    266       2.00000          -0.393463          -10.70667
    267       2.00000          -0.393463          -10.70667
    268       2.00000          -0.375132          -10.20786
    269       2.00000          -0.375132          -10.20786
    270       2.00000          -0.375132          -10.20786
    271       0.00000          -0.206791           -5.62708
    272       0.00000          -0.099028           -2.69468
    273       0.00000          -0.099028           -2.69468
    274       0.00000          -0.099028           -2.69468
    275       0.00000          -0.099028           -2.69468
    276       0.00000          -0.099028           -2.69468
    277       0.00000          -0.099028           -2.69468
    278       0.00000          -0.099028           -2.69468
    279       0.00000          -0.099028           -2.69468
    280       0.00000          -0.039479           -1.07428
    281       0.00000          -0.039479           -1.07428
    282       0.00000          -0.039479           -1.07428
    283       0.00000          -0.039479           -1.07428
    284       0.00000          -0.039479           -1.07428
    285       0.00000          -0.039479           -1.07428
    286       0.00000          -0.013833           -0.37641
    287       0.00000          -0.013833           -0.37641
    288       0.00000          -0.013833           -0.37641
    289       0.00000          -0.013833           -0.37641
    290       0.00000          -0.013833           -0.37641
    291       0.00000          -0.013833           -0.37641
    292       0.00000          -0.001834           -0.04992
    293       0.00000          -0.001834           -0.04992
    294       0.00000          -0.001834           -0.04992
    295       0.00000          -0.001834           -0.04992
    296       0.00000          -0.001834           -0.04992
    297       0.00000          -0.001834           -0.04992
    298       0.00000          -0.001834           -0.04992
    299       0.00000          -0.001834           -0.04992
    300       0.00000          -0.001834           -0.04992
    301       0.00000          -0.001834           -0.04992
    302       0.00000          -0.001834           -0.04991
    303       0.00000          -0.001834           -0.04991
    304       0.00000           0.067195            1.82847
    305       0.00000           0.067195            1.82847
    306       0.00000           0.067195            1.82847
    307       0.00000           0.067195            1.82847
    308       0.00000           0.067195            1.82847
    309       0.00000           0.067195            1.82847
    310       0.00000           0.067195            1.82847
    311       0.00000           0.067195            1.82847
    312       0.00000           0.067195            1.82847
    313       0.00000           0.067195            1.82847
    314       0.00000           0.067195            1.82847
    315       0.00000           0.067195            1.82847
    316       0.00000           0.071373            1.94217
    317       0.00000           0.071373            1.94217
    318       0.00000           0.071373            1.94217
    319       0.00000           0.071373            1.94217
    320       0.00000           0.071373            1.94217
    321       0.00000           0.071373            1.94217
    322       0.00000           0.071373            1.94217
    323       0.00000           0.071373            1.94217
    324       0.00000           0.081453            2.21645
    325       0.00000           0.081453            2.21645
    326       0.00000           0.081453            2.21645
    327       0.00000           0.081453            2.21645
    328       0.00000           0.081453            2.21645
    329       0.00000           0.081453            2.21645
    330       0.00000           0.081453            2.21645
    331       0.00000           0.081453            2.21645
    332       0.00000           0.081453            2.21645
    333       0.00000           0.081453            2.21645
    334       0.00000           0.081453            2.21645
    335       0.00000           0.081453            2.21645
    336       0.00000           0.139698            3.80138
    337       0.00000           0.139698            3.80138
    338       0.00000           0.139698            3.80138
    339       0.00000           0.139698            3.80138
    340       0.00000           0.139698            3.80138
    341       0.00000           0.139698            3.80138
    342       0.00000           0.205039            5.57939
    343       0.00000           0.205039            5.57939
    344       0.00000           0.205039            5.57939
    345       0.00000           0.237579            6.46487
    346       0.00000           0.237579            6.46487
    347       0.00000           0.237579            6.46487
    348       0.00000           0.237579            6.46487
    349       0.00000           0.237579            6.46487
    350       0.00000           0.237579            6.46487
    351       0.00000           0.237580            6.46487
    352       0.00000           0.237580            6.46487
    353       0.00000           0.237580            6.46487
    354       0.00000           0.237580            6.46487
    355       0.00000           0.237580            6.46487
    356       0.00000           0.237580            6.46487
    357       0.00000           0.237580            6.46487
    358       0.00000           0.237580            6.46487
    359       0.00000           0.237580            6.46487
    360       0.00000           0.237580            6.46487
    361       0.00000           0.288454            7.84924
    362       0.00000           0.288454            7.84924
    363       0.00000           0.288454            7.84924
    364       0.00000           0.288454            7.84924
    365       0.00000           0.288454            7.84924
    366       0.00000           0.288454            7.84924
    367       0.00000           0.288454            7.84924
    368       0.00000           0.288454            7.84924
    369       0.00000           0.288454            7.84925
    370       0.00000           0.288454            7.84925
    371       0.00000           0.288455            7.84925
    372       0.00000           0.288455            7.84925
    373       0.00000           0.294663            8.01819
    374       0.00000           0.294663            8.01819
    375       0.00000           0.294663            8.01819
    376       0.00000           0.294663            8.01819
    377       0.00000           0.294663            8.01820
    378       0.00000           0.294663            8.01820
    379       0.00000           0.294663            8.01820
    380       0.00000           0.294663            8.01820
    381       0.00000           0.294663            8.01820
    382       0.00000           0.294663            8.01820
    383       0.00000           0.294663            8.01820
    384       0.00000           0.294663            8.01820
    385       0.00000           0.316828            8.62133
    386       0.00000           0.316828            8.62133
    387       0.00000           0.316828            8.62133
    388       0.00000           0.316828            8.62133
    389       0.00000           0.316828            8.62133
    390       0.00000           0.316828            8.62133
    391       0.00000           0.316828            8.62133
    392       0.00000           0.316828            8.62133
    393       0.00000           0.316828            8.62133
    394       0.00000           0.316828            8.62133
    395       0.00000           0.316828            8.62133
    396       0.00000           0.316828            8.62133
    397       0.00000           0.337859            9.19360
    398       0.00000           0.399447           10.86950
    399       0.00000           0.399447           10.86950
    400       0.00000           0.399447           10.86950
    401       0.00000           0.399447           10.86950
    402       0.00000           0.399447           10.86950
    403       0.00000           0.399447           10.86950
    404       0.00000           0.399447           10.86950
    405       0.00000           0.399447           10.86950
    406       0.00000           0.399447           10.86950
    407       0.00000           0.399447           10.86950
    408       0.00000           0.399447           10.86950
    409       0.00000           0.399447           10.86950
    410       0.00000           0.399447           10.86950
    411       0.00000           0.399447           10.86950
    412       0.00000           0.399447           10.86950
    413       0.00000           0.399447           10.86950
    414       0.00000           0.420168           11.43336
    415       0.00000           0.420169           11.43337
    416       0.00000           0.439911           11.97059
    417       0.00000           0.439911           11.97059
    418       0.00000           0.439911           11.97059
    419       0.00000           0.439911           11.97059
    420       0.00000           0.439911           11.97059
    421       0.00000           0.439911           11.97059
    422       0.00000           0.439911           11.97059
    423       0.00000           0.439911           11.97059
    424       0.00000           0.478928           13.03230
    425       0.00000           0.478928           13.03230
    426       0.00000           0.478928           13.03230
    427       0.00000           0.478928           13.03230
    428       0.00000           0.478928           13.03230
    429       0.00000           0.478928           13.03230
    430       0.00000           0.478928           13.03230
    431       0.00000           0.478928           13.03230
    432       0.00000           0.478928           13.03231

  What follows are estimated values for band gap, HOMO, LUMO, etc.
  | They are estimated on a discrete k-point grid and not necessarily exact.
  | For converged numbers, create a DOS and/or band structure plot on a denser k-grid.

  Highest occupied state (VBM) at    -10.20785937 eV (relative to internal zero)
  | Occupation number:      2.00000000
  | K-point:       1 at    0.000000    0.000000    0.000000 (in units of recip. lattice)

  Lowest unoccupied state (CBM) at    -5.62707853 eV (relative to internal zero)
  | Occupation number:      0.00000000
  | K-point:       1 at    0.000000    0.000000    0.000000 (in units of recip. lattice)

  The gap value is above 0.2 eV. Unless you are using a very sparse k-point grid,
  this system is most likely an insulator or a semiconductor.
  ESTIMATED overall HOMO-LUMO gap:      4.58078085 eV between HOMO at k-point 1 and LUMO at k-point 1
  | This appears to be a direct band gap.

  Total energy components:
  | Sum of eigenvalues            :       -4097.98609440 Ha     -111511.87529049 eV
  | XC energy correction          :        -659.68718287 Ha      -17951.00158283 eV
  | XC potential correction       :         859.29287989 Ha       23382.54895285 eV
  | Free-atom electrostatic energy:       -3520.83114206 Ha      -95806.68996607 eV
  | Hartree energy correction     :         -12.35665967 Ha        -336.24181742 eV
  | Entropy correction            :           0.00000000 Ha           0.00000000 eV
  | ---------------------------
  | Total energy                  :       -7431.56819911 Ha     -202223.25970397 eV
  | Total energy, T -> 0          :       -7431.56819911 Ha     -202223.25970397 eV  <-- do not rely on this value for anything but (periodic) metals
  | Electronic free energy        :       -7431.56819911 Ha     -202223.25970397 eV

  Derived energy quantities:
  | Kinetic energy                :        7432.40205440 Ha      202245.95006100 eV
  | Electrostatic energy          :      -14204.28307064 Ha     -386518.20818213 eV
  | Energy correction for multipole
  | error in Hartree potential    :           0.02686741 Ha           0.73109937 eV
  | Sum of eigenvalues per atom                           :       -2065.03472760 eV
  | Total energy (T->0) per atom                          :       -3744.87517970 eV  <-- do not rely on this value for anything but (periodic) metals
  | Electronic free energy per atom                       :       -3744.87517970 eV

  Self-consistency convergence accuracy:
  | Change of charge density      :  0.7711E-11
  | Change of unmixed KS density  :  0.7708E-11
  | Change of sum of eigenvalues  :  0.2722E-09 eV
  | Change of total energy        :  0.0000E+00 eV

  Writing Kohn-Sham eigenvalues.
  K-point:       1 at    0.000000    0.000000    0.000000 (in units of recip. lattice)

  State    Occupation    Eigenvalue [Ha]    Eigenvalue [eV]
      1       2.00000         -46.339376        -1260.95856
      2       2.00000         -46.339376        -1260.95856
      3       2.00000         -46.339376        -1260.95856
      4       2.00000         -46.339376        -1260.95856
      5       2.00000         -46.339376        -1260.95856
      6       2.00000         -46.339376        -1260.95856
      7       2.00000         -46.339376        -1260.95856
      8       2.00000         -46.339376        -1260.95856
      9       2.00000         -46.339376        -1260.95856
     10       2.00000         -46.339376        -1260.95856
     11       2.00000         -46.339376        -1260.95856
     12       2.00000         -46.339376        -1260.95856
     13       2.00000         -46.339376        -1260.95856
     14       2.00000         -46.339376        -1260.95856
     15       2.00000         -46.339376        -1260.95856
     16       2.00000         -46.339376        -1260.95856
     17       2.00000         -46.339376        -1260.95856
     18       2.00000         -46.339376        -1260.95856
     19       2.00000         -46.339376        -1260.95856
     20       2.00000         -46.339376        -1260.95856
     21       2.00000         -46.339376        -1260.95856
     22       2.00000         -46.339376        -1260.95856
     23       2.00000         -46.339376        -1260.95856
     24       2.00000         -46.339376        -1260.95856
     25       2.00000         -46.339376        -1260.95856
     26       2.00000         -46.339376        -1260.95856
     27       2.00000         -46.339376        -1260.95856
     28       2.00000         -18.814010         -511.95525
     29       2.00000         -18.814010         -511.95525
     30       2.00000         -18.814010         -511.95525
     31       2.00000         -18.814010         -511.95525
     32       2.00000         -18.814010         -511.95525
     33       2.00000         -18.814010         -511.95525
     34       2.00000         -18.814010         -511.95525
     35       2.00000         -18.814010         -511.95525
     36       2.00000         -18.814010         -511.95525
     37       2.00000         -18.814010         -511.95525
     38       2.00000         -18.814010         -511.95525
     39       2.00000         -18.814010         -511.95525
     40       2.00000         -18.814010         -511.95525
     41       2.00000         -18.814010         -511.95525
     42       2.00000         -18.814010         -511.95525
     43       2.00000         -18.814010         -511.95525
     44       2.00000         -18.814010         -511.95525
     45       2.00000         -18.814010         -511.95525
     46       2.00000         -18.814010         -511.95525
     47       2.00000         -18.814010         -511.95525
     48       2.00000         -18.814010         -511.95525
     49       2.00000         -18.814010         -511.95525
     50       2.00000         -18.814010         -511.95525
     51       2.00000         -18.814010         -511.95525
     52       2.00000         -18.814010         -511.95525
     53       2.00000         -18.814010         -511.95525
     54       2.00000         -18.814010         -511.95525
     55       2.00000          -3.018848          -82.14703
     56       2.00000          -3.018608          -82.14050
     57       2.00000          -3.018608          -82.14050
     58       2.00000          -3.018608          -82.14050
     59       2.00000          -3.018608          -82.14050
     60       2.00000          -3.018608          -82.14050
     61       2.00000          -3.018608          -82.14050
     62       2.00000          -3.018608          -82.14050
     63       2.00000          -3.018608          -82.14050
     64       2.00000          -3.018528          -82.13833
     65       2.00000          -3.018528          -82.13833
     66       2.00000          -3.018528          -82.13833
     67       2.00000          -3.018528          -82.13833
     68       2.00000          -3.018528          -82.13833
     69       2.00000          -3.018528          -82.13833
     70       2.00000          -3.018448          -82.13615
     71       2.00000          -3.018448          -82.13615
     72       2.00000          -3.018448          -82.13615
     73       2.00000          -3.018448          -82.13615
     74       2.00000          -3.018448          -82.13615
     75       2.00000          -3.018448          -82.13615
     76       2.00000          -3.018448          -82.13615
     77       2.00000          -3.018448          -82.13615
     78       2.00000          -3.018448          -82.13615
     79       2.00000          -3.018448          -82.13615
     80       2.00000          -3.018448          -82.13615
     81       2.00000          -3.018448          -82.13615
     82       2.00000          -1.805319          -49.12524
     83       2.00000          -1.805319          -49.12524
     84       2.00000          -1.805319          -49.12524
     85       2.00000          -1.805319          -49.12524
     86       2.00000          -1.805319          -49.12524
     87       2.00000          -1.805319          -49.12524
     88       2.00000          -1.805319          -49.12524
     89       2.00000          -1.805319          -49.12524
     90       2.00000          -1.805017          -49.11702
     91       2.00000          -1.805017          -49.11702
     92       2.00000          -1.805017          -49.11702
     93       2.00000          -1.805017          -49.11702
     94       2.00000          -1.805017          -49.11702
     95       2.00000          -1.805017          -49.11702
     96       2.00000          -1.804998          -49.11650
     97       2.00000          -1.804998          -49.11650
     98       2.00000          -1.804998          -49.11650
     99       2.00000          -1.804998          -49.11650
    100       2.00000          -1.804998          -49.11650
    101       2.00000          -1.804998          -49.11650
    102       2.00000          -1.804998          -49.11650
    103       2.00000          -1.804998          -49.11650
    104       2.00000          -1.804998          -49.11650
    105       2.00000          -1.804998          -49.11650
    106       2.00000          -1.804998          -49.11650
    107       2.00000          -1.804998          -49.11650
    108       2.00000          -1.804840          -49.11218
    109       2.00000          -1.804840          -49.11218
    110       2.00000          -1.804840          -49.11218
    111       2.00000          -1.804840          -49.11218
    112       2.00000          -1.804840          -49.11218
    113       2.00000          -1.804840          -49.11218
    114       2.00000          -1.804840          -49.11218
    115       2.00000          -1.804840          -49.11218
    116       2.00000          -1.804840          -49.11218
    117       2.00000          -1.804840          -49.11218
    118       2.00000          -1.804840          -49.11218
    119       2.00000          -1.804840          -49.11218
    120       2.00000          -1.803719          -49.08170
    121       2.00000          -1.803719          -49.08170
    122       2.00000          -1.803719          -49.08170
    123       2.00000          -1.803719          -49.08170
    124       2.00000          -1.803719          -49.08170
    125       2.00000          -1.803719          -49.08170
    126       2.00000          -1.803719          -49.08170
    127       2.00000          -1.803719          -49.08170
    128       2.00000          -1.803719          -49.08170
    129       2.00000          -1.803719          -49.08170
    130       2.00000          -1.803719          -49.08170
    131       2.00000          -1.803719          -49.08170
    132       2.00000          -1.803569          -49.07760
    133       2.00000          -1.803569          -49.07760
    134       2.00000          -1.803569          -49.07760
    135       2.00000          -1.803569          -49.07760
    136       2.00000          -1.803569          -49.07760
    137       2.00000          -1.803569          -49.07760
    138       2.00000          -1.803569          -49.07760
    139       2.00000          -1.803569          -49.07760
    140       2.00000          -1.803569          -49.07760
    141       2.00000          -1.803569          -49.07760
    142       2.00000          -1.803569          -49.07760
    143       2.00000          -1.803569          -49.07760
    144       2.00000          -1.803168          -49.06669
    145       2.00000          -1.803168          -49.06669
    146       2.00000          -1.803168          -49.06669
    147       2.00000          -1.803168          -49.06669
    148       2.00000          -1.803168          -49.06669
    149       2.00000          -1.803168          -49.06669
    150       2.00000          -1.803168          -49.06669
    151       2.00000          -1.803168          -49.06669
    152       2.00000          -1.803168          -49.06669
    153       2.00000          -1.803168          -49.06669
    154       2.00000          -1.803168          -49.06669
    155       2.00000          -1.803168          -49.06669
    156       2.00000          -1.803168          -49.06669
    157       2.00000          -1.803168          -49.06669
    158       2.00000          -1.803168          -49.06669
    159       2.00000          -1.803168          -49.06669
    160       2.00000          -1.802924          -49.06005
    161       2.00000          -1.802924          -49.06005
    162       2.00000          -1.802924          -49.06005
    163       2.00000          -1.005923          -27.37256
    164       2.00000          -0.970917          -26.42000
    165       2.00000          -0.970917          -26.42000
    166       2.00000          -0.970917          -26.42000
    167       2.00000          -0.970917          -26.42000
    168       2.00000          -0.970917          -26.42000
    169       2.00000          -0.970917          -26.42000
    170       2.00000          -0.970917          -26.42000
    171       2.00000          -0.970917          -26.42000
    172       2.00000          -0.963184          -26.20957
    173       2.00000          -0.963184          -26.20957
    174       2.00000          -0.963184          -26.20957
    175       2.00000          -0.963184          -26.20957
    176       2.00000          -0.963184          -26.20957
    177       2.00000          -0.963184          -26.20957
    178       2.00000          -0.949123          -25.82695
    179       2.00000          -0.949123          -25.82695
    180       2.00000          -0.949123          -25.82695
    181       2.00000          -0.949123          -25.82695
    182       2.00000          -0.949123          -25.82695
    183       2.00000          -0.949123          -25.82695
    184       2.00000          -0.949123          -25.82695
    185       2.00000          -0.949123          -25.82695
    186       2.00000          -0.949123          -25.82695
    187       2.00000          -0.949123          -25.82695
    188       2.00000          -0.949123          -25.82695
    189       2.00000          -0.949123          -25.82695
    190       2.00000          -0.510909          -13.90255
    191       2.00000          -0.510909          -13.90255
    192       2.00000          -0.510909          -13.90255
    193       2.00000          -0.510909          -13.90255
    194       2.00000          -0.510909          -13.90255
    195       2.00000          -0.510909          -13.90255
    196       2.00000          -0.510909          -13.90255
    197       2.00000          -0.510909          -13.90255
    198       2.00000          -0.502286          -13.66789
    199       2.00000          -0.502286          -13.66789
    200       2.00000          -0.502286          -13.66789
    201       2.00000          -0.502286          -13.66789
    202       2.00000          -0.502286          -13.66789
    203       2.00000          -0.502286          -13.66789
    204       2.00000          -0.494302          -13.45064
    205       2.00000          -0.494302          -13.45064
    206       2.00000          -0.494302          -13.45064
    207       2.00000          -0.494302          -13.45064
    208       2.00000          -0.494302          -13.45064
    209       2.00000          -0.494302          -13.45064
    210       2.00000          -0.494302          -13.45064
    211       2.00000          -0.494302          -13.45064
    212       2.00000          -0.494302          -13.45064
    213       2.00000          -0.494302          -13.45064
    214       2.00000          -0.494302          -13.45064
    215       2.00000          -0.494302          -13.45064
    216       2.00000          -0.488333          -13.28820
    217       2.00000          -0.488333          -13.28820
    218       2.00000          -0.488333          -13.28820
    219       2.00000          -0.488333          -13.28820
    220       2.00000          -0.488333          -13.28820
    221       2.00000          -0.488333          -13.28820
    222       2.00000          -0.488333          -13.28820
    223       2.00000          -0.488333          -13.28820
    224       2.00000          -0.488333          -13.28820
    225       2.00000          -0.488333          -13.28820
    226       2.00000          -0.488333          -13.28820
    227       2.00000          -0.488333          -13.28820
    228       2.00000          -0.414049          -11.26684
    229       2.00000          -0.414049          -11.26684
    230       2.00000          -0.414049          -11.26684
    231       2.00000          -0.414049          -11.26684
    232       2.00000          -0.414049          -11.26684
    233       2.00000          -0.414049          -11.26684
    234       2.00000          -0.414049          -11.26684
    235       2.00000          -0.414049          -11.26684
    236       2.00000          -0.414049          -11.26684
    237       2.00000          -0.414049          -11.26684
    238       2.00000          -0.414049          -11.26684
    239       2.00000          -0.414049          -11.26684
    240       2.00000          -0.411943          -11.20954
    241       2.00000          -0.411943          -11.20954
    242       2.00000          -0.411943          -11.20954
    243       2.00000          -0.411943          -11.20954
    244       2.00000          -0.411943          -11.20954
    245       2.00000          -0.411943          -11.20954
    246       2.00000          -0.411943          -11.20954
    247       2.00000          -0.411943          -11.20954
    248       2.00000          -0.411943          -11.20954
    249       2.00000          -0.411943          -11.20954
    250       2.00000          -0.411943          -11.20954
    251       2.00000          -0.411943          -11.20954
    252       2.00000          -0.393463          -10.70667
    253       2.00000          -0.393463          -10.70667
    254       2.00000          -0.393463          -10.70667
    255       2.00000          -0.393463          -10.70667
    256       2.00000          -0.393463          -10.70667
    257       2.00000          -0.393463          -10.70667
    258       2.00000          -0.393463          -10.70667
    259       2.00000          -0.393463          -10.70667
    260       2.00000          -0.393463          -10.70667
    261       2.00000          -0.393463          -10.70667
    262       2.00000          -0.393463          -10.70667
    263       2.00000          -0.393463          -10.70667
    264       2.00000          -0.393463          -10.70667
    265       2.00000          -0.393463          -10.70667
    266       2.00000          -0.393463          -10.70667
    267       2.00000          -0.393463          -10.70667
    268       2.00000          -0.375132          -10.20786
    269       2.00000          -0.375132          -10.20786
    270       2.00000          -0.375132          -10.20786
    271       0.00000          -0.206791           -5.62708
    272       0.00000          -0.099028           -2.69468
    273       0.00000          -0.099028           -2.69468
    274       0.00000          -0.099028           -2.69468
    275       0.00000          -0.099028           -2.69468
    276       0.00000          -0.099028           -2.69468
    277       0.00000          -0.099028           -2.69468
    278       0.00000          -0.099028           -2.69468
    279       0.00000          -0.099028           -2.69468
    280       0.00000          -0.039479           -1.07428
    281       0.00000          -0.039479           -1.07428
    282       0.00000          -0.039479           -1.07428
    283       0.00000          -0.039479           -1.07428
    284       0.00000          -0.039479           -1.07428
    285       0.00000          -0.039479           -1.07428
    286       0.00000          -0.013833           -0.37641
    287       0.00000          -0.013833           -0.37641
    288       0.00000          -0.013833           -0.37641
    289       0.00000          -0.013833           -0.37641
    290       0.00000          -0.013833           -0.37641
    291       0.00000          -0.013833           -0.37641
    292       0.00000          -0.001834           -0.04992
    293       0.00000          -0.001834           -0.04992
    294       0.00000          -0.001834           -0.04992
    295       0.00000          -0.001834           -0.04992
    296       0.00000          -0.001834           -0.04992
    297       0.00000          -0.001834           -0.04992
    298       0.00000          -0.001834           -0.04992
    299       0.00000          -0.001834           -0.04992
    300       0.00000          -0.001834           -0.04992
    301       0.00000          -0.001834           -0.04992
    302       0.00000          -0.001834           -0.04991
    303       0.00000          -0.001834           -0.04991
    304       0.00000           0.067195            1.82847
    305       0.00000           0.067195            1.82847
    306       0.00000           0.067195            1.82847
    307       0.00000           0.067195            1.82847
    308       0.00000           0.067195            1.82847
    309       0.00000           0.067195            1.82847
    310       0.00000           0.067195            1.82847
    311       0.00000           0.067195            1.82847
    312       0.00000           0.067195            1.82847
    313       0.00000           0.067195            1.82847
    314       0.00000           0.067195            1.82847
    315       0.00000           0.067195            1.82847
    316       0.00000           0.071373            1.94217
    317       0.00000           0.071373            1.94217
    318       0.00000           0.071373            1.94217
    319       0.00000           0.071373            1.94217
    320       0.00000           0.071373            1.94217
    321       0.00000           0.071373            1.94217
    322       0.00000           0.071373            1.94217
    323       0.00000           0.071373            1.94217
    324       0.00000           0.081453            2.21645
    325       0.00000           0.081453            2.21645
    326       0.00000           0.081453            2.21645
    327       0.00000           0.081453            2.21645
    328       0.00000           0.081453            2.21645
    329       0.00000           0.081453            2.21645
    330       0.00000           0.081453            2.21645
    331       0.00000           0.081453            2.21645
    332       0.00000           0.081453            2.21645
    333       0.00000           0.081453            2.21645
    334       0.00000           0.081453            2.21645
    335       0.00000           0.081453            2.21645
    336       0.00000           0.139698            3.80138
    337       0.00000           0.139698            3.80138
    338       0.00000           0.139698            3.80138
    339       0.00000           0.139698            3.80138
    340       0.00000           0.139698            3.80138
    341       0.00000           0.139698            3.80138
    342       0.00000           0.205039            5.57939
    343       0.00000           0.205039            5.57939
    344       0.00000           0.205039            5.57939
    345       0.00000           0.237579            6.46487
    346       0.00000           0.237579            6.46487
    347       0.00000           0.237579            6.46487
    348       0.00000           0.237579            6.46487
    349       0.00000           0.237579            6.46487
    350       0.00000           0.237579            6.46487
    351       0.00000           0.237580            6.46487
    352       0.00000           0.237580            6.46487
    353       0.00000           0.237580            6.46487
    354       0.00000           0.237580            6.46487
    355       0.00000           0.237580            6.46487
    356       0.00000           0.237580            6.46487
    357       0.00000           0.237580            6.46487
    358       0.00000           0.237580            6.46487
    359       0.00000           0.237580            6.46487
    360       0.00000           0.237580            6.46487
    361       0.00000           0.288454            7.84924
    362       0.00000           0.288454            7.84924
    363       0.00000           0.288454            7.84924
    364       0.00000           0.288454            7.84924
    365       0.00000           0.288454            7.84924
    366       0.00000           0.288454            7.84924
    367       0.00000           0.288454            7.84924
    368       0.00000           0.288454            7.84924
    369       0.00000           0.288454            7.84925
    370       0.00000           0.288454            7.84925
    371       0.00000           0.288455            7.84925
    372       0.00000           0.288455            7.84925
    373       0.00000           0.294663            8.01819
    374       0.00000           0.294663            8.01819
    375       0.00000           0.294663            8.01819
    376       0.00000           0.294663            8.01819
    377       0.00000           0.294663            8.01820
    378       0.00000           0.294663            8.01820
    379       0.00000           0.294663            8.01820
    380       0.00000           0.294663            8.01820
    381       0.00000           0.294663            8.01820
    382       0.00000           0.294663            8.01820
    383       0.00000           0.294663            8.01820
    384       0.00000           0.294663            8.01820
    385       0.00000           0.316828            8.62133
    386       0.00000           0.316828            8.62133
    387       0.00000           0.316828            8.62133
    388       0.00000           0.316828            8.62133
    389       0.00000           0.316828            8.62133
    390       0.00000           0.316828            8.62133
    391       0.00000           0.316828            8.62133
    392       0.00000           0.316828            8.62133
    393       0.00000           0.316828            8.62133
    394       0.00000           0.316828            8.62133
    395       0.00000           0.316828            8.62133
    396       0.00000           0.316828            8.62133
    397       0.00000           0.337859            9.19360
    398       0.00000           0.399447           10.86950
    399       0.00000           0.399447           10.86950
    400       0.00000           0.399447           10.86950
    401       0.00000           0.399447           10.86950
    402       0.00000           0.399447           10.86950
    403       0.00000           0.399447           10.86950
    404       0.00000           0.399447           10.86950
    405       0.00000           0.399447           10.86950
    406       0.00000           0.399447           10.86950
    407       0.00000           0.399447           10.86950
    408       0.00000           0.399447           10.86950
    409       0.00000           0.399447           10.86950
    410       0.00000           0.399447           10.86950
    411       0.00000           0.399447           10.86950
    412       0.00000           0.399447           10.86950
    413       0.00000           0.399447           10.86950
    414       0.00000           0.420168           11.43336
    415       0.00000           0.420169           11.43337
    416       0.00000           0.439911           11.97059
    417       0.00000           0.439911           11.97059
    418       0.00000           0.439911           11.97059
    419       0.00000           0.439911           11.97059
    420       0.00000           0.439911           11.97059
    421       0.00000           0.439911           11.97059
    422       0.00000           0.439911           11.97059
    423       0.00000           0.439911           11.97059
    424       0.00000           0.478928           13.03230
    425       0.00000           0.478928           13.03230
    426       0.00000           0.478928           13.03230
    427       0.00000           0.478928           13.03230
    428       0.00000           0.478928           13.03230
    429       0.00000           0.478928           13.03230
    430       0.00000           0.478928           13.03230
    431       0.00000           0.478928           13.03230
    432       0.00000           0.478928           13.03231

  What follows are estimated values for band gap, HOMO, LUMO, etc.
  | They are estimated on a discrete k-point grid and not necessarily exact.
  | For converged numbers, create a DOS and/or band structure plot on a denser k-grid.

  Highest occupied state (VBM) at    -10.20785937 eV (relative to internal zero)
  | Occupation number:      2.00000000
  | K-point:       1 at    0.000000    0.000000    0.000000 (in units of recip. lattice)

  Lowest unoccupied state (CBM) at    -5.62707853 eV (relative to internal zero)
  | Occupation number:      0.00000000
  | K-point:       1 at    0.000000    0.000000    0.000000 (in units of recip. lattice)

  The gap value is above 0.2 eV. Unless you are using a very sparse k-point grid,
  this system is most likely an insulator or a semiconductor.
  ESTIMATED overall HOMO-LUMO gap:      4.58078085 eV between HOMO at k-point 1 and LUMO at k-point 1
  | This appears to be a direct band gap.

  | Chemical Potential                          :    -7.91746895 eV
  | Note that, for insulating systems, the printed 'chemical potential' value is not uniquely defined.
  | It can be anywhere in the energy gap, as long as it correctly separates occupied and unoccupied states.
  | In systems with a gap, the physically relevant chemical potential is the VBM or HOMO.

  Self-consistency cycle converged.


------------------------------------------------------------
  End self-consistency iteration #     1       :  max(cpu_time)    wall_clock(cpu1)
  | Time for this iteration                     :        7.064 s           7.160 s
  | Charge density update                       :        0.000 s           0.000 s
  | Density mixing                              :        0.001 s           0.001 s
  | Hartree multipole update                    :        0.044 s           0.044 s
  | Hartree multipole summation                 :        0.148 s           0.150 s
  | Integration                                 :        3.995 s           4.048 s
  | Solution of K.-S. eqns.                     :        2.871 s           2.909 s
  | Total energy evaluation                     :        0.003 s           0.005 s

  Partial memory accounting:
  | Current value for overall tracked memory usage:
  |   Minimum:      138.364 MB (on task 139)
  |   Maximum:      146.056 MB (on task   2)
  |   Average:      138.511 MB
  | Peak value for overall tracked memory usage:
  |   Minimum:      220.665 MB (on task 139 after allocating eval_tmp)
  |   Maximum:      228.357 MB (on task   2 after allocating eval_tmp)
  |   Average:      220.812 MB
  | Largest tracked array allocation so far:
  |   Minimum:       51.368 MB (overlap_matrix on task   0)
  |   Maximum:       51.368 MB (overlap_matrix on task   0)
  |   Average:       51.368 MB
  | current_memory_estimate       145099896
  Note:  These values currently only include a subset of arrays which are explicitly tracked.
  The "true" memory usage will be greater.
------------------------------------------------------------

  Energy and forces in a compact form:
  | Total energy uncorrected      :         -0.202223259703965E+06 eV
  | Total energy corrected        :         -0.202223259703965E+06 eV  <-- do not rely on this value for anything but (periodic) metals
  | Electronic free energy        :         -0.202223259703965E+06 eV

  ------------------------------------ 
  Start decomposition of the XC Energy 
  ------------------------------------ 
  X and C from original XC functional choice 
  Hartree-Fock Energy :          0.000000000 Ha              0.000000000 eV
  X Energy            :       -636.623356425 Ha         -17323.402933372 eV
  C Energy            :        -23.063826446 Ha           -627.598649461 eV
  XC Energy w/o HF    :       -659.687182871 Ha         -17951.001582833 eV
  Total XC Energy     :       -659.687182871 Ha         -17951.001582833 eV
  ------------------------------------ 
  LDA X and C from self-consistent density 
  X Energy LDA        :       -604.034311778 Ha         -16436.609908990 eV
  C Energy LDA        :        -39.951258754 Ha          -1087.129063210 eV
  ------------------------------------ 
  End decomposition of the XC Energy 
  ------------------------------------ 

------------------------------------------------------------

  Starting with the calculation of the polarization (LAPACK version):
  Allocating        0.000 MB for PZ_Pe
    mem               8 current_memory_estimate       145099904
  Allocating        0.000 MB for PZ_Pe_r
    mem               8 current_memory_estimate       145099912
   |-> Using LAPACK for polarization directive   1 of   1 directives

  -------------------------------------------------------------------
  Computing Wannier centers of charge         (LAPACK version):
  -------------------------------------------------------------------


  Integrating Hamiltonian matrix: batch-based integration.
  Allocating        0.043 MB for gradient_basis_wave
    mem           44832 current_memory_estimate       145144744
  Allocating       26.622 MB for hamiltonian_shell
    mem        27915392 current_memory_estimate       173060136
  Allocating        1.710 MB for H_times_psi
    mem         1793280 current_memory_estimate       174853416
  Allocating        1.710 MB for sq_psi
    mem         1793280 current_memory_estimate       176646696
  Allocating        1.710 MB for wave
    mem         1793280 current_memory_estimate       178439976
  Time summed over all CPUs for integration: real work      620.296 s, elapsed      647.346 s
  Deallocating        1.710 MB for H_times_psi
    mem         1793280 current_memory_estimate       176646696
  Deallocating       26.622 MB for hamiltonian_shell
    mem        27915392 current_memory_estimate       148731304
  Deallocating        1.710 MB for wave
    mem         1793280 current_memory_estimate       146938024
  Deallocating        1.710 MB for sq_psi
    mem         1793280 current_memory_estimate       145144744
  Deallocating        0.043 MB for gradient_basis_wave
    mem           44832 current_memory_estimate       145099912
  Allocating       10.293 MB for hamiltonian_w_complex
    mem        10792656 current_memory_estimate       155892568
  Allocating       10.293 MB for overlap_matrix_w_complex
    mem        10792656 current_memory_estimate       166685224
  Allocating        0.000 MB for hamiltonian_w
    mem               8 current_memory_estimate       166685232
  Allocating        0.000 MB for overlap_matrix_w
    mem               8 current_memory_estimate       166685240
  Allocating        0.000 MB for work_ham
    mem               8 current_memory_estimate       166685248
  Allocating        0.000 MB for work_ovl
    mem               8 current_memory_estimate       166685256
  Allocating        0.000 MB for SOC_Hamiltonian
    mem              16 current_memory_estimate       166685272
  Allocating        0.000 MB for soc_matrix
    mem               8 current_memory_estimate       166685280
  Allocating        0.000 MB for my_k_points
    mem               4 current_memory_estimate       166685284
  Allocating        0.000 MB for de_dk_soc
    mem              16 current_memory_estimate       166685300
  Allocating        0.000 MB for omega_pl_sq_soc
    mem               8 current_memory_estimate       166685308
  Allocating        0.000 MB for de_dk
    mem               8 current_memory_estimate       166685316
  Allocating        0.000 MB for omega_pl_sq
    mem               8 current_memory_estimate       166685324
  Allocating        0.002 MB for k_weights_old
    mem            2080 current_memory_estimate       166687404

  Number of k-points for which the Wannier centers of charge are calculated for:    64
  Number of k-points used at each of this k-points to obtain the Wannier center of charge:     8
  Allocating        0.000 MB for WCC_kpoints
    mem             192 current_memory_estimate       166687596
  Allocating        0.000 MB for KS_eigenvector_for_WCC
    mem               0 current_memory_estimate       166687596
  Allocating        0.026 MB for WCC_eval
    mem           27648 current_memory_estimate       166715244
  Allocating        0.132 MB for WCC_imag
    mem          138240 current_memory_estimate       166853484
  Allocating        1.055 MB for WCC_evalue_phase
    mem         1105920 current_memory_estimate       167959404
  Allocating        1.055 MB for WCC_evalue_phase_r
    mem         1105920 current_memory_estimate       169065324
  Wannier center evolution is sampled along the reciprocal lattice vector  3 in    64 steps.
  - The Wannier center evoulution is computed along the following     64 strings in k_space:
    Band     1 from k_start = -0.500 -0.500  0.500 to k_end = -0.500 -0.500 -0.500
    Band     2 from k_start = -0.500 -0.357  0.500 to k_end = -0.500 -0.357 -0.500
    Band     3 from k_start = -0.500 -0.214  0.500 to k_end = -0.500 -0.214 -0.500
    Band     4 from k_start = -0.500 -0.071  0.500 to k_end = -0.500 -0.071 -0.500
    Band     5 from k_start = -0.500  0.071  0.500 to k_end = -0.500  0.071 -0.500
    Band     6 from k_start = -0.500  0.214  0.500 to k_end = -0.500  0.214 -0.500
    Band     7 from k_start = -0.500  0.357  0.500 to k_end = -0.500  0.357 -0.500
    Band     8 from k_start = -0.500  0.500  0.500 to k_end = -0.500  0.500 -0.500
    Band     9 from k_start = -0.357 -0.500  0.500 to k_end = -0.357 -0.500 -0.500
    Band    10 from k_start = -0.357 -0.357  0.500 to k_end = -0.357 -0.357 -0.500
    Band    11 from k_start = -0.357 -0.214  0.500 to k_end = -0.357 -0.214 -0.500
    Band    12 from k_start = -0.357 -0.071  0.500 to k_end = -0.357 -0.071 -0.500
    Band    13 from k_start = -0.357  0.071  0.500 to k_end = -0.357  0.071 -0.500
    Band    14 from k_start = -0.357  0.214  0.500 to k_end = -0.357  0.214 -0.500
    Band    15 from k_start = -0.357  0.357  0.500 to k_end = -0.357  0.357 -0.500
    Band    16 from k_start = -0.357  0.500  0.500 to k_end = -0.357  0.500 -0.500
    Band    17 from k_start = -0.214 -0.500  0.500 to k_end = -0.214 -0.500 -0.500
    Band    18 from k_start = -0.214 -0.357  0.500 to k_end = -0.214 -0.357 -0.500
    Band    19 from k_start = -0.214 -0.214  0.500 to k_end = -0.214 -0.214 -0.500
    Band    20 from k_start = -0.214 -0.071  0.500 to k_end = -0.214 -0.071 -0.500
    Band    21 from k_start = -0.214  0.071  0.500 to k_end = -0.214  0.071 -0.500
    Band    22 from k_start = -0.214  0.214  0.500 to k_end = -0.214  0.214 -0.500
    Band    23 from k_start = -0.214  0.357  0.500 to k_end = -0.214  0.357 -0.500
    Band    24 from k_start = -0.214  0.500  0.500 to k_end = -0.214  0.500 -0.500
    Band    25 from k_start = -0.071 -0.500  0.500 to k_end = -0.071 -0.500 -0.500
    Band    26 from k_start = -0.071 -0.357  0.500 to k_end = -0.071 -0.357 -0.500
    Band    27 from k_start = -0.071 -0.214  0.500 to k_end = -0.071 -0.214 -0.500
    Band    28 from k_start = -0.071 -0.071  0.500 to k_end = -0.071 -0.071 -0.500
    Band    29 from k_start = -0.071  0.071  0.500 to k_end = -0.071  0.071 -0.500
    Band    30 from k_start = -0.071  0.214  0.500 to k_end = -0.071  0.214 -0.500
    Band    31 from k_start = -0.071  0.357  0.500 to k_end = -0.071  0.357 -0.500
    Band    32 from k_start = -0.071  0.500  0.500 to k_end = -0.071  0.500 -0.500
    Band    33 from k_start =  0.071 -0.500  0.500 to k_end =  0.071 -0.500 -0.500
    Band    34 from k_start =  0.071 -0.357  0.500 to k_end =  0.071 -0.357 -0.500
    Band    35 from k_start =  0.071 -0.214  0.500 to k_end =  0.071 -0.214 -0.500
    Band    36 from k_start =  0.071 -0.071  0.500 to k_end =  0.071 -0.071 -0.500
    Band    37 from k_start =  0.071  0.071  0.500 to k_end =  0.071  0.071 -0.500
    Band    38 from k_start =  0.071  0.214  0.500 to k_end =  0.071  0.214 -0.500
    Band    39 from k_start =  0.071  0.357  0.500 to k_end =  0.071  0.357 -0.500
    Band    40 from k_start =  0.071  0.500  0.500 to k_end =  0.071  0.500 -0.500
    Band    41 from k_start =  0.214 -0.500  0.500 to k_end =  0.214 -0.500 -0.500
    Band    42 from k_start =  0.214 -0.357  0.500 to k_end =  0.214 -0.357 -0.500
    Band    43 from k_start =  0.214 -0.214  0.500 to k_end =  0.214 -0.214 -0.500
    Band    44 from k_start =  0.214 -0.071  0.500 to k_end =  0.214 -0.071 -0.500
    Band    45 from k_start =  0.214  0.071  0.500 to k_end =  0.214  0.071 -0.500
    Band    46 from k_start =  0.214  0.214  0.500 to k_end =  0.214  0.214 -0.500
    Band    47 from k_start =  0.214  0.357  0.500 to k_end =  0.214  0.357 -0.500
    Band    48 from k_start =  0.214  0.500  0.500 to k_end =  0.214  0.500 -0.500
    Band    49 from k_start =  0.357 -0.500  0.500 to k_end =  0.357 -0.500 -0.500
    Band    50 from k_start =  0.357 -0.357  0.500 to k_end =  0.357 -0.357 -0.500
    Band    51 from k_start =  0.357 -0.214  0.500 to k_end =  0.357 -0.214 -0.500
    Band    52 from k_start =  0.357 -0.071  0.500 to k_end =  0.357 -0.071 -0.500
    Band    53 from k_start =  0.357  0.071  0.500 to k_end =  0.357  0.071 -0.500
    Band    54 from k_start =  0.357  0.214  0.500 to k_end =  0.357  0.214 -0.500
    Band    55 from k_start =  0.357  0.357  0.500 to k_end =  0.357  0.357 -0.500
    Band    56 from k_start =  0.357  0.500  0.500 to k_end =  0.357  0.500 -0.500
    Band    57 from k_start =  0.500 -0.500  0.500 to k_end =  0.500 -0.500 -0.500
    Band    58 from k_start =  0.500 -0.357  0.500 to k_end =  0.500 -0.357 -0.500
    Band    59 from k_start =  0.500 -0.214  0.500 to k_end =  0.500 -0.214 -0.500
    Band    60 from k_start =  0.500 -0.071  0.500 to k_end =  0.500 -0.071 -0.500
    Band    61 from k_start =  0.500  0.071  0.500 to k_end =  0.500  0.071 -0.500
    Band    62 from k_start =  0.500  0.214  0.500 to k_end =  0.500  0.214 -0.500
    Band    63 from k_start =  0.500  0.357  0.500 to k_end =  0.500  0.357 -0.500
    Band    64 from k_start =  0.500  0.500  0.500 to k_end =  0.500  0.500 -0.500


  Treating all    8 k-points in band plot segment #   1:
   Sampling over :
   - k =  -0.500 -0.500  0.500
   - k =  -0.500 -0.500  0.357
   - k =  -0.500 -0.500  0.214
   - k =  -0.500 -0.500  0.071
   - k =  -0.500 -0.500 -0.071
   - k =  -0.500 -0.500 -0.214
   - k =  -0.500 -0.500 -0.357
   - k =  -0.500 -0.500 -0.500

  Deallocating        7.653 MB for KS_eigenvector_complex,
    mem         8024832 current_memory_estimate       161040492
  Allocating        0.000 MB for KS_eigenvector_complex
    mem               0 current_memory_estimate       161040492
  |-> Computing Wannier center evolution at k-point number:      1
 Using pol_lapack_version = 2
  Allocating       51.368 MB for WCC_dipmat_all_up
    mem        53863712 current_memory_estimate       214904204
  Allocating       51.368 MB for WCC_dipmat_all_low
    mem        53863712 current_memory_estimate       268767916
 Calculating dipole matrix along reciprocal lattice vector 3:     0.263     0.263    -0.263
  Integrating dipole matrix.
  Allocating        0.014 MB for ylm_tab
    mem           14592 current_memory_estimate       268782508
  Allocating        0.004 MB for radial_wave
    mem            4440 current_memory_estimate       268786948
  Allocating        1.710 MB for wave
    mem         1793280 current_memory_estimate       270580228
  Allocating        1.710 MB for dressed_wave
    mem         1793280 current_memory_estimate       272373508
  Allocating       26.622 MB for dipolemat_shell
    mem        27915392 current_memory_estimate       300288900
  Time summed over all CPUs for integration: real work     1123.238 s, elapsed     1196.613 s
  Deallocating        0.014 MB for ylm_tab
    mem           14592 current_memory_estimate       300274308
  Deallocating       26.622 MB for dipolemat_shell
    mem        27915392 current_memory_estimate       272358916
  Deallocating        0.004 MB for radial_wave
    mem            4440 current_memory_estimate       272354476
  Deallocating        1.710 MB for wave
    mem         1793280 current_memory_estimate       270561196
  Deallocating        1.710 MB for dressed_wave
    mem         1793280 current_memory_estimate       268767916
 Calculating Berry  term along reciprocal lattice vector 3:     0.263     0.263    -0.263
 Calculating dipole term along reciprocal lattice vector 3:     0.263     0.263    -0.263

  Treating all    8 k-points in band plot segment #   2:
   Sampling over :
   - k =  -0.500 -0.357  0.500
   - k =  -0.500 -0.357  0.357
   - k =  -0.500 -0.357  0.214
   - k =  -0.500 -0.357  0.071
   - k =  -0.500 -0.357 -0.071
   - k =  -0.500 -0.357 -0.214
   - k =  -0.500 -0.357 -0.357
   - k =  -0.500 -0.357 -0.500

  Deallocating        0.000 MB for KS_eigenvector_complex,
    mem               0 current_memory_estimate       268767916
  Allocating        0.000 MB for KS_eigenvector_complex
    mem               0 current_memory_estimate       268767916
  |-> Computing Wannier center evolution at k-point number:      2
 Using pol_lapack_version = 2
 Calculating Berry  term along reciprocal lattice vector 3:     0.263     0.263    -0.263
 Calculating dipole term along reciprocal lattice vector 3:     0.263     0.263    -0.263

  Treating all    8 k-points in band plot segment #   3:
   Sampling over :
   - k =  -0.500 -0.214  0.500
   - k =  -0.500 -0.214  0.357
   - k =  -0.500 -0.214  0.214
   - k =  -0.500 -0.214  0.071
   - k =  -0.500 -0.214 -0.071
   - k =  -0.500 -0.214 -0.214
   - k =  -0.500 -0.214 -0.357
   - k =  -0.500 -0.214 -0.500

  Deallocating        0.000 MB for KS_eigenvector_complex,
    mem               0 current_memory_estimate       268767916
  Allocating        0.000 MB for KS_eigenvector_complex
    mem               0 current_memory_estimate       268767916
  |-> Computing Wannier center evolution at k-point number:      3
 Using pol_lapack_version = 2
 Calculating Berry  term along reciprocal lattice vector 3:     0.263     0.263    -0.263
 Calculating dipole term along reciprocal lattice vector 3:     0.263     0.263    -0.263

  Treating all    8 k-points in band plot segment #   4:
   Sampling over :
   - k =  -0.500 -0.071  0.500
   - k =  -0.500 -0.071  0.357
   - k =  -0.500 -0.071  0.214
   - k =  -0.500 -0.071  0.071
   - k =  -0.500 -0.071 -0.071
   - k =  -0.500 -0.071 -0.214
   - k =  -0.500 -0.071 -0.357
   - k =  -0.500 -0.071 -0.500

  Deallocating        0.000 MB for KS_eigenvector_complex,
    mem               0 current_memory_estimate       268767916
  Allocating        0.000 MB for KS_eigenvector_complex
    mem               0 current_memory_estimate       268767916
  |-> Computing Wannier center evolution at k-point number:      4
 Using pol_lapack_version = 2
 Calculating Berry  term along reciprocal lattice vector 3:     0.263     0.263    -0.263
 Calculating dipole term along reciprocal lattice vector 3:     0.263     0.263    -0.263

  Treating all    8 k-points in band plot segment #   5:
   Sampling over :
   - k =  -0.500  0.071  0.500
   - k =  -0.500  0.071  0.357
   - k =  -0.500  0.071  0.214
   - k =  -0.500  0.071  0.071
   - k =  -0.500  0.071 -0.071
   - k =  -0.500  0.071 -0.214
   - k =  -0.500  0.071 -0.357
   - k =  -0.500  0.071 -0.500

  Deallocating        0.000 MB for KS_eigenvector_complex,
    mem               0 current_memory_estimate       268767916
  Allocating        0.000 MB for KS_eigenvector_complex
    mem               0 current_memory_estimate       268767916
  |-> Computing Wannier center evolution at k-point number:      5
 Using pol_lapack_version = 2
 Calculating Berry  term along reciprocal lattice vector 3:     0.263     0.263    -0.263
 Calculating dipole term along reciprocal lattice vector 3:     0.263     0.263    -0.263

  Treating all    8 k-points in band plot segment #   6:
   Sampling over :
   - k =  -0.500  0.214  0.500
   - k =  -0.500  0.214  0.357
   - k =  -0.500  0.214  0.214
   - k =  -0.500  0.214  0.071
   - k =  -0.500  0.214 -0.071
   - k =  -0.500  0.214 -0.214
   - k =  -0.500  0.214 -0.357
   - k =  -0.500  0.214 -0.500

  Deallocating        0.000 MB for KS_eigenvector_complex,
    mem               0 current_memory_estimate       268767916
  Allocating        0.000 MB for KS_eigenvector_complex
    mem               0 current_memory_estimate       268767916
  |-> Computing Wannier center evolution at k-point number:      6
 Using pol_lapack_version = 2
 Calculating Berry  term along reciprocal lattice vector 3:     0.263     0.263    -0.263
 Calculating dipole term along reciprocal lattice vector 3:     0.263     0.263    -0.263

  Treating all    8 k-points in band plot segment #   7:
   Sampling over :
   - k =  -0.500  0.357  0.500
   - k =  -0.500  0.357  0.357
   - k =  -0.500  0.357  0.214
   - k =  -0.500  0.357  0.071
   - k =  -0.500  0.357 -0.071
   - k =  -0.500  0.357 -0.214
   - k =  -0.500  0.357 -0.357
   - k =  -0.500  0.357 -0.500

  Deallocating        0.000 MB for KS_eigenvector_complex,
    mem               0 current_memory_estimate       268767916
  Allocating        0.000 MB for KS_eigenvector_complex
    mem               0 current_memory_estimate       268767916
  |-> Computing Wannier center evolution at k-point number:      7
 Using pol_lapack_version = 2
 Calculating Berry  term along reciprocal lattice vector 3:     0.263     0.263    -0.263
 Calculating dipole term along reciprocal lattice vector 3:     0.263     0.263    -0.263

  Treating all    8 k-points in band plot segment #   8:
   Sampling over :
   - k =  -0.500  0.500  0.500
   - k =  -0.500  0.500  0.357
   - k =  -0.500  0.500  0.214
   - k =  -0.500  0.500  0.071
   - k =  -0.500  0.500 -0.071
   - k =  -0.500  0.500 -0.214
   - k =  -0.500  0.500 -0.357
   - k =  -0.500  0.500 -0.500

  Deallocating        0.000 MB for KS_eigenvector_complex,
    mem               0 current_memory_estimate       268767916
  Allocating        0.000 MB for KS_eigenvector_complex
    mem               0 current_memory_estimate       268767916
  |-> Computing Wannier center evolution at k-point number:      8
 Using pol_lapack_version = 2
 Calculating Berry  term along reciprocal lattice vector 3:     0.263     0.263    -0.263
 Calculating dipole term along reciprocal lattice vector 3:     0.263     0.263    -0.263

  Treating all    8 k-points in band plot segment #   9:
   Sampling over :
   - k =  -0.357 -0.500  0.500
   - k =  -0.357 -0.500  0.357
   - k =  -0.357 -0.500  0.214
   - k =  -0.357 -0.500  0.071
   - k =  -0.357 -0.500 -0.071
   - k =  -0.357 -0.500 -0.214
   - k =  -0.357 -0.500 -0.357
   - k =  -0.357 -0.500 -0.500

  Deallocating        0.000 MB for KS_eigenvector_complex,
    mem               0 current_memory_estimate       268767916
  Allocating        0.000 MB for KS_eigenvector_complex
    mem               0 current_memory_estimate       268767916
  |-> Computing Wannier center evolution at k-point number:      9
 Using pol_lapack_version = 2
 Calculating Berry  term along reciprocal lattice vector 3:     0.263     0.263    -0.263
 Calculating dipole term along reciprocal lattice vector 3:     0.263     0.263    -0.263

  Treating all    8 k-points in band plot segment #  10:
   Sampling over :
   - k =  -0.357 -0.357  0.500
   - k =  -0.357 -0.357  0.357
   - k =  -0.357 -0.357  0.214
   - k =  -0.357 -0.357  0.071
   - k =  -0.357 -0.357 -0.071
   - k =  -0.357 -0.357 -0.214
   - k =  -0.357 -0.357 -0.357
   - k =  -0.357 -0.357 -0.500

  Deallocating        0.000 MB for KS_eigenvector_complex,
    mem               0 current_memory_estimate       268767916
  Allocating        0.000 MB for KS_eigenvector_complex
    mem               0 current_memory_estimate       268767916
  |-> Computing Wannier center evolution at k-point number:     10
 Using pol_lapack_version = 2
 Calculating Berry  term along reciprocal lattice vector 3:     0.263     0.263    -0.263
 Calculating dipole term along reciprocal lattice vector 3:     0.263     0.263    -0.263

  Treating all    8 k-points in band plot segment #  11:
   Sampling over :
   - k =  -0.357 -0.214  0.500
   - k =  -0.357 -0.214  0.357
   - k =  -0.357 -0.214  0.214
   - k =  -0.357 -0.214  0.071
   - k =  -0.357 -0.214 -0.071
   - k =  -0.357 -0.214 -0.214
   - k =  -0.357 -0.214 -0.357
   - k =  -0.357 -0.214 -0.500

  Deallocating        0.000 MB for KS_eigenvector_complex,
    mem               0 current_memory_estimate       268767916
  Allocating        0.000 MB for KS_eigenvector_complex
    mem               0 current_memory_estimate       268767916
  |-> Computing Wannier center evolution at k-point number:     11
 Using pol_lapack_version = 2
 Calculating Berry  term along reciprocal lattice vector 3:     0.263     0.263    -0.263
 Calculating dipole term along reciprocal lattice vector 3:     0.263     0.263    -0.263

  Treating all    8 k-points in band plot segment #  12:
   Sampling over :
   - k =  -0.357 -0.071  0.500
   - k =  -0.357 -0.071  0.357
   - k =  -0.357 -0.071  0.214
   - k =  -0.357 -0.071  0.071
   - k =  -0.357 -0.071 -0.071
   - k =  -0.357 -0.071 -0.214
   - k =  -0.357 -0.071 -0.357
   - k =  -0.357 -0.071 -0.500

  Deallocating        0.000 MB for KS_eigenvector_complex,
    mem               0 current_memory_estimate       268767916
  Allocating        0.000 MB for KS_eigenvector_complex
    mem               0 current_memory_estimate       268767916
  |-> Computing Wannier center evolution at k-point number:     12
 Using pol_lapack_version = 2
 Calculating Berry  term along reciprocal lattice vector 3:     0.263     0.263    -0.263
 Calculating dipole term along reciprocal lattice vector 3:     0.263     0.263    -0.263

  Treating all    8 k-points in band plot segment #  13:
   Sampling over :
   - k =  -0.357  0.071  0.500
   - k =  -0.357  0.071  0.357
   - k =  -0.357  0.071  0.214
   - k =  -0.357  0.071  0.071
   - k =  -0.357  0.071 -0.071
   - k =  -0.357  0.071 -0.214
   - k =  -0.357  0.071 -0.357
   - k =  -0.357  0.071 -0.500

  Deallocating        0.000 MB for KS_eigenvector_complex,
    mem               0 current_memory_estimate       268767916
  Allocating        0.000 MB for KS_eigenvector_complex
    mem               0 current_memory_estimate       268767916
  |-> Computing Wannier center evolution at k-point number:     13
 Using pol_lapack_version = 2
 Calculating Berry  term along reciprocal lattice vector 3:     0.263     0.263    -0.263
 Calculating dipole term along reciprocal lattice vector 3:     0.263     0.263    -0.263

  Treating all    8 k-points in band plot segment #  14:
   Sampling over :
   - k =  -0.357  0.214  0.500
   - k =  -0.357  0.214  0.357
   - k =  -0.357  0.214  0.214
   - k =  -0.357  0.214  0.071
   - k =  -0.357  0.214 -0.071
   - k =  -0.357  0.214 -0.214
   - k =  -0.357  0.214 -0.357
   - k =  -0.357  0.214 -0.500

  Deallocating        0.000 MB for KS_eigenvector_complex,
    mem               0 current_memory_estimate       268767916
  Allocating        0.000 MB for KS_eigenvector_complex
    mem               0 current_memory_estimate       268767916
  |-> Computing Wannier center evolution at k-point number:     14
 Using pol_lapack_version = 2
 Calculating Berry  term along reciprocal lattice vector 3:     0.263     0.263    -0.263
 Calculating dipole term along reciprocal lattice vector 3:     0.263     0.263    -0.263

  Treating all    8 k-points in band plot segment #  15:
   Sampling over :
   - k =  -0.357  0.357  0.500
   - k =  -0.357  0.357  0.357
   - k =  -0.357  0.357  0.214
   - k =  -0.357  0.357  0.071
   - k =  -0.357  0.357 -0.071
   - k =  -0.357  0.357 -0.214
   - k =  -0.357  0.357 -0.357
   - k =  -0.357  0.357 -0.500

  Deallocating        0.000 MB for KS_eigenvector_complex,
    mem               0 current_memory_estimate       268767916
  Allocating        0.000 MB for KS_eigenvector_complex
    mem               0 current_memory_estimate       268767916
  |-> Computing Wannier center evolution at k-point number:     15
 Using pol_lapack_version = 2
 Calculating Berry  term along reciprocal lattice vector 3:     0.263     0.263    -0.263
 Calculating dipole term along reciprocal lattice vector 3:     0.263     0.263    -0.263

  Treating all    8 k-points in band plot segment #  16:
   Sampling over :
   - k =  -0.357  0.500  0.500
   - k =  -0.357  0.500  0.357
   - k =  -0.357  0.500  0.214
   - k =  -0.357  0.500  0.071
   - k =  -0.357  0.500 -0.071
   - k =  -0.357  0.500 -0.214
   - k =  -0.357  0.500 -0.357
   - k =  -0.357  0.500 -0.500

  Deallocating        0.000 MB for KS_eigenvector_complex,
    mem               0 current_memory_estimate       268767916
  Allocating        0.000 MB for KS_eigenvector_complex
    mem               0 current_memory_estimate       268767916
  |-> Computing Wannier center evolution at k-point number:     16
 Using pol_lapack_version = 2
 Calculating Berry  term along reciprocal lattice vector 3:     0.263     0.263    -0.263
 Calculating dipole term along reciprocal lattice vector 3:     0.263     0.263    -0.263

  Treating all    8 k-points in band plot segment #  17:
   Sampling over :
   - k =  -0.214 -0.500  0.500
   - k =  -0.214 -0.500  0.357
   - k =  -0.214 -0.500  0.214
   - k =  -0.214 -0.500  0.071
   - k =  -0.214 -0.500 -0.071
   - k =  -0.214 -0.500 -0.214
   - k =  -0.214 -0.500 -0.357
   - k =  -0.214 -0.500 -0.500

  Deallocating        0.000 MB for KS_eigenvector_complex,
    mem               0 current_memory_estimate       268767916
  Allocating        0.000 MB for KS_eigenvector_complex
    mem               0 current_memory_estimate       268767916
  |-> Computing Wannier center evolution at k-point number:     17
 Using pol_lapack_version = 2
 Calculating Berry  term along reciprocal lattice vector 3:     0.263     0.263    -0.263
 Calculating dipole term along reciprocal lattice vector 3:     0.263     0.263    -0.263

  Treating all    8 k-points in band plot segment #  18:
   Sampling over :
   - k =  -0.214 -0.357  0.500
   - k =  -0.214 -0.357  0.357
   - k =  -0.214 -0.357  0.214
   - k =  -0.214 -0.357  0.071
   - k =  -0.214 -0.357 -0.071
   - k =  -0.214 -0.357 -0.214
   - k =  -0.214 -0.357 -0.357
   - k =  -0.214 -0.357 -0.500

  Deallocating        0.000 MB for KS_eigenvector_complex,
    mem               0 current_memory_estimate       268767916
  Allocating        0.000 MB for KS_eigenvector_complex
    mem               0 current_memory_estimate       268767916
  |-> Computing Wannier center evolution at k-point number:     18
 Using pol_lapack_version = 2
 Calculating Berry  term along reciprocal lattice vector 3:     0.263     0.263    -0.263
 Calculating dipole term along reciprocal lattice vector 3:     0.263     0.263    -0.263

  Treating all    8 k-points in band plot segment #  19:
   Sampling over :
   - k =  -0.214 -0.214  0.500
   - k =  -0.214 -0.214  0.357
   - k =  -0.214 -0.214  0.214
   - k =  -0.214 -0.214  0.071
   - k =  -0.214 -0.214 -0.071
   - k =  -0.214 -0.214 -0.214
   - k =  -0.214 -0.214 -0.357
   - k =  -0.214 -0.214 -0.500

  Deallocating        0.000 MB for KS_eigenvector_complex,
    mem               0 current_memory_estimate       268767916
  Allocating        0.000 MB for KS_eigenvector_complex
    mem               0 current_memory_estimate       268767916
  |-> Computing Wannier center evolution at k-point number:     19
 Using pol_lapack_version = 2
 Calculating Berry  term along reciprocal lattice vector 3:     0.263     0.263    -0.263
 Calculating dipole term along reciprocal lattice vector 3:     0.263     0.263    -0.263

  Treating all    8 k-points in band plot segment #  20:
   Sampling over :
   - k =  -0.214 -0.071  0.500
   - k =  -0.214 -0.071  0.357
   - k =  -0.214 -0.071  0.214
   - k =  -0.214 -0.071  0.071
   - k =  -0.214 -0.071 -0.071
   - k =  -0.214 -0.071 -0.214
   - k =  -0.214 -0.071 -0.357
   - k =  -0.214 -0.071 -0.500

  Deallocating        0.000 MB for KS_eigenvector_complex,
    mem               0 current_memory_estimate       268767916
  Allocating        0.000 MB for KS_eigenvector_complex
    mem               0 current_memory_estimate       268767916
  |-> Computing Wannier center evolution at k-point number:     20
 Using pol_lapack_version = 2
 Calculating Berry  term along reciprocal lattice vector 3:     0.263     0.263    -0.263
 Calculating dipole term along reciprocal lattice vector 3:     0.263     0.263    -0.263

  Treating all    8 k-points in band plot segment #  21:
   Sampling over :
   - k =  -0.214  0.071  0.500
   - k =  -0.214  0.071  0.357
   - k =  -0.214  0.071  0.214
   - k =  -0.214  0.071  0.071
   - k =  -0.214  0.071 -0.071
   - k =  -0.214  0.071 -0.214
   - k =  -0.214  0.071 -0.357
   - k =  -0.214  0.071 -0.500

  Deallocating        0.000 MB for KS_eigenvector_complex,
    mem               0 current_memory_estimate       268767916
  Allocating        0.000 MB for KS_eigenvector_complex
    mem               0 current_memory_estimate       268767916
  |-> Computing Wannier center evolution at k-point number:     21
 Using pol_lapack_version = 2
 Calculating Berry  term along reciprocal lattice vector 3:     0.263     0.263    -0.263
 Calculating dipole term along reciprocal lattice vector 3:     0.263     0.263    -0.263

  Treating all    8 k-points in band plot segment #  22:
   Sampling over :
   - k =  -0.214  0.214  0.500
   - k =  -0.214  0.214  0.357
   - k =  -0.214  0.214  0.214
   - k =  -0.214  0.214  0.071
   - k =  -0.214  0.214 -0.071
   - k =  -0.214  0.214 -0.214
   - k =  -0.214  0.214 -0.357
   - k =  -0.214  0.214 -0.500

  Deallocating        0.000 MB for KS_eigenvector_complex,
    mem               0 current_memory_estimate       268767916
  Allocating        0.000 MB for KS_eigenvector_complex
    mem               0 current_memory_estimate       268767916
  |-> Computing Wannier center evolution at k-point number:     22
 Using pol_lapack_version = 2
 Calculating Berry  term along reciprocal lattice vector 3:     0.263     0.263    -0.263
 Calculating dipole term along reciprocal lattice vector 3:     0.263     0.263    -0.263

  Treating all    8 k-points in band plot segment #  23:
   Sampling over :
   - k =  -0.214  0.357  0.500
   - k =  -0.214  0.357  0.357
   - k =  -0.214  0.357  0.214
   - k =  -0.214  0.357  0.071
   - k =  -0.214  0.357 -0.071
   - k =  -0.214  0.357 -0.214
   - k =  -0.214  0.357 -0.357
   - k =  -0.214  0.357 -0.500

  Deallocating        0.000 MB for KS_eigenvector_complex,
    mem               0 current_memory_estimate       268767916
  Allocating        0.000 MB for KS_eigenvector_complex
    mem               0 current_memory_estimate       268767916
  |-> Computing Wannier center evolution at k-point number:     23
 Using pol_lapack_version = 2
 Calculating Berry  term along reciprocal lattice vector 3:     0.263     0.263    -0.263
 Calculating dipole term along reciprocal lattice vector 3:     0.263     0.263    -0.263

  Treating all    8 k-points in band plot segment #  24:
   Sampling over :
   - k =  -0.214  0.500  0.500
   - k =  -0.214  0.500  0.357
   - k =  -0.214  0.500  0.214
   - k =  -0.214  0.500  0.071
   - k =  -0.214  0.500 -0.071
   - k =  -0.214  0.500 -0.214
   - k =  -0.214  0.500 -0.357
   - k =  -0.214  0.500 -0.500

  Deallocating        0.000 MB for KS_eigenvector_complex,
    mem               0 current_memory_estimate       268767916
  Allocating        0.000 MB for KS_eigenvector_complex
    mem               0 current_memory_estimate       268767916
  |-> Computing Wannier center evolution at k-point number:     24
 Using pol_lapack_version = 2
 Calculating Berry  term along reciprocal lattice vector 3:     0.263     0.263    -0.263
 Calculating dipole term along reciprocal lattice vector 3:     0.263     0.263    -0.263

  Treating all    8 k-points in band plot segment #  25:
   Sampling over :
   - k =  -0.071 -0.500  0.500
   - k =  -0.071 -0.500  0.357
   - k =  -0.071 -0.500  0.214
   - k =  -0.071 -0.500  0.071
   - k =  -0.071 -0.500 -0.071
   - k =  -0.071 -0.500 -0.214
   - k =  -0.071 -0.500 -0.357
   - k =  -0.071 -0.500 -0.500

  Deallocating        0.000 MB for KS_eigenvector_complex,
    mem               0 current_memory_estimate       268767916
  Allocating        0.000 MB for KS_eigenvector_complex
    mem               0 current_memory_estimate       268767916
  |-> Computing Wannier center evolution at k-point number:     25
 Using pol_lapack_version = 2
 Calculating Berry  term along reciprocal lattice vector 3:     0.263     0.263    -0.263
 Calculating dipole term along reciprocal lattice vector 3:     0.263     0.263    -0.263

  Treating all    8 k-points in band plot segment #  26:
   Sampling over :
   - k =  -0.071 -0.357  0.500
   - k =  -0.071 -0.357  0.357
   - k =  -0.071 -0.357  0.214
   - k =  -0.071 -0.357  0.071
   - k =  -0.071 -0.357 -0.071
   - k =  -0.071 -0.357 -0.214
   - k =  -0.071 -0.357 -0.357
   - k =  -0.071 -0.357 -0.500

  Deallocating        0.000 MB for KS_eigenvector_complex,
    mem               0 current_memory_estimate       268767916
  Allocating        0.000 MB for KS_eigenvector_complex
    mem               0 current_memory_estimate       268767916
  |-> Computing Wannier center evolution at k-point number:     26
 Using pol_lapack_version = 2
 Calculating Berry  term along reciprocal lattice vector 3:     0.263     0.263    -0.263
 Calculating dipole term along reciprocal lattice vector 3:     0.263     0.263    -0.263

  Treating all    8 k-points in band plot segment #  27:
   Sampling over :
   - k =  -0.071 -0.214  0.500
   - k =  -0.071 -0.214  0.357
   - k =  -0.071 -0.214  0.214
   - k =  -0.071 -0.214  0.071
   - k =  -0.071 -0.214 -0.071
   - k =  -0.071 -0.214 -0.214
   - k =  -0.071 -0.214 -0.357
   - k =  -0.071 -0.214 -0.500

  Deallocating        0.000 MB for KS_eigenvector_complex,
    mem               0 current_memory_estimate       268767916
  Allocating        0.000 MB for KS_eigenvector_complex
    mem               0 current_memory_estimate       268767916
  |-> Computing Wannier center evolution at k-point number:     27
 Using pol_lapack_version = 2
 Calculating Berry  term along reciprocal lattice vector 3:     0.263     0.263    -0.263
 Calculating dipole term along reciprocal lattice vector 3:     0.263     0.263    -0.263

  Treating all    8 k-points in band plot segment #  28:
   Sampling over :
   - k =  -0.071 -0.071  0.500
   - k =  -0.071 -0.071  0.357
   - k =  -0.071 -0.071  0.214
   - k =  -0.071 -0.071  0.071
   - k =  -0.071 -0.071 -0.071
   - k =  -0.071 -0.071 -0.214
   - k =  -0.071 -0.071 -0.357
   - k =  -0.071 -0.071 -0.500

  Deallocating        0.000 MB for KS_eigenvector_complex,
    mem               0 current_memory_estimate       268767916
  Allocating        0.000 MB for KS_eigenvector_complex
    mem               0 current_memory_estimate       268767916
  |-> Computing Wannier center evolution at k-point number:     28
 Using pol_lapack_version = 2
 Calculating Berry  term along reciprocal lattice vector 3:     0.263     0.263    -0.263
 Calculating dipole term along reciprocal lattice vector 3:     0.263     0.263    -0.263

  Treating all    8 k-points in band plot segment #  29:
   Sampling over :
   - k =  -0.071  0.071  0.500
   - k =  -0.071  0.071  0.357
   - k =  -0.071  0.071  0.214
   - k =  -0.071  0.071  0.071
   - k =  -0.071  0.071 -0.071
   - k =  -0.071  0.071 -0.214
   - k =  -0.071  0.071 -0.357
   - k =  -0.071  0.071 -0.500

  Deallocating        0.000 MB for KS_eigenvector_complex,
    mem               0 current_memory_estimate       268767916
  Allocating        0.000 MB for KS_eigenvector_complex
    mem               0 current_memory_estimate       268767916
  |-> Computing Wannier center evolution at k-point number:     29
 Using pol_lapack_version = 2
 Calculating Berry  term along reciprocal lattice vector 3:     0.263     0.263    -0.263
 Calculating dipole term along reciprocal lattice vector 3:     0.263     0.263    -0.263

  Treating all    8 k-points in band plot segment #  30:
   Sampling over :
   - k =  -0.071  0.214  0.500
   - k =  -0.071  0.214  0.357
   - k =  -0.071  0.214  0.214
   - k =  -0.071  0.214  0.071
   - k =  -0.071  0.214 -0.071
   - k =  -0.071  0.214 -0.214
   - k =  -0.071  0.214 -0.357
   - k =  -0.071  0.214 -0.500

  Deallocating        0.000 MB for KS_eigenvector_complex,
    mem               0 current_memory_estimate       268767916
  Allocating        0.000 MB for KS_eigenvector_complex
    mem               0 current_memory_estimate       268767916
  |-> Computing Wannier center evolution at k-point number:     30
 Using pol_lapack_version = 2
 Calculating Berry  term along reciprocal lattice vector 3:     0.263     0.263    -0.263
 Calculating dipole term along reciprocal lattice vector 3:     0.263     0.263    -0.263

  Treating all    8 k-points in band plot segment #  31:
   Sampling over :
   - k =  -0.071  0.357  0.500
   - k =  -0.071  0.357  0.357
   - k =  -0.071  0.357  0.214
   - k =  -0.071  0.357  0.071
   - k =  -0.071  0.357 -0.071
   - k =  -0.071  0.357 -0.214
   - k =  -0.071  0.357 -0.357
   - k =  -0.071  0.357 -0.500

  Deallocating        0.000 MB for KS_eigenvector_complex,
    mem               0 current_memory_estimate       268767916
  Allocating        0.000 MB for KS_eigenvector_complex
    mem               0 current_memory_estimate       268767916
  |-> Computing Wannier center evolution at k-point number:     31
 Using pol_lapack_version = 2
 Calculating Berry  term along reciprocal lattice vector 3:     0.263     0.263    -0.263
 Calculating dipole term along reciprocal lattice vector 3:     0.263     0.263    -0.263

  Treating all    8 k-points in band plot segment #  32:
   Sampling over :
   - k =  -0.071  0.500  0.500
   - k =  -0.071  0.500  0.357
   - k =  -0.071  0.500  0.214
   - k =  -0.071  0.500  0.071
   - k =  -0.071  0.500 -0.071
   - k =  -0.071  0.500 -0.214
   - k =  -0.071  0.500 -0.357
   - k =  -0.071  0.500 -0.500

  Deallocating        0.000 MB for KS_eigenvector_complex,
    mem               0 current_memory_estimate       268767916
  Allocating        0.000 MB for KS_eigenvector_complex
    mem               0 current_memory_estimate       268767916
  |-> Computing Wannier center evolution at k-point number:     32
 Using pol_lapack_version = 2
 Calculating Berry  term along reciprocal lattice vector 3:     0.263     0.263    -0.263
 Calculating dipole term along reciprocal lattice vector 3:     0.263     0.263    -0.263

  Treating all    8 k-points in band plot segment #  33:
   Sampling over :
   - k =   0.071 -0.500  0.500
   - k =   0.071 -0.500  0.357
   - k =   0.071 -0.500  0.214
   - k =   0.071 -0.500  0.071
   - k =   0.071 -0.500 -0.071
   - k =   0.071 -0.500 -0.214
   - k =   0.071 -0.500 -0.357
   - k =   0.071 -0.500 -0.500

  Deallocating        0.000 MB for KS_eigenvector_complex,
    mem               0 current_memory_estimate       268767916
  Allocating        0.000 MB for KS_eigenvector_complex
    mem               0 current_memory_estimate       268767916
  |-> Computing Wannier center evolution at k-point number:     33
 Using pol_lapack_version = 2
 Calculating Berry  term along reciprocal lattice vector 3:     0.263     0.263    -0.263
 Calculating dipole term along reciprocal lattice vector 3:     0.263     0.263    -0.263

  Treating all    8 k-points in band plot segment #  34:
   Sampling over :
   - k =   0.071 -0.357  0.500
   - k =   0.071 -0.357  0.357
   - k =   0.071 -0.357  0.214
   - k =   0.071 -0.357  0.071
   - k =   0.071 -0.357 -0.071
   - k =   0.071 -0.357 -0.214
   - k =   0.071 -0.357 -0.357
   - k =   0.071 -0.357 -0.500

  Deallocating        0.000 MB for KS_eigenvector_complex,
    mem               0 current_memory_estimate       268767916
  Allocating        0.000 MB for KS_eigenvector_complex
    mem               0 current_memory_estimate       268767916
  |-> Computing Wannier center evolution at k-point number:     34
 Using pol_lapack_version = 2
 Calculating Berry  term along reciprocal lattice vector 3:     0.263     0.263    -0.263
 Calculating dipole term along reciprocal lattice vector 3:     0.263     0.263    -0.263

  Treating all    8 k-points in band plot segment #  35:
   Sampling over :
   - k =   0.071 -0.214  0.500
   - k =   0.071 -0.214  0.357
   - k =   0.071 -0.214  0.214
   - k =   0.071 -0.214  0.071
   - k =   0.071 -0.214 -0.071
   - k =   0.071 -0.214 -0.214
   - k =   0.071 -0.214 -0.357
   - k =   0.071 -0.214 -0.500

  Deallocating        0.000 MB for KS_eigenvector_complex,
    mem               0 current_memory_estimate       268767916
  Allocating        0.000 MB for KS_eigenvector_complex
    mem               0 current_memory_estimate       268767916
  |-> Computing Wannier center evolution at k-point number:     35
 Using pol_lapack_version = 2
 Calculating Berry  term along reciprocal lattice vector 3:     0.263     0.263    -0.263
 Calculating dipole term along reciprocal lattice vector 3:     0.263     0.263    -0.263

  Treating all    8 k-points in band plot segment #  36:
   Sampling over :
   - k =   0.071 -0.071  0.500
   - k =   0.071 -0.071  0.357
   - k =   0.071 -0.071  0.214
   - k =   0.071 -0.071  0.071
   - k =   0.071 -0.071 -0.071
   - k =   0.071 -0.071 -0.214
   - k =   0.071 -0.071 -0.357
   - k =   0.071 -0.071 -0.500

  Deallocating        0.000 MB for KS_eigenvector_complex,
    mem               0 current_memory_estimate       268767916
  Allocating        0.000 MB for KS_eigenvector_complex
    mem               0 current_memory_estimate       268767916
  |-> Computing Wannier center evolution at k-point number:     36
 Using pol_lapack_version = 2
 Calculating Berry  term along reciprocal lattice vector 3:     0.263     0.263    -0.263
 Calculating dipole term along reciprocal lattice vector 3:     0.263     0.263    -0.263

  Treating all    8 k-points in band plot segment #  37:
   Sampling over :
   - k =   0.071  0.071  0.500
   - k =   0.071  0.071  0.357
   - k =   0.071  0.071  0.214
   - k =   0.071  0.071  0.071
   - k =   0.071  0.071 -0.071
   - k =   0.071  0.071 -0.214
   - k =   0.071  0.071 -0.357
   - k =   0.071  0.071 -0.500

  Deallocating        0.000 MB for KS_eigenvector_complex,
    mem               0 current_memory_estimate       268767916
  Allocating        0.000 MB for KS_eigenvector_complex
    mem               0 current_memory_estimate       268767916
  |-> Computing Wannier center evolution at k-point number:     37
 Using pol_lapack_version = 2
 Calculating Berry  term along reciprocal lattice vector 3:     0.263     0.263    -0.263
 Calculating dipole term along reciprocal lattice vector 3:     0.263     0.263    -0.263

  Treating all    8 k-points in band plot segment #  38:
   Sampling over :
   - k =   0.071  0.214  0.500
   - k =   0.071  0.214  0.357
   - k =   0.071  0.214  0.214
   - k =   0.071  0.214  0.071
   - k =   0.071  0.214 -0.071
   - k =   0.071  0.214 -0.214
   - k =   0.071  0.214 -0.357
   - k =   0.071  0.214 -0.500

  Deallocating        0.000 MB for KS_eigenvector_complex,
    mem               0 current_memory_estimate       268767916
  Allocating        0.000 MB for KS_eigenvector_complex
    mem               0 current_memory_estimate       268767916
  |-> Computing Wannier center evolution at k-point number:     38
 Using pol_lapack_version = 2
 Calculating Berry  term along reciprocal lattice vector 3:     0.263     0.263    -0.263
 Calculating dipole term along reciprocal lattice vector 3:     0.263     0.263    -0.263

  Treating all    8 k-points in band plot segment #  39:
   Sampling over :
   - k =   0.071  0.357  0.500
   - k =   0.071  0.357  0.357
   - k =   0.071  0.357  0.214
   - k =   0.071  0.357  0.071
   - k =   0.071  0.357 -0.071
   - k =   0.071  0.357 -0.214
   - k =   0.071  0.357 -0.357
   - k =   0.071  0.357 -0.500

  Deallocating        0.000 MB for KS_eigenvector_complex,
    mem               0 current_memory_estimate       268767916
  Allocating        0.000 MB for KS_eigenvector_complex
    mem               0 current_memory_estimate       268767916
  |-> Computing Wannier center evolution at k-point number:     39
 Using pol_lapack_version = 2
 Calculating Berry  term along reciprocal lattice vector 3:     0.263     0.263    -0.263
 Calculating dipole term along reciprocal lattice vector 3:     0.263     0.263    -0.263

  Treating all    8 k-points in band plot segment #  40:
   Sampling over :
   - k =   0.071  0.500  0.500
   - k =   0.071  0.500  0.357
   - k =   0.071  0.500  0.214
   - k =   0.071  0.500  0.071
   - k =   0.071  0.500 -0.071
   - k =   0.071  0.500 -0.214
   - k =   0.071  0.500 -0.357
   - k =   0.071  0.500 -0.500

  Deallocating        0.000 MB for KS_eigenvector_complex,
    mem               0 current_memory_estimate       268767916
  Allocating        0.000 MB for KS_eigenvector_complex
    mem               0 current_memory_estimate       268767916
  |-> Computing Wannier center evolution at k-point number:     40
 Using pol_lapack_version = 2
 Calculating Berry  term along reciprocal lattice vector 3:     0.263     0.263    -0.263
 Calculating dipole term along reciprocal lattice vector 3:     0.263     0.263    -0.263

  Treating all    8 k-points in band plot segment #  41:
   Sampling over :
   - k =   0.214 -0.500  0.500
   - k =   0.214 -0.500  0.357
   - k =   0.214 -0.500  0.214
   - k =   0.214 -0.500  0.071
   - k =   0.214 -0.500 -0.071
   - k =   0.214 -0.500 -0.214
   - k =   0.214 -0.500 -0.357
   - k =   0.214 -0.500 -0.500

  Deallocating        0.000 MB for KS_eigenvector_complex,
    mem               0 current_memory_estimate       268767916
  Allocating        0.000 MB for KS_eigenvector_complex
    mem               0 current_memory_estimate       268767916
  |-> Computing Wannier center evolution at k-point number:     41
 Using pol_lapack_version = 2
 Calculating Berry  term along reciprocal lattice vector 3:     0.263     0.263    -0.263
 Calculating dipole term along reciprocal lattice vector 3:     0.263     0.263    -0.263

  Treating all    8 k-points in band plot segment #  42:
   Sampling over :
   - k =   0.214 -0.357  0.500
   - k =   0.214 -0.357  0.357
   - k =   0.214 -0.357  0.214
   - k =   0.214 -0.357  0.071
   - k =   0.214 -0.357 -0.071
   - k =   0.214 -0.357 -0.214
   - k =   0.214 -0.357 -0.357
   - k =   0.214 -0.357 -0.500

  Deallocating        0.000 MB for KS_eigenvector_complex,
    mem               0 current_memory_estimate       268767916
  Allocating        0.000 MB for KS_eigenvector_complex
    mem               0 current_memory_estimate       268767916
  |-> Computing Wannier center evolution at k-point number:     42
 Using pol_lapack_version = 2
 Calculating Berry  term along reciprocal lattice vector 3:     0.263     0.263    -0.263
 Calculating dipole term along reciprocal lattice vector 3:     0.263     0.263    -0.263

  Treating all    8 k-points in band plot segment #  43:
   Sampling over :
   - k =   0.214 -0.214  0.500
   - k =   0.214 -0.214  0.357
   - k =   0.214 -0.214  0.214
   - k =   0.214 -0.214  0.071
   - k =   0.214 -0.214 -0.071
   - k =   0.214 -0.214 -0.214
   - k =   0.214 -0.214 -0.357
   - k =   0.214 -0.214 -0.500

  Deallocating        0.000 MB for KS_eigenvector_complex,
    mem               0 current_memory_estimate       268767916
  Allocating        0.000 MB for KS_eigenvector_complex
    mem               0 current_memory_estimate       268767916
  |-> Computing Wannier center evolution at k-point number:     43
 Using pol_lapack_version = 2
 Calculating Berry  term along reciprocal lattice vector 3:     0.263     0.263    -0.263
 Calculating dipole term along reciprocal lattice vector 3:     0.263     0.263    -0.263

  Treating all    8 k-points in band plot segment #  44:
   Sampling over :
   - k =   0.214 -0.071  0.500
   - k =   0.214 -0.071  0.357
   - k =   0.214 -0.071  0.214
   - k =   0.214 -0.071  0.071
   - k =   0.214 -0.071 -0.071
   - k =   0.214 -0.071 -0.214
   - k =   0.214 -0.071 -0.357
   - k =   0.214 -0.071 -0.500

  Deallocating        0.000 MB for KS_eigenvector_complex,
    mem               0 current_memory_estimate       268767916
  Allocating        0.000 MB for KS_eigenvector_complex
    mem               0 current_memory_estimate       268767916
  |-> Computing Wannier center evolution at k-point number:     44
 Using pol_lapack_version = 2
 Calculating Berry  term along reciprocal lattice vector 3:     0.263     0.263    -0.263
 Calculating dipole term along reciprocal lattice vector 3:     0.263     0.263    -0.263

  Treating all    8 k-points in band plot segment #  45:
   Sampling over :
   - k =   0.214  0.071  0.500
   - k =   0.214  0.071  0.357
   - k =   0.214  0.071  0.214
   - k =   0.214  0.071  0.071
   - k =   0.214  0.071 -0.071
   - k =   0.214  0.071 -0.214
   - k =   0.214  0.071 -0.357
   - k =   0.214  0.071 -0.500

  Deallocating        0.000 MB for KS_eigenvector_complex,
    mem               0 current_memory_estimate       268767916
  Allocating        0.000 MB for KS_eigenvector_complex
    mem               0 current_memory_estimate       268767916
  |-> Computing Wannier center evolution at k-point number:     45
 Using pol_lapack_version = 2
 Calculating Berry  term along reciprocal lattice vector 3:     0.263     0.263    -0.263
 Calculating dipole term along reciprocal lattice vector 3:     0.263     0.263    -0.263

  Treating all    8 k-points in band plot segment #  46:
   Sampling over :
   - k =   0.214  0.214  0.500
   - k =   0.214  0.214  0.357
   - k =   0.214  0.214  0.214
   - k =   0.214  0.214  0.071
   - k =   0.214  0.214 -0.071
   - k =   0.214  0.214 -0.214
   - k =   0.214  0.214 -0.357
   - k =   0.214  0.214 -0.500

  Deallocating        0.000 MB for KS_eigenvector_complex,
    mem               0 current_memory_estimate       268767916
  Allocating        0.000 MB for KS_eigenvector_complex
    mem               0 current_memory_estimate       268767916
  |-> Computing Wannier center evolution at k-point number:     46
 Using pol_lapack_version = 2
 Calculating Berry  term along reciprocal lattice vector 3:     0.263     0.263    -0.263
 Calculating dipole term along reciprocal lattice vector 3:     0.263     0.263    -0.263

  Treating all    8 k-points in band plot segment #  47:
   Sampling over :
   - k =   0.214  0.357  0.500
   - k =   0.214  0.357  0.357
   - k =   0.214  0.357  0.214
   - k =   0.214  0.357  0.071
   - k =   0.214  0.357 -0.071
   - k =   0.214  0.357 -0.214
   - k =   0.214  0.357 -0.357
   - k =   0.214  0.357 -0.500

  Deallocating        0.000 MB for KS_eigenvector_complex,
    mem               0 current_memory_estimate       268767916
  Allocating        0.000 MB for KS_eigenvector_complex
    mem               0 current_memory_estimate       268767916
  |-> Computing Wannier center evolution at k-point number:     47
 Using pol_lapack_version = 2
 Calculating Berry  term along reciprocal lattice vector 3:     0.263     0.263    -0.263
 Calculating dipole term along reciprocal lattice vector 3:     0.263     0.263    -0.263

  Treating all    8 k-points in band plot segment #  48:
   Sampling over :
   - k =   0.214  0.500  0.500
   - k =   0.214  0.500  0.357
   - k =   0.214  0.500  0.214
   - k =   0.214  0.500  0.071
   - k =   0.214  0.500 -0.071
   - k =   0.214  0.500 -0.214
   - k =   0.214  0.500 -0.357
   - k =   0.214  0.500 -0.500

  Deallocating        0.000 MB for KS_eigenvector_complex,
    mem               0 current_memory_estimate       268767916
  Allocating        0.000 MB for KS_eigenvector_complex
    mem               0 current_memory_estimate       268767916
  |-> Computing Wannier center evolution at k-point number:     48
 Using pol_lapack_version = 2
 Calculating Berry  term along reciprocal lattice vector 3:     0.263     0.263    -0.263
 Calculating dipole term along reciprocal lattice vector 3:     0.263     0.263    -0.263

  Treating all    8 k-points in band plot segment #  49:
   Sampling over :
   - k =   0.357 -0.500  0.500
   - k =   0.357 -0.500  0.357
   - k =   0.357 -0.500  0.214
   - k =   0.357 -0.500  0.071
   - k =   0.357 -0.500 -0.071
   - k =   0.357 -0.500 -0.214
   - k =   0.357 -0.500 -0.357
   - k =   0.357 -0.500 -0.500

  Deallocating        0.000 MB for KS_eigenvector_complex,
    mem               0 current_memory_estimate       268767916
  Allocating        0.000 MB for KS_eigenvector_complex
    mem               0 current_memory_estimate       268767916
  |-> Computing Wannier center evolution at k-point number:     49
 Using pol_lapack_version = 2
 Calculating Berry  term along reciprocal lattice vector 3:     0.263     0.263    -0.263
 Calculating dipole term along reciprocal lattice vector 3:     0.263     0.263    -0.263

  Treating all    8 k-points in band plot segment #  50:
   Sampling over :
   - k =   0.357 -0.357  0.500
   - k =   0.357 -0.357  0.357
   - k =   0.357 -0.357  0.214
   - k =   0.357 -0.357  0.071
   - k =   0.357 -0.357 -0.071
   - k =   0.357 -0.357 -0.214
   - k =   0.357 -0.357 -0.357
   - k =   0.357 -0.357 -0.500

  Deallocating        0.000 MB for KS_eigenvector_complex,
    mem               0 current_memory_estimate       268767916
  Allocating        0.000 MB for KS_eigenvector_complex
    mem               0 current_memory_estimate       268767916
  |-> Computing Wannier center evolution at k-point number:     50
 Using pol_lapack_version = 2
 Calculating Berry  term along reciprocal lattice vector 3:     0.263     0.263    -0.263
 Calculating dipole term along reciprocal lattice vector 3:     0.263     0.263    -0.263

  Treating all    8 k-points in band plot segment #  51:
   Sampling over :
   - k =   0.357 -0.214  0.500
   - k =   0.357 -0.214  0.357
   - k =   0.357 -0.214  0.214
   - k =   0.357 -0.214  0.071
   - k =   0.357 -0.214 -0.071
   - k =   0.357 -0.214 -0.214
   - k =   0.357 -0.214 -0.357
   - k =   0.357 -0.214 -0.500

  Deallocating        0.000 MB for KS_eigenvector_complex,
    mem               0 current_memory_estimate       268767916
  Allocating        0.000 MB for KS_eigenvector_complex
    mem               0 current_memory_estimate       268767916
  |-> Computing Wannier center evolution at k-point number:     51
 Using pol_lapack_version = 2
 Calculating Berry  term along reciprocal lattice vector 3:     0.263     0.263    -0.263
 Calculating dipole term along reciprocal lattice vector 3:     0.263     0.263    -0.263

  Treating all    8 k-points in band plot segment #  52:
   Sampling over :
   - k =   0.357 -0.071  0.500
   - k =   0.357 -0.071  0.357
   - k =   0.357 -0.071  0.214
   - k =   0.357 -0.071  0.071
   - k =   0.357 -0.071 -0.071
   - k =   0.357 -0.071 -0.214
   - k =   0.357 -0.071 -0.357
   - k =   0.357 -0.071 -0.500

  Deallocating        0.000 MB for KS_eigenvector_complex,
    mem               0 current_memory_estimate       268767916
  Allocating        0.000 MB for KS_eigenvector_complex
    mem               0 current_memory_estimate       268767916
  |-> Computing Wannier center evolution at k-point number:     52
 Using pol_lapack_version = 2
 Calculating Berry  term along reciprocal lattice vector 3:     0.263     0.263    -0.263
 Calculating dipole term along reciprocal lattice vector 3:     0.263     0.263    -0.263

  Treating all    8 k-points in band plot segment #  53:
   Sampling over :
   - k =   0.357  0.071  0.500
   - k =   0.357  0.071  0.357
   - k =   0.357  0.071  0.214
   - k =   0.357  0.071  0.071
   - k =   0.357  0.071 -0.071
   - k =   0.357  0.071 -0.214
   - k =   0.357  0.071 -0.357
   - k =   0.357  0.071 -0.500

  Deallocating        0.000 MB for KS_eigenvector_complex,
    mem               0 current_memory_estimate       268767916
  Allocating        0.000 MB for KS_eigenvector_complex
    mem               0 current_memory_estimate       268767916
  |-> Computing Wannier center evolution at k-point number:     53
 Using pol_lapack_version = 2
 Calculating Berry  term along reciprocal lattice vector 3:     0.263     0.263    -0.263
 Calculating dipole term along reciprocal lattice vector 3:     0.263     0.263    -0.263

  Treating all    8 k-points in band plot segment #  54:
   Sampling over :
   - k =   0.357  0.214  0.500
   - k =   0.357  0.214  0.357
   - k =   0.357  0.214  0.214
   - k =   0.357  0.214  0.071
   - k =   0.357  0.214 -0.071
   - k =   0.357  0.214 -0.214
   - k =   0.357  0.214 -0.357
   - k =   0.357  0.214 -0.500

  Deallocating        0.000 MB for KS_eigenvector_complex,
    mem               0 current_memory_estimate       268767916
  Allocating        0.000 MB for KS_eigenvector_complex
    mem               0 current_memory_estimate       268767916
  |-> Computing Wannier center evolution at k-point number:     54
 Using pol_lapack_version = 2
 Calculating Berry  term along reciprocal lattice vector 3:     0.263     0.263    -0.263
 Calculating dipole term along reciprocal lattice vector 3:     0.263     0.263    -0.263

  Treating all    8 k-points in band plot segment #  55:
   Sampling over :
   - k =   0.357  0.357  0.500
   - k =   0.357  0.357  0.357
   - k =   0.357  0.357  0.214
   - k =   0.357  0.357  0.071
   - k =   0.357  0.357 -0.071
   - k =   0.357  0.357 -0.214
   - k =   0.357  0.357 -0.357
   - k =   0.357  0.357 -0.500

  Deallocating        0.000 MB for KS_eigenvector_complex,
    mem               0 current_memory_estimate       268767916
  Allocating        0.000 MB for KS_eigenvector_complex
    mem               0 current_memory_estimate       268767916
  |-> Computing Wannier center evolution at k-point number:     55
 Using pol_lapack_version = 2
 Calculating Berry  term along reciprocal lattice vector 3:     0.263     0.263    -0.263
 Calculating dipole term along reciprocal lattice vector 3:     0.263     0.263    -0.263

  Treating all    8 k-points in band plot segment #  56:
   Sampling over :
   - k =   0.357  0.500  0.500
   - k =   0.357  0.500  0.357
   - k =   0.357  0.500  0.214
   - k =   0.357  0.500  0.071
   - k =   0.357  0.500 -0.071
   - k =   0.357  0.500 -0.214
   - k =   0.357  0.500 -0.357
   - k =   0.357  0.500 -0.500

  Deallocating        0.000 MB for KS_eigenvector_complex,
    mem               0 current_memory_estimate       268767916
  Allocating        0.000 MB for KS_eigenvector_complex
    mem               0 current_memory_estimate       268767916
  |-> Computing Wannier center evolution at k-point number:     56
 Using pol_lapack_version = 2
 Calculating Berry  term along reciprocal lattice vector 3:     0.263     0.263    -0.263
 Calculating dipole term along reciprocal lattice vector 3:     0.263     0.263    -0.263

  Treating all    8 k-points in band plot segment #  57:
   Sampling over :
   - k =   0.500 -0.500  0.500
   - k =   0.500 -0.500  0.357
   - k =   0.500 -0.500  0.214
   - k =   0.500 -0.500  0.071
   - k =   0.500 -0.500 -0.071
   - k =   0.500 -0.500 -0.214
   - k =   0.500 -0.500 -0.357
   - k =   0.500 -0.500 -0.500

  Deallocating        0.000 MB for KS_eigenvector_complex,
    mem               0 current_memory_estimate       268767916
  Allocating        0.000 MB for KS_eigenvector_complex
    mem               0 current_memory_estimate       268767916
  |-> Computing Wannier center evolution at k-point number:     57
 Using pol_lapack_version = 2
 Calculating Berry  term along reciprocal lattice vector 3:     0.263     0.263    -0.263
 Calculating dipole term along reciprocal lattice vector 3:     0.263     0.263    -0.263

  Treating all    8 k-points in band plot segment #  58:
   Sampling over :
   - k =   0.500 -0.357  0.500
   - k =   0.500 -0.357  0.357
   - k =   0.500 -0.357  0.214
   - k =   0.500 -0.357  0.071
   - k =   0.500 -0.357 -0.071
   - k =   0.500 -0.357 -0.214
   - k =   0.500 -0.357 -0.357
   - k =   0.500 -0.357 -0.500

  Deallocating        0.000 MB for KS_eigenvector_complex,
    mem               0 current_memory_estimate       268767916
  Allocating        0.000 MB for KS_eigenvector_complex
    mem               0 current_memory_estimate       268767916
  |-> Computing Wannier center evolution at k-point number:     58
 Using pol_lapack_version = 2
 Calculating Berry  term along reciprocal lattice vector 3:     0.263     0.263    -0.263
 Calculating dipole term along reciprocal lattice vector 3:     0.263     0.263    -0.263

  Treating all    8 k-points in band plot segment #  59:
   Sampling over :
   - k =   0.500 -0.214  0.500
   - k =   0.500 -0.214  0.357
   - k =   0.500 -0.214  0.214
   - k =   0.500 -0.214  0.071
   - k =   0.500 -0.214 -0.071
   - k =   0.500 -0.214 -0.214
   - k =   0.500 -0.214 -0.357
   - k =   0.500 -0.214 -0.500

  Deallocating        0.000 MB for KS_eigenvector_complex,
    mem               0 current_memory_estimate       268767916
  Allocating        0.000 MB for KS_eigenvector_complex
    mem               0 current_memory_estimate       268767916
  |-> Computing Wannier center evolution at k-point number:     59
 Using pol_lapack_version = 2
 Calculating Berry  term along reciprocal lattice vector 3:     0.263     0.263    -0.263
 Calculating dipole term along reciprocal lattice vector 3:     0.263     0.263    -0.263

  Treating all    8 k-points in band plot segment #  60:
   Sampling over :
   - k =   0.500 -0.071  0.500
   - k =   0.500 -0.071  0.357
   - k =   0.500 -0.071  0.214
   - k =   0.500 -0.071  0.071
   - k =   0.500 -0.071 -0.071
   - k =   0.500 -0.071 -0.214
   - k =   0.500 -0.071 -0.357
   - k =   0.500 -0.071 -0.500

  Deallocating        0.000 MB for KS_eigenvector_complex,
    mem               0 current_memory_estimate       268767916
  Allocating        0.000 MB for KS_eigenvector_complex
    mem               0 current_memory_estimate       268767916
  |-> Computing Wannier center evolution at k-point number:     60
 Using pol_lapack_version = 2
 Calculating Berry  term along reciprocal lattice vector 3:     0.263     0.263    -0.263
 Calculating dipole term along reciprocal lattice vector 3:     0.263     0.263    -0.263

  Treating all    8 k-points in band plot segment #  61:
   Sampling over :
   - k =   0.500  0.071  0.500
   - k =   0.500  0.071  0.357
   - k =   0.500  0.071  0.214
   - k =   0.500  0.071  0.071
   - k =   0.500  0.071 -0.071
   - k =   0.500  0.071 -0.214
   - k =   0.500  0.071 -0.357
   - k =   0.500  0.071 -0.500

  Deallocating        0.000 MB for KS_eigenvector_complex,
    mem               0 current_memory_estimate       268767916
  Allocating        0.000 MB for KS_eigenvector_complex
    mem               0 current_memory_estimate       268767916
  |-> Computing Wannier center evolution at k-point number:     61
 Using pol_lapack_version = 2
 Calculating Berry  term along reciprocal lattice vector 3:     0.263     0.263    -0.263
 Calculating dipole term along reciprocal lattice vector 3:     0.263     0.263    -0.263

  Treating all    8 k-points in band plot segment #  62:
   Sampling over :
   - k =   0.500  0.214  0.500
   - k =   0.500  0.214  0.357
   - k =   0.500  0.214  0.214
   - k =   0.500  0.214  0.071
   - k =   0.500  0.214 -0.071
   - k =   0.500  0.214 -0.214
   - k =   0.500  0.214 -0.357
   - k =   0.500  0.214 -0.500

  Deallocating        0.000 MB for KS_eigenvector_complex,
    mem               0 current_memory_estimate       268767916
  Allocating        0.000 MB for KS_eigenvector_complex
    mem               0 current_memory_estimate       268767916
  |-> Computing Wannier center evolution at k-point number:     62
 Using pol_lapack_version = 2
 Calculating Berry  term along reciprocal lattice vector 3:     0.263     0.263    -0.263
 Calculating dipole term along reciprocal lattice vector 3:     0.263     0.263    -0.263

  Treating all    8 k-points in band plot segment #  63:
   Sampling over :
   - k =   0.500  0.357  0.500
   - k =   0.500  0.357  0.357
   - k =   0.500  0.357  0.214
   - k =   0.500  0.357  0.071
   - k =   0.500  0.357 -0.071
   - k =   0.500  0.357 -0.214
   - k =   0.500  0.357 -0.357
   - k =   0.500  0.357 -0.500

  Deallocating        0.000 MB for KS_eigenvector_complex,
    mem               0 current_memory_estimate       268767916
  Allocating        0.000 MB for KS_eigenvector_complex
    mem               0 current_memory_estimate       268767916
  |-> Computing Wannier center evolution at k-point number:     63
 Using pol_lapack_version = 2
 Calculating Berry  term along reciprocal lattice vector 3:     0.263     0.263    -0.263
 Calculating dipole term along reciprocal lattice vector 3:     0.263     0.263    -0.263

  Treating all    8 k-points in band plot segment #  64:
   Sampling over :
   - k =   0.500  0.500  0.500
   - k =   0.500  0.500  0.357
   - k =   0.500  0.500  0.214
   - k =   0.500  0.500  0.071
   - k =   0.500  0.500 -0.071
   - k =   0.500  0.500 -0.214
   - k =   0.500  0.500 -0.357
   - k =   0.500  0.500 -0.500

  Deallocating        0.000 MB for KS_eigenvector_complex,
    mem               0 current_memory_estimate       268767916
  Allocating        0.000 MB for KS_eigenvector_complex
    mem               0 current_memory_estimate       268767916
  |-> Computing Wannier center evolution at k-point number:     64
 Using pol_lapack_version = 2
 Calculating Berry  term along reciprocal lattice vector 3:     0.263     0.263    -0.263
 Calculating dipole term along reciprocal lattice vector 3:     0.263     0.263    -0.263
  *-> Finished with polarization directive nr.   1
  | Evaluation of the polarization for directive nr.     1
   - Ionic      polarization along rec. latt. vec.    3 is:       74.778484E-12 C/m^2
   - Berry term: Preliminary Electronic polarization along rec. latt. vec.    3 is:     -230.762093E-03 C/m^2 before branch-mapping
   --> Detailed listing before/after branch mapping in terms of the polarization quantum P0=     -230.762093E-03 C/m^2
     | k-string    1 :         1.000000E+00 /      -118.916483E-12 P0
     | k-string    2 :         1.000000E+00 /      -115.790145E-12 P0
     | k-string    3 :         1.000000E+00 /      -107.633164E-12 P0
     | k-string    4 :         1.000000E+00 /      -100.982313E-12 P0
     | k-string    5 :         1.000000E+00 /      -100.641302E-12 P0
     | k-string    6 :         1.000000E+00 /      -107.149924E-12 P0
     | k-string    7 :         1.000000E+00 /      -115.335316E-12 P0
     | k-string    8 :         1.000000E+00 /      -119.087031E-12 P0
     | k-string    9 :         1.000000E+00 /      -114.681717E-12 P0
     | k-string   10 :         1.000000E+00 /      -117.665935E-12 P0
     | k-string   11 :         1.000000E+00 /      -113.630103E-12 P0
     | k-string   12 :         1.000000E+00 /      -105.359436E-12 P0
     | k-string   13 :         1.000000E+00 /       -99.248596E-12 P0
     | k-string   14 :         1.000000E+00 /       -99.987611E-12 P0
     | k-string   15 :         1.000000E+00 /      -106.666763E-12 P0
     | k-string   16 :         1.000000E+00 /      -114.653203E-12 P0
     | k-string   17 :         1.000000E+00 /      -104.023534E-12 P0
     | k-string   18 :         1.000000E+00 /      -111.185744E-12 P0
     | k-string   19 :         1.000000E+00 /      -113.402687E-12 P0
     | k-string   20 :         1.000000E+00 /      -109.196324E-12 P0
     | k-string   21 :         1.000000E+00 /      -101.437026E-12 P0
     | k-string   22 :         1.000000E+00 /       -96.378012E-12 P0
     | k-string   23 :         1.000000E+00 /       -97.600196E-12 P0
     | k-string   24 :         1.000000E+00 /      -104.080396E-12 P0
     | k-string   25 :         1.000000E+00 /       -95.212873E-12 P0
     | k-string   26 :         1.000000E+00 /      -100.982419E-12 P0
     | k-string   27 :         1.000000E+00 /      -107.149869E-12 P0
     | k-string   28 :         1.000000E+00 /      -109.508921E-12 P0
     | k-string   29 :         1.000000E+00 /      -105.700462E-12 P0
     | k-string   30 :         1.000000E+00 /       -98.935924E-12 P0
     | k-string   31 :         1.000000E+00 /       -94.473766E-12 P0
     | k-string   32 :         1.000000E+00 /       -95.212780E-12 P0
     | k-string   33 :         1.000000E+00 /       -94.957035E-12 P0
     | k-string   34 :         1.000000E+00 /       -94.957085E-12 P0
     | k-string   35 :         1.000000E+00 /       -99.646607E-12 P0
     | k-string   36 :         1.000000E+00 /      -105.842478E-12 P0
     | k-string   37 :         1.000000E+00 /      -108.883652E-12 P0
     | k-string   38 :         1.000000E+00 /      -106.126796E-12 P0
     | k-string   39 :         1.000000E+00 /       -99.902270E-12 P0
     | k-string   40 :         1.000000E+00 /       -94.928521E-12 P0
     | k-string   41 :         1.000000E+00 /      -103.398241E-12 P0
     | k-string   42 :         1.000000E+00 /       -97.429732E-12 P0
     | k-string   43 :         1.000000E+00 /       -96.548487E-12 P0
     | k-string   44 :         1.000000E+00 /      -101.238230E-12 P0
     | k-string   45 :         1.000000E+00 /      -108.400440E-12 P0
     | k-string   46 :         1.000000E+00 /      -112.209000E-12 P0
     | k-string   47 :         1.000000E+00 /      -109.935313E-12 P0
     | k-string   48 :         1.000000E+00 /      -103.398148E-12 P0
     | k-string   49 :         1.000000E+00 /      -113.971074E-12 P0
     | k-string   50 :         1.000000E+00 /      -106.638324E-12 P0
     | k-string   51 :         1.000000E+00 /      -100.158224E-12 P0
     | k-string   52 :         1.000000E+00 /       -99.248558E-12 P0
     | k-string   53 :         1.000000E+00 /      -104.733998E-12 P0
     | k-string   54 :         1.000000E+00 /      -112.550018E-12 P0
     | k-string   55 :         1.000000E+00 /      -116.642795E-12 P0
     | k-string   56 :         1.000000E+00 /      -114.084891E-12 P0
     | k-string   57 :         1.000000E+00 /      -119.030208E-12 P0
     | k-string   58 :         1.000000E+00 /      -115.676496E-12 P0
     | k-string   59 :         1.000000E+00 /      -107.632981E-12 P0
     | k-string   60 :         1.000000E+00 /      -101.010773E-12 P0
     | k-string   61 :         1.000000E+00 /      -100.584497E-12 P0
     | k-string   62 :         1.000000E+00 /      -107.036164E-12 P0
     | k-string   63 :         1.000000E+00 /      -115.278510E-12 P0
     | k-string   64 :         1.000000E+00 /      -118.973272E-12 P0
   - Berry term: Electronic polarization along rec. latt. vec.    3 is:       24.311403E-12 C/m^2 after branch-mapping

   - Dipole term: Preliminary Electronic polarization along rec. latt. vec.    3 is:      -25.127442E-12 C/m^2 before branch-mapping
   --> Detailed listing before/after branch mapping in terms of the polarization quantum P0=     -230.762093E-03 C/m^2
     | k-string    1 :       118.643102E-12 /       118.643102E-12 P0
     | k-string    2 :       116.039284E-12 /       116.039284E-12 P0
     | k-string    3 :       109.659444E-12 /       109.659444E-12 P0
     | k-string    4 :       104.557869E-12 /       104.557869E-12 P0
     | k-string    5 :       104.483417E-12 /       104.483417E-12 P0
     | k-string    6 :       109.677961E-12 /       109.677961E-12 P0
     | k-string    7 :       116.044313E-12 /       116.044313E-12 P0
     | k-string    8 :       118.730266E-12 /       118.730266E-12 P0
     | k-string    9 :       115.065124E-12 /       115.065124E-12 P0
     | k-string   10 :       117.438911E-12 /       117.438911E-12 P0
     | k-string   11 :       114.460650E-12 /       114.460650E-12 P0
     | k-string   12 :       108.111169E-12 /       108.111169E-12 P0
     | k-string   13 :       103.377318E-12 /       103.377318E-12 P0
     | k-string   14 :       103.926946E-12 /       103.926946E-12 P0
     | k-string   15 :       109.017045E-12 /       109.017045E-12 P0
     | k-string   16 :       115.055967E-12 /       115.055967E-12 P0
     | k-string   17 :       106.720591E-12 /       106.720591E-12 P0
     | k-string   18 :       112.404855E-12 /       112.404855E-12 P0
     | k-string   19 :       114.524637E-12 /       114.524637E-12 P0
     | k-string   20 :       111.560146E-12 /       111.560146E-12 P0
     | k-string   21 :       105.521762E-12 /       105.521762E-12 P0
     | k-string   22 :       101.254597E-12 /       101.254597E-12 P0
     | k-string   23 :       101.899033E-12 /       101.899033E-12 P0
     | k-string   24 :       106.807935E-12 /       106.807935E-12 P0
     | k-string   25 :       100.044348E-12 /       100.044348E-12 P0
     | k-string   26 :       104.484670E-12 /       104.484670E-12 P0
     | k-string   27 :       109.756458E-12 /       109.756458E-12 P0
     | k-string   28 :       112.098549E-12 /       112.098549E-12 P0
     | k-string   29 :       109.336518E-12 /       109.336518E-12 P0
     | k-string   30 :       103.841176E-12 /       103.841176E-12 P0
     | k-string   31 :        99.883500E-12 /        99.883500E-12 P0
     | k-string   32 :       100.036273E-12 /       100.036273E-12 P0
     | k-string   33 :       100.126788E-12 /       100.126788E-12 P0
     | k-string   34 :        99.822329E-12 /        99.822329E-12 P0
     | k-string   35 :       103.883985E-12 /       103.883985E-12 P0
     | k-string   36 :       109.348352E-12 /       109.348352E-12 P0
     | k-string   37 :       112.064838E-12 /       112.064838E-12 P0
     | k-string   38 :       109.842286E-12 /       109.842286E-12 P0
     | k-string   39 :       104.471889E-12 /       104.471889E-12 P0
     | k-string   40 :       100.051806E-12 /       100.051806E-12 P0
     | k-string   41 :       106.829050E-12 /       106.829050E-12 P0
     | k-string   42 :       101.875141E-12 /       101.875141E-12 P0
     | k-string   43 :       101.247120E-12 /       101.247120E-12 P0
     | k-string   44 :       105.384981E-12 /       105.384981E-12 P0
     | k-string   45 :       111.483592E-12 /       111.483592E-12 P0
     | k-string   46 :       114.577076E-12 /       114.577076E-12 P0
     | k-string   47 :       112.403342E-12 /       112.403342E-12 P0
     | k-string   48 :       106.818090E-12 /       106.818090E-12 P0
     | k-string   49 :       115.025118E-12 /       115.025118E-12 P0
     | k-string   50 :       109.007153E-12 /       109.007153E-12 P0
     | k-string   51 :       103.916816E-12 /       103.916816E-12 P0
     | k-string   52 :       103.460282E-12 /       103.460282E-12 P0
     | k-string   53 :       108.080650E-12 /       108.080650E-12 P0
     | k-string   54 :       114.431536E-12 /       114.431536E-12 P0
     | k-string   55 :       117.439083E-12 /       117.439083E-12 P0
     | k-string   56 :       115.131906E-12 /       115.131906E-12 P0
     | k-string   57 :       118.714052E-12 /       118.714052E-12 P0
     | k-string   58 :       115.984117E-12 /       115.984117E-12 P0
     | k-string   59 :       109.639353E-12 /       109.639353E-12 P0
     | k-string   60 :       104.622339E-12 /       104.622339E-12 P0
     | k-string   61 :       104.472947E-12 /       104.472947E-12 P0
     | k-string   62 :       109.611110E-12 /       109.611110E-12 P0
     | k-string   63 :       115.954389E-12 /       115.954389E-12 P0
     | k-string   64 :       118.707327E-12 /       118.707327E-12 P0
   - Dipole term: Electronic polarization along rec. latt. vec.    3 is:      -25.000330E-12 C/m^2 after branch-mapping

  Deallocating        0.000 MB for KS_eigenvector_for_WCC
    mem               0 current_memory_estimate       268767916
  Deallocating        0.132 MB for WCC_imag
    mem          138240 current_memory_estimate       268629676
  Deallocating        0.026 MB for WCC_eval
    mem           27648 current_memory_estimate       268602028
  Deallocating        1.055 MB for WCC_evalue_phase
    mem         1105920 current_memory_estimate       267496108
  Deallocating        1.055 MB for WCC_evalue_phase_r
    mem         1105920 current_memory_estimate       266390188
  Deallocating        0.000 MB for WCC_kpoints
    mem             192 current_memory_estimate       266389996
  Deallocating       51.368 MB for WCC_dipmat_all_up
    mem        53863712 current_memory_estimate       212526284
  Deallocating       51.368 MB for WCC_dipmat_all_low
    mem        53863712 current_memory_estimate       158662572

  Deallocating        0.000 MB for KS_eigenvector_complex
    mem               0 current_memory_estimate       158662572
  Deallocating        0.000 MB for hamiltonian_w
    mem               8 current_memory_estimate       158662564
  Deallocating        0.000 MB for overlap_matrix_w
    mem               8 current_memory_estimate       158662556
  Deallocating       10.293 MB for hamiltonian_w_complex
    mem        10792656 current_memory_estimate       147869900
  Deallocating       10.293 MB for overlap_matrix_w_complex
    mem        10792656 current_memory_estimate       137077244
  Deallocating        0.000 MB for work_ham
    mem               8 current_memory_estimate       137077236
  Deallocating        0.000 MB for work_ovl
    mem               8 current_memory_estimate       137077228
  Deallocating        0.002 MB for k_weights_old
    mem            2080 current_memory_estimate       137075148
  Deallocating        0.000 MB for occ_numbers_soc
    mem               8 current_memory_estimate       137075140
  Deallocating        0.000 MB for SOC_Hamiltonian
    mem              16 current_memory_estimate       137075124
  Deallocating        0.000 MB for soc_matrix
    mem               8 current_memory_estimate       137075116
  Deallocating        0.000 MB for my_k_points
    mem               4 current_memory_estimate       137075112
  Deallocating        0.000 MB for KS_eigenvalue_soc_perturbed
    mem               8 current_memory_estimate       137075104
  Deallocating        0.000 MB for KS_eigenvector_soc_perturbed
    mem              16 current_memory_estimate       137075088
  Deallocating        0.000 MB for de_dk
    mem               8 current_memory_estimate       137075080
  Deallocating        0.000 MB for omega_pl_sq
    mem               8 current_memory_estimate       137075072
  Deallocating        0.000 MB for omega_pl_sq_soc
    mem               8 current_memory_estimate       137075064
  Deallocating        0.000 MB for de_dk_soc
    mem              16 current_memory_estimate       137075048

  Wannier center evolution                                :  max(cpu_time) wall_clock(cpu1)
  | Total Time                                            :        174.777          177.032
------------------------------------------------------------

  Summary for all Polarization Directives:

  * Ionic Polarization along rec. latt. vecs. is (C/m^2):        83.052222E-12      232.604274E-12       74.778484E-12
  * Electronic Contributions:
    Summarizing all directives:
    - Directive    1 in direction of rec. latt. vec.  3 yields the electronic polarization (Berry term):          24.311403E-12 (C/m^2)
    - Directive    1 in direction of rec. latt. vec.  3 yields the electronic polarization (Dipole term):        -25.000330E-12 (C/m^2)
  * Full Polarizations (Electron + Ions):
    Summarizing all directives:
    - Directive    1 in direction of rec. latt. vec.  3 yields the full polarization      :        74.089569E-12 (C/m^2)

------------------------------------------------------------

  Deallocating        0.000 MB for PZ_Pe
    mem               8 current_memory_estimate       137075040
  Deallocating        0.000 MB for PZ_Pe_r
    mem               8 current_memory_estimate       137075032
  Deallocating       51.368 MB for overlap_matrix
    mem        53863712 current_memory_estimate        83211320
  Deallocating       51.368 MB for hamiltonian
    mem        53863712 current_memory_estimate        29347608
  Deallocating        0.000 MB for KS_eigenvector
    mem               8 current_memory_estimate        29347600
  Deallocating        0.030 MB for rho_diff
    mem           31056 current_memory_estimate        29316544
  Deallocating        0.030 MB for delta_rho_KS
    mem           31056 current_memory_estimate        29285488
  Deallocating        0.030 MB for rho_KS_save
    mem           31056 current_memory_estimate        29254432
  Deallocating        0.237 MB for previous_rho_diff
    mem          248448 current_memory_estimate        29005984
  Deallocating        0.237 MB for previous_rho_error
    mem          248448 current_memory_estimate        28757536
  Deallocating        0.089 MB for rho_gradient_diff
    mem           93168 current_memory_estimate        28664368
  Deallocating        0.089 MB for delta_rho_gradient
    mem           93168 current_memory_estimate        28571200
  Deallocating        0.711 MB for previous_rho_gradient_diff
    mem          745344 current_memory_estimate        27825856
  Deallocating        0.711 MB for previous_rho_gradient_error
    mem          745344 current_memory_estimate        27080512
  Deallocating        0.000 MB for kinetic_density_diff
    mem               8 current_memory_estimate        27080504
  Deallocating        0.000 MB for delta_kinetic_density
    mem               8 current_memory_estimate        27080496
  Deallocating        0.000 MB for previous_kinetic_density_diff
    mem               8 current_memory_estimate        27080488
  Deallocating        0.000 MB for previous_kinetic_density_error
    mem               8 current_memory_estimate        27080480
  Deallocating        0.071 MB for inv_centers_basis_integrals
    mem           74088 current_memory_estimate        27006392
  Deallocating       25.684 MB for column_index_hamiltonian
    mem        26931856 current_memory_estimate           74536
  Deallocating        0.071 MB for inv_centers_in_hamiltonian
    mem           74088 current_memory_estimate             448
  Deallocating        0.000 MB for psi_at_nucleus_mod::psi_at_nucleus_atomic
    mem              80 current_memory_estimate             368
  Deallocating        0.000 MB for psi_at_nucleus_mod::psi_at_nucleus_hydro
    mem              80 current_memory_estimate             288
  Deallocating        0.000 MB for psi_at_nucleus_mod::psi_at_nucleus_gauss
    mem              80 current_memory_estimate             208
  Deallocating        0.000 MB for psi_at_nucleus_mod::psi_at_nucleus_ionic
    mem              80 current_memory_estimate             128
  Deallocating        0.000 MB for psi_at_nucleus_mod::psi_at_nucleus
    mem             128 current_memory_estimate               0

------------------------------------------------------------------------------
  Final output of selected total energy values:

  The following output summarizes some interesting total energy values
  at the end of a run (AFTER all relaxation, molecular dynamics, etc.).

  | Total energy of the DFT / Hartree-Fock s.c.f. calculation      :        -202223.259703965 eV
  | Final zero-broadening corrected energy (caution - metals only) :        -202223.259703965 eV
  | For reference only, the value of 1 Hartree used in FHI-aims is :             27.211384500 eV
  | For reference only, the overall average (free atom contribution
  | + realspace contribution) of the electrostatic potential after
  | s.c.f. convergence is                                          :            -17.308930085 eV

  Before relying on these values, please be sure to understand exactly which
  total energy value is referred to by a given number. Different objects may
  all carry the same name 'total energy'. Definitions:

  Total energy of the DFT / Hartree-Fock s.c.f. calculation:
  | Note that this energy does not include ANY quantities calculated after the
  | s.c.f. cycle, in particular not ANY RPA, MP2, etc. many-body perturbation terms.

  Final zero-broadening corrected energy:
  | For metallic systems only, a broadening of the occupation numbers at the Fermi
  | level can be extrapolated back to zero broadening by an electron-gas inspired
  | formula. For all systems that are not real metals, this value can be
  | meaningless and should be avoided.

------------------------------------------------------------------------------
  Methods described in the following list of references were used in this FHI-aims run.
  If you publish the results, please make sure to cite these reference if they apply.
  FHI-aims is an academic code, and for our developers (often, Ph.D. students
  and postdocs), scientific credit in the community is essential.
  Thank you for helping us!

  For any use of FHI-aims, please cite:

    Volker Blum, Ralf Gehrke, Felix Hanke, Paula Havu, Ville Havu,
    Xinguo Ren, Karsten Reuter, and Matthias Scheffler
    'Ab initio molecular simulations with numeric atom-centered orbitals'
    Computer Physics Communications 180, 2175-2196 (2009)
    http://doi.org/10.1016/j.cpc.2009.06.022


  The provided symmetry information was generated with SPGlib:

    Atsushi Togo, Yusuke Seto, Dimitar Pashov
    SPGlib 1.7.3 obtained from http://spglib.sourceforge.net
    Licence: New BSD license
    Copyright (C) 2008 Atsushi Togo


  The ELSI infrastructure was used in your run to solve the Kohn-Sham electronic structure.
  Please check out https://wordpress.elsi-interchange.org to learn more.
  If scalability is important for your project, please acknowledge ELSI by citing:

    V. W-z. Yu, F. Corsetti, A. Garcia, W. P. Huhn, M. Jacquelin, W. Jia,
    B. Lange, L. Lin, J. Lu, W. Mi, A. Seifitokaldani, A. Vazquez-Mayagoitia,
    C. Yang, H. Yang, and V. Blum
    'ELSI: A unified software interface for Kohn-Sham electronic structure solvers'
    Computer Physics Communications 222, 267-285 (2018).
    http://doi.org/10.1016/j.cpc.2017.09.007


  For the real-space grid partitioning and parallelization used in this calculation, please cite:

    Ville Havu, Volker Blum, Paula Havu, and Matthias Scheffler,
    'Efficient O(N) integration for all-electron electronic structure calculation'
    'using numerically tabulated basis functions'
    Journal of Computational Physics 228, 8367-8379 (2009).
    http://doi.org/10.1016/j.jcp.2009.08.008

  Of course, there are many other important community references, e.g., those cited in the
  above references. Our list is limited to references that describe implementations in the
  FHI-aims code. The reason is purely practical (length of this list) - please credit others as well.
------------------------------------------------------------
Warnings summary:

At least    0 warnings were raised during execution.

------------------------------------------------------------
          Leaving FHI-aims.
          Date     :  20260606, Time     :  213708.499

          Computational steps:
          | Number of self-consistency cycles          :            1
          | Number of SCF (re)initializations          :            1

          Detailed time accounting                     :  max(cpu_time)    wall_clock(cpu1)
          | Total time                                  :      213.901 s         226.152 s
          | Preparation time                            :        0.147 s           0.148 s
          | Boundary condition initalization            :        0.856 s           0.897 s
          | Grid partitioning                           :        0.624 s           0.700 s
          | Preloading free-atom quantities on grid     :        0.910 s           0.919 s
          | Free-atom superposition energy              :        0.058 s           0.058 s
          | Total time for integrations                 :       15.810 s          15.969 s
          | Total time for solution of K.-S. equations  :        7.350 s           7.412 s
          | Total time for density update               :       11.734 s          12.106 s
          | Total time for mixing                       :        0.002 s           0.001 s
          | Total time for Hartree multipole update     :        0.086 s           0.086 s
          | Total time for Hartree multipole sum        :        0.350 s           0.356 s
          | Total time for total energy evaluation      :        0.006 s           0.009 s
          | Total time for scaled ZORA corrections      :        0.000 s           0.000 s
          | Total time for matrix I/O                   :        0.048 s           0.585 s
          | Total time for Wannier Center Evolution     :      175.225 s         177.032 s

          Partial memory accounting:
          | Residual value for overall tracked memory usage across tasks:     0.000000 MB (should be 0.000000 MB)
          | Peak values for overall tracked memory usage:
          |   Minimum:      285.379 MB (on task 127 after allocating dipolemat_shell)
          |   Maximum:      333.496 MB (on task   2 after allocating eval_tmp)
          |   Average:      287.967 MB
          | Largest tracked array allocation:
          |   Minimum:       51.368 MB (overlap_matrix on task   0)
          |   Maximum:       51.368 MB (overlap_matrix on task   0)
          |   Average:       51.368 MB
          | current_memory_estimate               0
          Note:  These values currently only include a subset of arrays which are explicitly tracked.
          The "true" memory usage will be greater.

          Have a nice day.
------------------------------------------------------------
