5
Lattice="3.98772401 0.00252199 0.00251895 0.00732644 3.98771808 0.00251895 0.00732644 0.00731762 3.98771216" Properties=species:S:1:pos:R:3:REF_BEC:R:9 pbc="T T T"
Ba       0.00154942       0.00154755       0.00154569       2.80877304      -0.01544488      -0.01542630      -0.01544488       2.80881026      -0.01540773      -0.01542630      -0.01540773       2.80884734
Ti       2.04807538       2.04560932       2.04314920       6.29928383      -0.30406931      -0.30370362      -0.30406931       6.30001653      -0.30333794      -0.30370362      -0.30333794       6.30074658
O        1.95851857       1.95616035       3.91890703      -2.00672327      -0.01063073       0.09843048      -0.01063073      -2.00669766       0.09831196       0.22801993       0.22774538      -5.09540493
O        3.92361495       1.95379278       1.95144308      -5.09461033       0.23172730       0.23144862       0.10213794      -2.00712104      -0.01102803       0.10201510      -0.01102803      -2.00709450
O        1.95851857       3.92125815       1.95144308      -2.00672328       0.09841762      -0.01074917       0.22800698      -5.09500809       0.23146174      -0.01090511       0.10202832      -2.00709450
