5
Lattice="3.98772401 0.00252199 0.00251895 0.00732644 3.98771808 0.00251895 0.00732644 0.00731762 3.98771216" Properties=species:S:1:pos:R:3:displacements:R:3 energy=-254466.805093542 free_energy=-254466.805093542 polarization="0.22679999 0.226526816 0.2262543" REF_dipole="0.897645876245577 0.8965646878619378 0.8954861037596591" pbc="T T T"
Ba       0.00154942       0.00154755       0.00154569       0.00000000       0.00000000       0.00000000
Ti       2.04807538       2.04560932       2.04314920       0.00000000       0.00000000       0.00000000
O        1.95851857       1.95616035       3.91890703       0.00000000       0.00000000       0.00000000
O        3.92361495       1.95379278       1.95144308       0.00000000       0.00000000       0.00000000
O        1.95851857       3.92125815       1.95144308       0.00000000       0.00000000       0.00000000
5
Lattice="3.98772401 0.00252199 0.00251895 0.00732644 3.98771808 0.00251895 0.00732644 0.00731762 3.98771216" Properties=species:S:1:pos:R:3:displacements:R:3 energy=-254466.805101383 free_energy=-254466.805101383 polarization="0.227509665 0.226522889 0.22625038" REF_dipole="0.9004546807663556 0.896549145289136 0.8954705888919783" pbc="T T T"
Ba       0.00254942       0.00154755       0.00154569       0.00100000       0.00000000       0.00000000
Ti       2.04807538       2.04560932       2.04314920       0.00000000       0.00000000       0.00000000
O        1.95851857       1.95616035       3.91890703       0.00000000       0.00000000       0.00000000
O        3.92361495       1.95379278       1.95144308       0.00000000       0.00000000       0.00000000
O        1.95851857       3.92125815       1.95144308       0.00000000       0.00000000       0.00000000
5
Lattice="3.98772401 0.00252199 0.00251895 0.00732644 3.98771808 0.00251895 0.00732644 0.00731762 3.98771216" Properties=species:S:1:pos:R:3:displacements:R:3 energy=-254466.8050919 free_energy=-254466.8050919 polarization="0.228390352 0.226449728 0.226177305" REF_dipole="0.903940329305463 0.8962595832395434 0.8951813672195846" pbc="T T T"
Ba       0.00154942       0.00154755       0.00154569       0.00000000       0.00000000       0.00000000
Ti       2.04907538       2.04560932       2.04314920       0.00100000       0.00000000       0.00000000
O        1.95851857       1.95616035       3.91890703       0.00000000       0.00000000       0.00000000
O        3.92361495       1.95379278       1.95144308       0.00000000       0.00000000       0.00000000
O        1.95851857       3.92125815       1.95144308       0.00000000       0.00000000       0.00000000
5
Lattice="3.98772401 0.00252199 0.00251895 0.00732644 3.98771808 0.00251895 0.00732644 0.00731762 3.98771216" Properties=species:S:1:pos:R:3:displacements:R:3 energy=-254466.805089671 free_energy=-254466.805089671 polarization="0.226292945 0.226524145 0.226279058" REF_dipole="0.8956390558161714 0.8965541163793929 0.8955840928142622" pbc="T T T"
Ba       0.00154942       0.00154755       0.00154569       0.00000000       0.00000000       0.00000000
Ti       2.04807538       2.04560932       2.04314920       0.00000000       0.00000000       0.00000000
O        1.95951857       1.95616035       3.91890703       0.00100000       0.00000000       0.00000000
O        3.92361495       1.95379278       1.95144308       0.00000000       0.00000000       0.00000000
O        1.95851857       3.92125815       1.95144308       0.00000000       0.00000000       0.00000000
5
Lattice="3.98772401 0.00252199 0.00251895 0.00732644 3.98771808 0.00251895 0.00732644 0.00731762 3.98771216" Properties=species:S:1:pos:R:3:displacements:R:3 energy=-254466.805078588 free_energy=-254466.805078588 polarization="0.226857426 0.226584183 0.2249663" REF_dipole="0.8978732007200977 0.8967917392431242 0.8903883615216446" pbc="T T T"
Ba       0.00154942       0.00154755       0.00154569       0.00000000       0.00000000       0.00000000
Ti       2.04807538       2.04560932       2.04314920       0.00000000       0.00000000       0.00000000
O        1.95851857       1.95616035       3.91990703       0.00000000       0.00000000       0.00100000
O        3.92361495       1.95379278       1.95144308       0.00000000       0.00000000       0.00000000
O        1.95851857       3.92125815       1.95144308       0.00000000       0.00000000       0.00000000
5
Lattice="3.98772401 0.00252199 0.00251895 0.00732644 3.98771808 0.00251895 0.00732644 0.00731762 3.98771216" Properties=species:S:1:pos:R:3:displacements:R:3 energy=-254466.805079872 free_energy=-254466.805079872 polarization="0.226090344 0.226530695 0.226258174" REF_dipole="0.8948371865031559 0.8965800404567679 0.8955014365651173" pbc="T T T"
Ba       0.00054942       0.00154755       0.00154569      -0.00100000       0.00000000       0.00000000
Ti       2.04807538       2.04560932       2.04314920       0.00000000       0.00000000       0.00000000
O        1.95851857       1.95616035       3.91890703       0.00000000       0.00000000       0.00000000
O        3.92361495       1.95379278       1.95144308       0.00000000       0.00000000       0.00000000
O        1.95851857       3.92125815       1.95144308       0.00000000       0.00000000       0.00000000
5
Lattice="3.98772401 0.00252199 0.00251895 0.00732644 3.98771808 0.00251895 0.00732644 0.00731762 3.98771216" Properties=species:S:1:pos:R:3:displacements:R:3 energy=-254466.805088568 free_energy=-254466.805088568 polarization="0.2252072 0.226603381 0.226330773" REF_dipole="0.891341813466627 0.8968677225160167 0.8957887742892925" pbc="T T T"
Ba       0.00154942       0.00154755       0.00154569       0.00000000       0.00000000       0.00000000
Ti       2.04707538       2.04560932       2.04314920      -0.00100000       0.00000000       0.00000000
O        1.95851857       1.95616035       3.91890703       0.00000000       0.00000000       0.00000000
O        3.92361495       1.95379278       1.95144308       0.00000000       0.00000000       0.00000000
O        1.95851857       3.92125815       1.95144308       0.00000000       0.00000000       0.00000000
5
Lattice="3.98772401 0.00252199 0.00251895 0.00732644 3.98771808 0.00251895 0.00732644 0.00731762 3.98771216" Properties=species:S:1:pos:R:3:displacements:R:3 energy=-254466.80509209 free_energy=-254466.80509209 polarization="0.227306999 0.226529517 0.226229319" REF_dipole="0.8996525541915035 0.8965753780807149 0.895387232099063" pbc="T T T"
Ba       0.00154942       0.00154755       0.00154569       0.00000000       0.00000000       0.00000000
Ti       2.04807538       2.04560932       2.04314920       0.00000000       0.00000000       0.00000000
O        1.95751857       1.95616035       3.91890703      -0.00100000       0.00000000       0.00000000
O        3.92361495       1.95379278       1.95144308       0.00000000       0.00000000       0.00000000
O        1.95851857       3.92125815       1.95144308       0.00000000       0.00000000       0.00000000
5
Lattice="3.98772401 0.00252199 0.00251895 0.00732644 3.98771808 0.00251895 0.00732644 0.00731762 3.98771216" Properties=species:S:1:pos:R:3:displacements:R:3 energy=-254466.805098671 free_energy=-254466.805098671 polarization="0.226742202 0.226469099 0.227541132" REF_dipole="0.8974171585992645 0.8963362512247083 0.9005792232003648" pbc="T T T"
Ba       0.00154942       0.00154755       0.00154569       0.00000000       0.00000000       0.00000000
Ti       2.04807538       2.04560932       2.04314920       0.00000000       0.00000000       0.00000000
O        1.95851857       1.95616035       3.91790703       0.00000000       0.00000000      -0.00100000
O        3.92361495       1.95379278       1.95144308       0.00000000       0.00000000       0.00000000
O        1.95851857       3.92125815       1.95144308       0.00000000       0.00000000       0.00000000
