------------------------------------------------------------
          Invoking FHI-aims ...

          When using FHI-aims, please cite the following reference:

            Volker Blum, Ralf Gehrke, Felix Hanke, Paula Havu,
            Ville Havu, Xinguo Ren, Karsten Reuter, and Matthias Scheffler,
            'Ab Initio Molecular Simulations with Numeric Atom-Centered Orbitals',
            Computer Physics Communications 180, 2175-2196 (2009)

          In addition, many other developments in FHI-aims are likely important for
          your particular application. If so, please cite them. A partial list of references
          is written at the end of this file. Thank you for giving credit to the authors
          of these developments.

          For general information about FHI-aims please find us at

            https://fhi-aims.org

          Online tutorials can be found at

            https://fhi-aims-club.gitlab.io/tutorials/tutorials-overview/

          For any questions about FHI-aims, please visit our slack channel at

            https://fhi-aims.slack.com

          and our main development and support site at

            https://aims-git.rz-berlin.mpg.de .

          The latter site, in particular, has a wiki to collect information, as well
          as an issue tracker to log discussions, suggest improvements, and report issues
          or bugs. https://aims-git.rz-berlin.mpg.de is also the main development site
          of the project and all new and updated code versions can be obtained there.
          Please send an email to aims-coordinators@ms1p.org and we will add
          you to these sites. They are for you and everyone is welcome there.

------------------------------------------------------------



  Date     :  20260814, Time     :  171335.204
  Time zero on CPU 1             :   0.181847000000000E+00  s.
  Internal wall clock time zero  :           555959615.204  s.

  FHI-aims created a unique identifier for this run for later identification
  aims_uuid : 2B5582EB-E1AB-4CBD-AF51-42170F48857D

  Build configuration of the current instance of FHI-aims
  -------------------------------------------------------
  FHI-aims version      : 260527
  Commit number         : 59e070fb4
  CMake host system     : Linux-5.14.0-570.103.1.el9_6.x86_64
  CMake version         : 3.26.5
  OS Distribution       : Red Hat Enterprise Linux 9.6 (Plow)
  Built on              : AMD EPYC 9554 64-Core Processor
  Fortran compiler      : /mpcdf/soft/RHEL_9/packages/x86_64/intel_oneapi/2024.0/mpi/2021.11/bin/mpiifort (Intel) version 2021.1.0.20231117
  Fortran compiler flags: -O3 -ip -fp-model precise -diag-disable=10448
  C compiler            : /mpcdf/soft/RHEL_9/packages/x86_64/intel/2024.0.2/bin/icx (IntelLLVM) version 2024.0.2
  C compiler flags      : -O3 -std=gnu99
  C++ compiler          : /mpcdf/soft/RHEL_9/packages/x86_64/intel/2024.0.2/bin/icpx (IntelLLVM) version 2024.0.2
  C++ compiler flags    : -O3 -std=c++14
  HIP compiler          :
  HIP compiler flags    :
  HIP GPU arch          :
  Using MPI
  Using ScaLAPACK
  Using LibXC
  Using i-PI
  Using RLSY
  Using GREENX
  Linking against: /mpcdf/soft/RHEL_9/packages/x86_64/intel_oneapi/2024.0/mkl/latest/lib/libmkl_intel_lp64.so
                   /mpcdf/soft/RHEL_9/packages/x86_64/intel_oneapi/2024.0/mkl/latest/lib/libmkl_sequential.so
                   /mpcdf/soft/RHEL_9/packages/x86_64/intel_oneapi/2024.0/mkl/latest/lib/libmkl_core.so
                   /mpcdf/soft/RHEL_9/packages/x86_64/intel_oneapi/2024.0/mkl/latest/lib/libmkl_blacs_intelmpi_lp64.so
                   /mpcdf/soft/RHEL_9/packages/x86_64/intel_oneapi/2024.0/mkl/latest/lib/libmkl_scalapack_lp64.so

  Using      256 parallel tasks.
  Task        0 on host vipc2391 reporting.
  Task        1 on host vipc2391 reporting.
  Task        2 on host vipc2391 reporting.
  Task        3 on host vipc2391 reporting.
  Task        4 on host vipc2391 reporting.
  Task        5 on host vipc2391 reporting.
  Task        6 on host vipc2391 reporting.
  Task        7 on host vipc2391 reporting.
  Task        8 on host vipc2391 reporting.
  Task        9 on host vipc2391 reporting.
  Task       10 on host vipc2391 reporting.
  Task       11 on host vipc2391 reporting.
  Task       12 on host vipc2391 reporting.
  Task       13 on host vipc2391 reporting.
  Task       14 on host vipc2391 reporting.
  Task       15 on host vipc2391 reporting.
  Task       16 on host vipc2391 reporting.
  Task       17 on host vipc2391 reporting.
  Task       18 on host vipc2391 reporting.
  Task       19 on host vipc2391 reporting.
  Task       20 on host vipc2391 reporting.
  Task       21 on host vipc2391 reporting.
  Task       22 on host vipc2391 reporting.
  Task       23 on host vipc2391 reporting.
  Task       24 on host vipc2391 reporting.
  Task       25 on host vipc2391 reporting.
  Task       26 on host vipc2391 reporting.
  Task       27 on host vipc2391 reporting.
  Task       28 on host vipc2391 reporting.
  Task       29 on host vipc2391 reporting.
  Task       30 on host vipc2391 reporting.
  Task       31 on host vipc2391 reporting.
  Task       32 on host vipc2391 reporting.
  Task       33 on host vipc2391 reporting.
  Task       34 on host vipc2391 reporting.
  Task       35 on host vipc2391 reporting.
  Task       36 on host vipc2391 reporting.
  Task       37 on host vipc2391 reporting.
  Task       38 on host vipc2391 reporting.
  Task       39 on host vipc2391 reporting.
  Task       40 on host vipc2391 reporting.
  Task       41 on host vipc2391 reporting.
  Task       42 on host vipc2391 reporting.
  Task       43 on host vipc2391 reporting.
  Task       44 on host vipc2391 reporting.
  Task       45 on host vipc2391 reporting.
  Task       46 on host vipc2391 reporting.
  Task       47 on host vipc2391 reporting.
  Task       48 on host vipc2391 reporting.
  Task       49 on host vipc2391 reporting.
  Task       50 on host vipc2391 reporting.
  Task       51 on host vipc2391 reporting.
  Task       52 on host vipc2391 reporting.
  Task       53 on host vipc2391 reporting.
  Task       54 on host vipc2391 reporting.
  Task       55 on host vipc2391 reporting.
  Task       56 on host vipc2391 reporting.
  Task       57 on host vipc2391 reporting.
  Task       58 on host vipc2391 reporting.
  Task       59 on host vipc2391 reporting.
  Task       60 on host vipc2391 reporting.
  Task       61 on host vipc2391 reporting.
  Task       62 on host vipc2391 reporting.
  Task       63 on host vipc2391 reporting.
  Task       64 on host vipc2391 reporting.
  Task       65 on host vipc2391 reporting.
  Task       66 on host vipc2391 reporting.
  Task       67 on host vipc2391 reporting.
  Task       68 on host vipc2391 reporting.
  Task       69 on host vipc2391 reporting.
  Task       70 on host vipc2391 reporting.
  Task       71 on host vipc2391 reporting.
  Task       72 on host vipc2391 reporting.
  Task       73 on host vipc2391 reporting.
  Task       74 on host vipc2391 reporting.
  Task       75 on host vipc2391 reporting.
  Task       76 on host vipc2391 reporting.
  Task       77 on host vipc2391 reporting.
  Task       78 on host vipc2391 reporting.
  Task       79 on host vipc2391 reporting.
  Task       80 on host vipc2391 reporting.
  Task       81 on host vipc2391 reporting.
  Task       82 on host vipc2391 reporting.
  Task       83 on host vipc2391 reporting.
  Task       84 on host vipc2391 reporting.
  Task       85 on host vipc2391 reporting.
  Task       86 on host vipc2391 reporting.
  Task       87 on host vipc2391 reporting.
  Task       88 on host vipc2391 reporting.
  Task       89 on host vipc2391 reporting.
  Task       90 on host vipc2391 reporting.
  Task       91 on host vipc2391 reporting.
  Task       92 on host vipc2391 reporting.
  Task       93 on host vipc2391 reporting.
  Task       94 on host vipc2391 reporting.
  Task       95 on host vipc2391 reporting.
  Task       96 on host vipc2391 reporting.
  Task       97 on host vipc2391 reporting.
  Task       98 on host vipc2391 reporting.
  Task       99 on host vipc2391 reporting.
  Task      100 on host vipc2391 reporting.
  Task      101 on host vipc2391 reporting.
  Task      102 on host vipc2391 reporting.
  Task      103 on host vipc2391 reporting.
  Task      104 on host vipc2391 reporting.
  Task      105 on host vipc2391 reporting.
  Task      106 on host vipc2391 reporting.
  Task      107 on host vipc2391 reporting.
  Task      108 on host vipc2391 reporting.
  Task      109 on host vipc2391 reporting.
  Task      110 on host vipc2391 reporting.
  Task      111 on host vipc2391 reporting.
  Task      112 on host vipc2391 reporting.
  Task      113 on host vipc2391 reporting.
  Task      114 on host vipc2391 reporting.
  Task      115 on host vipc2391 reporting.
  Task      116 on host vipc2391 reporting.
  Task      117 on host vipc2391 reporting.
  Task      118 on host vipc2391 reporting.
  Task      119 on host vipc2391 reporting.
  Task      120 on host vipc2391 reporting.
  Task      121 on host vipc2391 reporting.
  Task      122 on host vipc2391 reporting.
  Task      123 on host vipc2391 reporting.
  Task      124 on host vipc2391 reporting.
  Task      125 on host vipc2391 reporting.
  Task      126 on host vipc2391 reporting.
  Task      127 on host vipc2391 reporting.
  Task      128 on host vipc2416 reporting.
  Task      129 on host vipc2416 reporting.
  Task      130 on host vipc2416 reporting.
  Task      131 on host vipc2416 reporting.
  Task      132 on host vipc2416 reporting.
  Task      133 on host vipc2416 reporting.
  Task      134 on host vipc2416 reporting.
  Task      135 on host vipc2416 reporting.
  Task      136 on host vipc2416 reporting.
  Task      137 on host vipc2416 reporting.
  Task      138 on host vipc2416 reporting.
  Task      139 on host vipc2416 reporting.
  Task      140 on host vipc2416 reporting.
  Task      141 on host vipc2416 reporting.
  Task      142 on host vipc2416 reporting.
  Task      143 on host vipc2416 reporting.
  Task      144 on host vipc2416 reporting.
  Task      145 on host vipc2416 reporting.
  Task      146 on host vipc2416 reporting.
  Task      147 on host vipc2416 reporting.
  Task      148 on host vipc2416 reporting.
  Task      149 on host vipc2416 reporting.
  Task      150 on host vipc2416 reporting.
  Task      151 on host vipc2416 reporting.
  Task      152 on host vipc2416 reporting.
  Task      153 on host vipc2416 reporting.
  Task      154 on host vipc2416 reporting.
  Task      155 on host vipc2416 reporting.
  Task      156 on host vipc2416 reporting.
  Task      157 on host vipc2416 reporting.
  Task      158 on host vipc2416 reporting.
  Task      159 on host vipc2416 reporting.
  Task      160 on host vipc2416 reporting.
  Task      161 on host vipc2416 reporting.
  Task      162 on host vipc2416 reporting.
  Task      163 on host vipc2416 reporting.
  Task      164 on host vipc2416 reporting.
  Task      165 on host vipc2416 reporting.
  Task      166 on host vipc2416 reporting.
  Task      167 on host vipc2416 reporting.
  Task      168 on host vipc2416 reporting.
  Task      169 on host vipc2416 reporting.
  Task      170 on host vipc2416 reporting.
  Task      171 on host vipc2416 reporting.
  Task      172 on host vipc2416 reporting.
  Task      173 on host vipc2416 reporting.
  Task      174 on host vipc2416 reporting.
  Task      175 on host vipc2416 reporting.
  Task      176 on host vipc2416 reporting.
  Task      177 on host vipc2416 reporting.
  Task      178 on host vipc2416 reporting.
  Task      179 on host vipc2416 reporting.
  Task      180 on host vipc2416 reporting.
  Task      181 on host vipc2416 reporting.
  Task      182 on host vipc2416 reporting.
  Task      183 on host vipc2416 reporting.
  Task      184 on host vipc2416 reporting.
  Task      185 on host vipc2416 reporting.
  Task      186 on host vipc2416 reporting.
  Task      187 on host vipc2416 reporting.
  Task      188 on host vipc2416 reporting.
  Task      189 on host vipc2416 reporting.
  Task      190 on host vipc2416 reporting.
  Task      191 on host vipc2416 reporting.
  Task      192 on host vipc2416 reporting.
  Task      193 on host vipc2416 reporting.
  Task      194 on host vipc2416 reporting.
  Task      195 on host vipc2416 reporting.
  Task      196 on host vipc2416 reporting.
  Task      197 on host vipc2416 reporting.
  Task      198 on host vipc2416 reporting.
  Task      199 on host vipc2416 reporting.
  Task      200 on host vipc2416 reporting.
  Task      201 on host vipc2416 reporting.
  Task      202 on host vipc2416 reporting.
  Task      203 on host vipc2416 reporting.
  Task      204 on host vipc2416 reporting.
  Task      205 on host vipc2416 reporting.
  Task      206 on host vipc2416 reporting.
  Task      207 on host vipc2416 reporting.
  Task      208 on host vipc2416 reporting.
  Task      209 on host vipc2416 reporting.
  Task      210 on host vipc2416 reporting.
  Task      211 on host vipc2416 reporting.
  Task      212 on host vipc2416 reporting.
  Task      213 on host vipc2416 reporting.
  Task      214 on host vipc2416 reporting.
  Task      215 on host vipc2416 reporting.
  Task      216 on host vipc2416 reporting.
  Task      217 on host vipc2416 reporting.
  Task      218 on host vipc2416 reporting.
  Task      219 on host vipc2416 reporting.
  Task      220 on host vipc2416 reporting.
  Task      221 on host vipc2416 reporting.
  Task      222 on host vipc2416 reporting.
  Task      223 on host vipc2416 reporting.
  Task      224 on host vipc2416 reporting.
  Task      225 on host vipc2416 reporting.
  Task      226 on host vipc2416 reporting.
  Task      227 on host vipc2416 reporting.
  Task      228 on host vipc2416 reporting.
  Task      229 on host vipc2416 reporting.
  Task      230 on host vipc2416 reporting.
  Task      231 on host vipc2416 reporting.
  Task      232 on host vipc2416 reporting.
  Task      233 on host vipc2416 reporting.
  Task      234 on host vipc2416 reporting.
  Task      235 on host vipc2416 reporting.
  Task      236 on host vipc2416 reporting.
  Task      237 on host vipc2416 reporting.
  Task      238 on host vipc2416 reporting.
  Task      239 on host vipc2416 reporting.
  Task      240 on host vipc2416 reporting.
  Task      241 on host vipc2416 reporting.
  Task      242 on host vipc2416 reporting.
  Task      243 on host vipc2416 reporting.
  Task      244 on host vipc2416 reporting.
  Task      245 on host vipc2416 reporting.
  Task      246 on host vipc2416 reporting.
  Task      247 on host vipc2416 reporting.
  Task      248 on host vipc2416 reporting.
  Task      249 on host vipc2416 reporting.
  Task      250 on host vipc2416 reporting.
  Task      251 on host vipc2416 reporting.
  Task      252 on host vipc2416 reporting.
  Task      253 on host vipc2416 reporting.
  Task      254 on host vipc2416 reporting.
  Task      255 on host vipc2416 reporting.

  Obtaining array dimensions for all initial allocations:
  
  -----------------------------------------------------------------------
  Parsing control.in (first pass over file, find array dimensions only).
  The contents of control.in will be repeated verbatim below
  unless switched off by setting 'verbatim_writeout .false.' .
  in the first line of control.in .
  -----------------------------------------------------------------------
  
  xc                           pw-lda
  relativistic                 atomic_zora scalar
  spin                         none
  k_grid                       2 2 2
  sc_accuracy_rho              1d-2
  elsi_restart                 read
  KS_method                    parallel
  output polarization          3 2 2 2
  
  
  ################################################################################
  #
  #  FHI-aims code project
  #  VB, Fritz-Haber Institut, 2009
  #
  #  Suggested "light" defaults for Mg atom (to be pasted into control.in file)
  #  Be sure to double-check any results obtained with these settings for post-processing,
  #  e.g., with the "tight" defaults and larger basis sets.
  #
  ################################################################################
    species        Mg
  #     global species definitions
      nucleus             12
      mass                24.3050
  #
      l_hartree           4
  #
      cut_pot             4.0          1.5  1.0
      basis_dep_cutoff    1e-4
  #
      radial_base         40 5.5
      radial_multiplier   1
      angular_grids       specified
        division   0.7029   50
        division   0.9689  110
        division   1.1879  194
        division   1.3129  302
  #      division   1.4867  434
  #      division   1.6018  590
  #      division   1.8611  770
  #      division   1.9576  974
  #      division   2.2261 1202
  #      outer_grid   974
        outer_grid   302
  ################################################################################
  #
  #  Definition of "minimal" basis
  #
  ################################################################################
  #     valence basis states
      valence      3  s   2.
      valence      2  p   6.
  #     ion occupancy
      ion_occ      2  s   2.
      ion_occ      2  p   6.
  ################################################################################
  #
  #  Suggested additional basis functions. For production calculations,
  #  uncomment them one after another (the most important basis functions are
  #  listed first).
  #
  #  Constructed for dimers: 2.125 A, 2.375 A, 2.875 A, 3.375 A, 4.5 A
  #
  ################################################################################
  #  "First tier" - improvements: -230.76 meV to -21.94 meV
       hydro 2 p 1.5
       ionic 3 d auto
       hydro 3 s 2.4
  #  "Second tier" - improvements: -5.43 meV to -1.64 meV
  #     hydro 4 f 4.3
  #     hydro 2 p 3.4
  #     hydro 4 s 11.2
  #     hydro 3 d 6.2
  #  "Third tier" - improvements: -0.92 meV to -0.22 meV
  #     hydro 2 s 0.6
  #     hydro 3 p 4.8
  #     hydro 4 f 7.4
  #     hydro 5 g 6.6
  #     hydro 2 p 1.6
  #     hydro 3 d 1.8
  #  "Fourth tier" - improvements: -0.09 meV to -0.05 meV
  #     hydro 4 p 0.45
  #     hydro 5 g 10.4
  #     hydro 2 s 12.4
  #     hydro 4 d 1.7
  ################################################################################
  #
  #  FHI-aims code project
  #  VB, Fritz-Haber Institut, 2009
  #
  #  Suggested "light" defaults for O atom (to be pasted into control.in file)
  #  Be sure to double-check any results obtained with these settings for post-processing,
  #  e.g., with the "tight" defaults and larger basis sets.
  #
  ################################################################################
    species        O
  #     global species definitions
      nucleus             8
      mass                15.9994
  #
      l_hartree           4
  #
      cut_pot             3.5  1.5  1.0
      basis_dep_cutoff    1e-4
  #
      radial_base         36 5.0
      radial_multiplier   1
       angular_grids specified
        division   0.2659   50
        division   0.4451  110
        division   0.6052  194
        division   0.7543  302
  #      division   0.8014  434
  #      division   0.8507  590
  #      division   0.8762  770
  #      division   0.9023  974
  #      division   1.2339 1202
  #      outer_grid 974
        outer_grid 302
  ################################################################################
  #
  #  Definition of "minimal" basis
  #
  ################################################################################
  #     valence basis states
      valence      2  s   2.
      valence      2  p   4.
  #     ion occupancy
      ion_occ      2  s   1.
      ion_occ      2  p   3.
  ################################################################################
  #
  #  Suggested additional basis functions. For production calculations,
  #  uncomment them one after another (the most important basis functions are
  #  listed first).
  #
  #  Constructed for dimers: 1.0 A, 1.208 A, 1.5 A, 2.0 A, 3.0 A
  #
  ################################################################################
  #  "First tier" - improvements: -699.05 meV to -159.38 meV
       hydro 2 p 1.8
       hydro 3 d 7.6
       hydro 3 s 6.4
  #  "Second tier" - improvements: -49.91 meV to -5.39 meV
  #     hydro 4 f 11.6
  #     hydro 3 p 6.2
  #     hydro 3 d 5.6
  #     hydro 5 g 17.6
  #     hydro 1 s 0.75
  #  "Third tier" - improvements: -2.83 meV to -0.50 meV
  #     ionic 2 p auto
  #     hydro 4 f 10.8
  #     hydro 4 d 4.7
  #     hydro 2 s 6.8
  #  "Fourth tier" - improvements: -0.40 meV to -0.12 meV
  #     hydro 3 p 5
  #     hydro 3 s 3.3
  #     hydro 5 g 15.6
  #     hydro 4 f 17.6
  #     hydro 4 d 14
  # Further basis functions - -0.08 meV and below
  #     hydro 3 s 2.1
  #     hydro 4 d 11.6
  #     hydro 3 p 16
  #     hydro 2 s 17.2
  
  -----------------------------------------------------------------------
  Completed first pass over input file control.in .
  -----------------------------------------------------------------------
  
  
  -----------------------------------------------------------------------
  Parsing geometry.in (first pass over file, find array dimensions only).
  The contents of geometry.in will be repeated verbatim below
  unless switched off by setting 'verbatim_writeout .false.' .
  in the first line of geometry.in .
  -----------------------------------------------------------------------
  
  #===============================================================================
  # Created using the Atomic Simulation Environment (ASE)
  
  # Sun May 17 15:17:33 2026
  
  #=======================================================
  lattice_vector -0.0000008071540000 4.2208637674959997 4.2208637675520002
  lattice_vector 4.2208648254999996 0.0000004035620000 4.2208643219860003
  lattice_vector 4.2208648254280003 4.2208643218560002 0.0000004034200000
  atom 0.0000000000780860 0.0000000000400982 0.0000000000801964 Mg
  atom -0.0000004034989140 2.1104318837880980 2.1104318838561968 Mg
  atom 2.1104324128280858 0.0000002018210982 2.1104321610731969 Mg
  atom 2.1104320092510855 2.1104320855690979 4.2208640448491970 Mg
  atom 2.1104324127920862 2.1104321609680983 0.0000002017901964 Mg
  atom 2.1104320092150859 4.2208640447160981 2.1104320855661967 Mg
  atom 4.2208648255420860 2.1104323627490982 2.1104323627831967 Mg
  atom 4.2208644219650857 4.2208642464970980 4.2208642465591968 Mg
  atom 2.1104322108654139 2.1104321231884016 2.1104321231593035 O
  atom 2.1104318072884136 4.2208640069364014 4.2208640069353036 O
  atom 4.2208646236154133 2.1104323249694015 4.2208642841523032 O
  atom 4.2208642200384139 4.2208642087174013 6.3312961679283033 O
  atom 4.2208646235794136 4.2208642841164012 2.1104323248693038 O
  atom 4.2208642200024133 6.3312961678644015 4.2208642086453034 O
  atom 6.3312970363294134 4.2208644858974012 4.2208644858623030 O
  atom 6.3312966327524132 6.3312963696454014 6.3312963696383031 O
  
  -----------------------------------------------------------------------
  Completed first pass over input file geometry.in .
  -----------------------------------------------------------------------
  

  Basic array size parameters:
  | Number of species                 :        2
  | Number of atoms                   :       16
  | Number of lattice vectors         :        3
  | Max. basis fn. angular momentum   :        2
  | Max. atomic/ionic basis occupied n:        3
  | Max. number of basis fn. types    :        3
  | Max. radial fns per species/type  :        4
  | Max. logarithmic grid size        :     1334
  | Max. radial integration grid size :       40
  | Max. angular integration grid size:      302
  | Max. angular grid division number :        8
  | Radial grid for Hartree potential :     1334
  | Number of spin channels           :        1

  Definition of standardized fundamental physical constants in this FHI-aims run:
  | Using the set of values used in FHI-aims up to 2024, which combines values from
  | different CODATA sets - see constants.f90.
  | Use the 'codata' keyword in control.in to change this selection.

  Memory overcommitment is allowed on your operating system.

------------------------------------------------------------
          Reading file control.in.
------------------------------------------------------------
  XC: Using Perdew-Wang parametrisation of Ceperley-Alder LDA.
  Scalar relativistic treatment of kinetic energy: on-site free-atom approximation to ZORA.
  Spin treatment: No spin polarisation.
  Found k-point grid:         2         2         2
  Convergence accuracy of self-consistent charge density:  0.1000E-01
  Using elsi_restart infrastructure.
  Restarting calculation from saved density matrices.
  Kohn-Sham electronic structure solved by the ELSI library.

  Polarization directive number:    1
  | Calculating polarization along reciprocal lattice vector 3 using    2 k-points parallel to this direction.
  | Full Brillouin zone sampling is thus performed on a     2 x     2 x     2 grid
 
  Reading configuration options for species Mg                  .
  | Found nuclear charge :  12.0000
  | Found atomic mass :    24.3050000000000      amu
  | Found l_max for Hartree potential  :   4
  | Found cutoff potl. onset [A], width [A], scale factor :    4.00000    1.50000    1.00000
  | Threshold for basis-dependent cutoff potential is   0.100000E-03
  | Found data for basic radial integration grid :    40 points, outermost radius =    5.500 A
  | Found multiplier for basic radial grid :   1
  | Found angular grid specification: user-specified.
  | Specified grid contains     5 separate shells.
  | Check grid settings after all constraints further below.
  | Found free-atom valence shell :  3 s   2.000
  | Found free-atom valence shell :  2 p   6.000
  | Found free-ion valence shell :  2 s   2.000
  | Found free-ion valence shell :  2 p   6.000
  | Found hydrogenic basis function :  2 p   1.500
  | Found ionic basis function :  3 d , default cutoff radius.
  | Found hydrogenic basis function :  3 s   2.400
 | Encountered keyword species, ending the description of species Mg                  .
  Species Mg                  : Missing cutoff potential type.
  Defaulting to exp(1/x)/(1-x)^2 type cutoff potential.
  Species Mg: No 'logarithmic' tag. Using default grid for free atom:
  | Default logarithmic grid data [bohr] : 0.1000E-03 0.1000E+03 0.1012E+01
  | Will include ionic basis functions of  2.0-fold positive Mg                   ion.
  Species Mg: On-site basis accuracy parameter (for Gram-Schmidt orthonormalisation) not specified.
  Using default value basis_acc =  0.1000000E-03.
  Species Mg                  : Using default innermost maximum threshold i_radial=  2 for radial functions.
  Species Mg                  : Default cutoff onset for free atom density etc. : 0.40000000E+01 AA.
  Species Mg                  : Basic radial grid will be enhanced according to radial_multiplier =   1, to contain    40 grid points.
 
  Reading configuration options for species O                   .
  | Found nuclear charge :   8.0000
  | Found atomic mass :    15.9994000000000      amu
  | Found l_max for Hartree potential  :   4
  | Found cutoff potl. onset [A], width [A], scale factor :    3.50000    1.50000    1.00000
  | Threshold for basis-dependent cutoff potential is   0.100000E-03
  | Found data for basic radial integration grid :    36 points, outermost radius =    5.000 A
  | Found multiplier for basic radial grid :   1
  | Found angular grid specification: user-specified.
  | Specified grid contains     5 separate shells.
  | Check grid settings after all constraints further below.
  | Found free-atom valence shell :  2 s   2.000
  | Found free-atom valence shell :  2 p   4.000
  | Found free-ion valence shell :  2 s   1.000
  | Found free-ion valence shell :  2 p   3.000
  | Found hydrogenic basis function :  2 p   1.800
  | Found hydrogenic basis function :  3 d   7.600
  | Found hydrogenic basis function :  3 s   6.400
  Species O                   : Missing cutoff potential type.
  Defaulting to exp(1/x)/(1-x)^2 type cutoff potential.
  Species O : No 'logarithmic' tag. Using default grid for free atom:
  | Default logarithmic grid data [bohr] : 0.1000E-03 0.1000E+03 0.1012E+01
  Species O : On-site basis accuracy parameter (for Gram-Schmidt orthonormalisation) not specified.
  Using default value basis_acc =  0.1000000E-03.
  Species O                   : Using default innermost maximum threshold i_radial=  2 for radial functions.
  Species O                   : Default cutoff onset for free atom density etc. : 0.35000000E+01 AA.
  Species O                   : Basic radial grid will be enhanced according to radial_multiplier =   1, to contain    36 grid points.
 
  Finished reading input file 'control.in'.
 
------------------------------------------------------------


------------------------------------------------------------
          Reading geometry description geometry.in.
------------------------------------------------------------
  | The smallest distance between any two atoms is         2.11043192 AA.
  | The first atom of this pair is atom number                      6 .
  | The second atom of this pair is atom number                    16 .
  | Wigner-Seitz cell of the first atom image           0     0     0 .
  | (The Wigner-Seitz cell of the second atom is 0 0 0  by definition.)

  Symmetry information by spglib:
  | Precision set to  0.1E-04
  | Number of Operations  : 384
  | Space group           : 225
  | International         : Fm-3m   Dv
  | Schoenflies           : Oh^5
  Input structure read successfully.
  The structure contains       16 atoms,  and a total of        160.000 electrons.

  Input geometry:
  | Unit cell:
  |       -0.00000081        4.22086377        4.22086377
  |        4.22086483        0.00000040        4.22086432
  |        4.22086483        4.22086432        0.00000040
  | Atomic structure:
  |       Atom                x [A]            y [A]            z [A]
  |    1: Species Mg            0.00000000        0.00000000        0.00000000
  |    2: Species Mg           -0.00000040        2.11043188        2.11043188
  |    3: Species Mg            2.11043241        0.00000020        2.11043216
  |    4: Species Mg            2.11043201        2.11043209        4.22086404
  |    5: Species Mg            2.11043241        2.11043216        0.00000020
  |    6: Species Mg            2.11043201        4.22086404        2.11043209
  |    7: Species Mg            4.22086483        2.11043236        2.11043236
  |    8: Species Mg            4.22086442        4.22086425        4.22086425
  |    9: Species O             2.11043221        2.11043212        2.11043212
  |   10: Species O             2.11043181        4.22086401        4.22086401
  |   11: Species O             4.22086462        2.11043232        4.22086428
  |   12: Species O             4.22086422        4.22086421        6.33129617
  |   13: Species O             4.22086462        4.22086428        2.11043232
  |   14: Species O             4.22086422        6.33129617        4.22086421
  |   15: Species O             6.33129704        4.22086449        4.22086449
  |   16: Species O             6.33129663        6.33129637        6.33129637

  Lattice parameters for 3D lattice (in Angstroms) :     5.969203    5.969204    5.969204
  Angle(s) between unit vectors (in degrees)       :    59.999990   60.000005   60.000005


  Quantities derived from the lattice vectors (in Angstrom^-1):
  | Reciprocal lattice vector 1: -0.744301  0.744301  0.744301
  | Reciprocal lattice vector 2:  0.744301 -0.744301  0.744301
  | Reciprocal lattice vector 3:  0.744301  0.744301 -0.744301
  | Unit cell volume                               :   0.150395E+03  Angstrom^3

  Fractional coordinates:
                         L1                L2                L3
       atom_frac         0.00000000        0.00000000        0.00000000  Mg
       atom_frac         0.50000000        0.00000000        0.00000000  Mg
       atom_frac         0.00000000        0.50000000        0.00000000  Mg
       atom_frac         0.50000000        0.50000000        0.00000000  Mg
       atom_frac         0.00000000        0.00000000        0.50000000  Mg
       atom_frac         0.50000000        0.00000000        0.50000000  Mg
       atom_frac         0.00000000        0.50000000        0.50000000  Mg
       atom_frac         0.50000000        0.50000000        0.50000000  Mg
       atom_frac         0.25000000        0.25000000        0.25000000  O
       atom_frac         0.75000000        0.25000000        0.25000000  O
       atom_frac         0.25000000        0.75000000        0.25000000  O
       atom_frac         0.75000000        0.75000000        0.25000000  O
       atom_frac         0.25000000        0.25000000        0.75000000  O
       atom_frac         0.75000000        0.25000000        0.75000000  O
       atom_frac         0.25000000        0.75000000        0.75000000  O
       atom_frac         0.75000000        0.75000000        0.75000000  O

  Slab Identifier: This seems to be a bulk system.
 
  Finished reading input file 'geometry.in'.
 

 
  Consistency checks for stacksize environment parameter are next.
 
  | Maximum stacksize for task 0: unlimited
  | Maximum stacksize for task 1: unlimited
  | Maximum stacksize for task 2: unlimited
  | Maximum stacksize for task 3: unlimited
  | Maximum stacksize for task 4: unlimited
  | Maximum stacksize for task 5: unlimited
  | Maximum stacksize for task 6: unlimited
  | Maximum stacksize for task 7: unlimited
  | Maximum stacksize for task 8: unlimited
  | Maximum stacksize for task 9: unlimited
  | Maximum stacksize for task 10: unlimited
  | Maximum stacksize for task 11: unlimited
  | Maximum stacksize for task 12: unlimited
  | Maximum stacksize for task 13: unlimited
  | Maximum stacksize for task 14: unlimited
  | Maximum stacksize for task 15: unlimited
  | Maximum stacksize for task 16: unlimited
  | Maximum stacksize for task 17: unlimited
  | Maximum stacksize for task 18: unlimited
  | Maximum stacksize for task 19: unlimited
  | Maximum stacksize for task 20: unlimited
  | Maximum stacksize for task 21: unlimited
  | Maximum stacksize for task 22: unlimited
  | Maximum stacksize for task 23: unlimited
  | Maximum stacksize for task 24: unlimited
  | Maximum stacksize for task 25: unlimited
  | Maximum stacksize for task 26: unlimited
  | Maximum stacksize for task 27: unlimited
  | Maximum stacksize for task 28: unlimited
  | Maximum stacksize for task 29: unlimited
  | Maximum stacksize for task 30: unlimited
  | Maximum stacksize for task 31: unlimited
  | Maximum stacksize for task 32: unlimited
  | Maximum stacksize for task 33: unlimited
  | Maximum stacksize for task 34: unlimited
  | Maximum stacksize for task 35: unlimited
  | Maximum stacksize for task 36: unlimited
  | Maximum stacksize for task 37: unlimited
  | Maximum stacksize for task 38: unlimited
  | Maximum stacksize for task 39: unlimited
  | Maximum stacksize for task 40: unlimited
  | Maximum stacksize for task 41: unlimited
  | Maximum stacksize for task 42: unlimited
  | Maximum stacksize for task 43: unlimited
  | Maximum stacksize for task 44: unlimited
  | Maximum stacksize for task 45: unlimited
  | Maximum stacksize for task 46: unlimited
  | Maximum stacksize for task 47: unlimited
  | Maximum stacksize for task 48: unlimited
  | Maximum stacksize for task 49: unlimited
  | Maximum stacksize for task 50: unlimited
  | Maximum stacksize for task 51: unlimited
  | Maximum stacksize for task 52: unlimited
  | Maximum stacksize for task 53: unlimited
  | Maximum stacksize for task 54: unlimited
  | Maximum stacksize for task 55: unlimited
  | Maximum stacksize for task 56: unlimited
  | Maximum stacksize for task 57: unlimited
  | Maximum stacksize for task 58: unlimited
  | Maximum stacksize for task 59: unlimited
  | Maximum stacksize for task 60: unlimited
  | Maximum stacksize for task 61: unlimited
  | Maximum stacksize for task 62: unlimited
  | Maximum stacksize for task 63: unlimited
  | Maximum stacksize for task 64: unlimited
  | Maximum stacksize for task 65: unlimited
  | Maximum stacksize for task 66: unlimited
  | Maximum stacksize for task 67: unlimited
  | Maximum stacksize for task 68: unlimited
  | Maximum stacksize for task 69: unlimited
  | Maximum stacksize for task 70: unlimited
  | Maximum stacksize for task 71: unlimited
  | Maximum stacksize for task 72: unlimited
  | Maximum stacksize for task 73: unlimited
  | Maximum stacksize for task 74: unlimited
  | Maximum stacksize for task 75: unlimited
  | Maximum stacksize for task 76: unlimited
  | Maximum stacksize for task 77: unlimited
  | Maximum stacksize for task 78: unlimited
  | Maximum stacksize for task 79: unlimited
  | Maximum stacksize for task 80: unlimited
  | Maximum stacksize for task 81: unlimited
  | Maximum stacksize for task 82: unlimited
  | Maximum stacksize for task 83: unlimited
  | Maximum stacksize for task 84: unlimited
  | Maximum stacksize for task 85: unlimited
  | Maximum stacksize for task 86: unlimited
  | Maximum stacksize for task 87: unlimited
  | Maximum stacksize for task 88: unlimited
  | Maximum stacksize for task 89: unlimited
  | Maximum stacksize for task 90: unlimited
  | Maximum stacksize for task 91: unlimited
  | Maximum stacksize for task 92: unlimited
  | Maximum stacksize for task 93: unlimited
  | Maximum stacksize for task 94: unlimited
  | Maximum stacksize for task 95: unlimited
  | Maximum stacksize for task 96: unlimited
  | Maximum stacksize for task 97: unlimited
  | Maximum stacksize for task 98: unlimited
  | Maximum stacksize for task 99: unlimited
  | Maximum stacksize for task 100: unlimited
  | Maximum stacksize for task 101: unlimited
  | Maximum stacksize for task 102: unlimited
  | Maximum stacksize for task 103: unlimited
  | Maximum stacksize for task 104: unlimited
  | Maximum stacksize for task 105: unlimited
  | Maximum stacksize for task 106: unlimited
  | Maximum stacksize for task 107: unlimited
  | Maximum stacksize for task 108: unlimited
  | Maximum stacksize for task 109: unlimited
  | Maximum stacksize for task 110: unlimited
  | Maximum stacksize for task 111: unlimited
  | Maximum stacksize for task 112: unlimited
  | Maximum stacksize for task 113: unlimited
  | Maximum stacksize for task 114: unlimited
  | Maximum stacksize for task 115: unlimited
  | Maximum stacksize for task 116: unlimited
  | Maximum stacksize for task 117: unlimited
  | Maximum stacksize for task 118: unlimited
  | Maximum stacksize for task 119: unlimited
  | Maximum stacksize for task 120: unlimited
  | Maximum stacksize for task 121: unlimited
  | Maximum stacksize for task 122: unlimited
  | Maximum stacksize for task 123: unlimited
  | Maximum stacksize for task 124: unlimited
  | Maximum stacksize for task 125: unlimited
  | Maximum stacksize for task 126: unlimited
  | Maximum stacksize for task 127: unlimited
  | Maximum stacksize for task 128: unlimited
  | Maximum stacksize for task 129: unlimited
  | Maximum stacksize for task 130: unlimited
  | Maximum stacksize for task 131: unlimited
  | Maximum stacksize for task 132: unlimited
  | Maximum stacksize for task 133: unlimited
  | Maximum stacksize for task 134: unlimited
  | Maximum stacksize for task 135: unlimited
  | Maximum stacksize for task 136: unlimited
  | Maximum stacksize for task 137: unlimited
  | Maximum stacksize for task 138: unlimited
  | Maximum stacksize for task 139: unlimited
  | Maximum stacksize for task 140: unlimited
  | Maximum stacksize for task 141: unlimited
  | Maximum stacksize for task 142: unlimited
  | Maximum stacksize for task 143: unlimited
  | Maximum stacksize for task 144: unlimited
  | Maximum stacksize for task 145: unlimited
  | Maximum stacksize for task 146: unlimited
  | Maximum stacksize for task 147: unlimited
  | Maximum stacksize for task 148: unlimited
  | Maximum stacksize for task 149: unlimited
  | Maximum stacksize for task 150: unlimited
  | Maximum stacksize for task 151: unlimited
  | Maximum stacksize for task 152: unlimited
  | Maximum stacksize for task 153: unlimited
  | Maximum stacksize for task 154: unlimited
  | Maximum stacksize for task 155: unlimited
  | Maximum stacksize for task 156: unlimited
  | Maximum stacksize for task 157: unlimited
  | Maximum stacksize for task 158: unlimited
  | Maximum stacksize for task 159: unlimited
  | Maximum stacksize for task 160: unlimited
  | Maximum stacksize for task 161: unlimited
  | Maximum stacksize for task 162: unlimited
  | Maximum stacksize for task 163: unlimited
  | Maximum stacksize for task 164: unlimited
  | Maximum stacksize for task 165: unlimited
  | Maximum stacksize for task 166: unlimited
  | Maximum stacksize for task 167: unlimited
  | Maximum stacksize for task 168: unlimited
  | Maximum stacksize for task 169: unlimited
  | Maximum stacksize for task 170: unlimited
  | Maximum stacksize for task 171: unlimited
  | Maximum stacksize for task 172: unlimited
  | Maximum stacksize for task 173: unlimited
  | Maximum stacksize for task 174: unlimited
  | Maximum stacksize for task 175: unlimited
  | Maximum stacksize for task 176: unlimited
  | Maximum stacksize for task 177: unlimited
  | Maximum stacksize for task 178: unlimited
  | Maximum stacksize for task 179: unlimited
  | Maximum stacksize for task 180: unlimited
  | Maximum stacksize for task 181: unlimited
  | Maximum stacksize for task 182: unlimited
  | Maximum stacksize for task 183: unlimited
  | Maximum stacksize for task 184: unlimited
  | Maximum stacksize for task 185: unlimited
  | Maximum stacksize for task 186: unlimited
  | Maximum stacksize for task 187: unlimited
  | Maximum stacksize for task 188: unlimited
  | Maximum stacksize for task 189: unlimited
  | Maximum stacksize for task 190: unlimited
  | Maximum stacksize for task 191: unlimited
  | Maximum stacksize for task 192: unlimited
  | Maximum stacksize for task 193: unlimited
  | Maximum stacksize for task 194: unlimited
  | Maximum stacksize for task 195: unlimited
  | Maximum stacksize for task 196: unlimited
  | Maximum stacksize for task 197: unlimited
  | Maximum stacksize for task 198: unlimited
  | Maximum stacksize for task 199: unlimited
  | Maximum stacksize for task 200: unlimited
  | Maximum stacksize for task 201: unlimited
  | Maximum stacksize for task 202: unlimited
  | Maximum stacksize for task 203: unlimited
  | Maximum stacksize for task 204: unlimited
  | Maximum stacksize for task 205: unlimited
  | Maximum stacksize for task 206: unlimited
  | Maximum stacksize for task 207: unlimited
  | Maximum stacksize for task 208: unlimited
  | Maximum stacksize for task 209: unlimited
  | Maximum stacksize for task 210: unlimited
  | Maximum stacksize for task 211: unlimited
  | Maximum stacksize for task 212: unlimited
  | Maximum stacksize for task 213: unlimited
  | Maximum stacksize for task 214: unlimited
  | Maximum stacksize for task 215: unlimited
  | Maximum stacksize for task 216: unlimited
  | Maximum stacksize for task 217: unlimited
  | Maximum stacksize for task 218: unlimited
  | Maximum stacksize for task 219: unlimited
  | Maximum stacksize for task 220: unlimited
  | Maximum stacksize for task 221: unlimited
  | Maximum stacksize for task 222: unlimited
  | Maximum stacksize for task 223: unlimited
  | Maximum stacksize for task 224: unlimited
  | Maximum stacksize for task 225: unlimited
  | Maximum stacksize for task 226: unlimited
  | Maximum stacksize for task 227: unlimited
  | Maximum stacksize for task 228: unlimited
  | Maximum stacksize for task 229: unlimited
  | Maximum stacksize for task 230: unlimited
  | Maximum stacksize for task 231: unlimited
  | Maximum stacksize for task 232: unlimited
  | Maximum stacksize for task 233: unlimited
  | Maximum stacksize for task 234: unlimited
  | Maximum stacksize for task 235: unlimited
  | Maximum stacksize for task 236: unlimited
  | Maximum stacksize for task 237: unlimited
  | Maximum stacksize for task 238: unlimited
  | Maximum stacksize for task 239: unlimited
  | Maximum stacksize for task 240: unlimited
  | Maximum stacksize for task 241: unlimited
  | Maximum stacksize for task 242: unlimited
  | Maximum stacksize for task 243: unlimited
  | Maximum stacksize for task 244: unlimited
  | Maximum stacksize for task 245: unlimited
  | Maximum stacksize for task 246: unlimited
  | Maximum stacksize for task 247: unlimited
  | Maximum stacksize for task 248: unlimited
  | Maximum stacksize for task 249: unlimited
  | Maximum stacksize for task 250: unlimited
  | Maximum stacksize for task 251: unlimited
  | Maximum stacksize for task 252: unlimited
  | Maximum stacksize for task 253: unlimited
  | Maximum stacksize for task 254: unlimited
  | Maximum stacksize for task 255: unlimited
  | Current stacksize for task 0: unlimited
  | Current stacksize for task 1: unlimited
  | Current stacksize for task 2: unlimited
  | Current stacksize for task 3: unlimited
  | Current stacksize for task 4: unlimited
  | Current stacksize for task 5: unlimited
  | Current stacksize for task 6: unlimited
  | Current stacksize for task 7: unlimited
  | Current stacksize for task 8: unlimited
  | Current stacksize for task 9: unlimited
  | Current stacksize for task 10: unlimited
  | Current stacksize for task 11: unlimited
  | Current stacksize for task 12: unlimited
  | Current stacksize for task 13: unlimited
  | Current stacksize for task 14: unlimited
  | Current stacksize for task 15: unlimited
  | Current stacksize for task 16: unlimited
  | Current stacksize for task 17: unlimited
  | Current stacksize for task 18: unlimited
  | Current stacksize for task 19: unlimited
  | Current stacksize for task 20: unlimited
  | Current stacksize for task 21: unlimited
  | Current stacksize for task 22: unlimited
  | Current stacksize for task 23: unlimited
  | Current stacksize for task 24: unlimited
  | Current stacksize for task 25: unlimited
  | Current stacksize for task 26: unlimited
  | Current stacksize for task 27: unlimited
  | Current stacksize for task 28: unlimited
  | Current stacksize for task 29: unlimited
  | Current stacksize for task 30: unlimited
  | Current stacksize for task 31: unlimited
  | Current stacksize for task 32: unlimited
  | Current stacksize for task 33: unlimited
  | Current stacksize for task 34: unlimited
  | Current stacksize for task 35: unlimited
  | Current stacksize for task 36: unlimited
  | Current stacksize for task 37: unlimited
  | Current stacksize for task 38: unlimited
  | Current stacksize for task 39: unlimited
  | Current stacksize for task 40: unlimited
  | Current stacksize for task 41: unlimited
  | Current stacksize for task 42: unlimited
  | Current stacksize for task 43: unlimited
  | Current stacksize for task 44: unlimited
  | Current stacksize for task 45: unlimited
  | Current stacksize for task 46: unlimited
  | Current stacksize for task 47: unlimited
  | Current stacksize for task 48: unlimited
  | Current stacksize for task 49: unlimited
  | Current stacksize for task 50: unlimited
  | Current stacksize for task 51: unlimited
  | Current stacksize for task 52: unlimited
  | Current stacksize for task 53: unlimited
  | Current stacksize for task 54: unlimited
  | Current stacksize for task 55: unlimited
  | Current stacksize for task 56: unlimited
  | Current stacksize for task 57: unlimited
  | Current stacksize for task 58: unlimited
  | Current stacksize for task 59: unlimited
  | Current stacksize for task 60: unlimited
  | Current stacksize for task 61: unlimited
  | Current stacksize for task 62: unlimited
  | Current stacksize for task 63: unlimited
  | Current stacksize for task 64: unlimited
  | Current stacksize for task 65: unlimited
  | Current stacksize for task 66: unlimited
  | Current stacksize for task 67: unlimited
  | Current stacksize for task 68: unlimited
  | Current stacksize for task 69: unlimited
  | Current stacksize for task 70: unlimited
  | Current stacksize for task 71: unlimited
  | Current stacksize for task 72: unlimited
  | Current stacksize for task 73: unlimited
  | Current stacksize for task 74: unlimited
  | Current stacksize for task 75: unlimited
  | Current stacksize for task 76: unlimited
  | Current stacksize for task 77: unlimited
  | Current stacksize for task 78: unlimited
  | Current stacksize for task 79: unlimited
  | Current stacksize for task 80: unlimited
  | Current stacksize for task 81: unlimited
  | Current stacksize for task 82: unlimited
  | Current stacksize for task 83: unlimited
  | Current stacksize for task 84: unlimited
  | Current stacksize for task 85: unlimited
  | Current stacksize for task 86: unlimited
  | Current stacksize for task 87: unlimited
  | Current stacksize for task 88: unlimited
  | Current stacksize for task 89: unlimited
  | Current stacksize for task 90: unlimited
  | Current stacksize for task 91: unlimited
  | Current stacksize for task 92: unlimited
  | Current stacksize for task 93: unlimited
  | Current stacksize for task 94: unlimited
  | Current stacksize for task 95: unlimited
  | Current stacksize for task 96: unlimited
  | Current stacksize for task 97: unlimited
  | Current stacksize for task 98: unlimited
  | Current stacksize for task 99: unlimited
  | Current stacksize for task 100: unlimited
  | Current stacksize for task 101: unlimited
  | Current stacksize for task 102: unlimited
  | Current stacksize for task 103: unlimited
  | Current stacksize for task 104: unlimited
  | Current stacksize for task 105: unlimited
  | Current stacksize for task 106: unlimited
  | Current stacksize for task 107: unlimited
  | Current stacksize for task 108: unlimited
  | Current stacksize for task 109: unlimited
  | Current stacksize for task 110: unlimited
  | Current stacksize for task 111: unlimited
  | Current stacksize for task 112: unlimited
  | Current stacksize for task 113: unlimited
  | Current stacksize for task 114: unlimited
  | Current stacksize for task 115: unlimited
  | Current stacksize for task 116: unlimited
  | Current stacksize for task 117: unlimited
  | Current stacksize for task 118: unlimited
  | Current stacksize for task 119: unlimited
  | Current stacksize for task 120: unlimited
  | Current stacksize for task 121: unlimited
  | Current stacksize for task 122: unlimited
  | Current stacksize for task 123: unlimited
  | Current stacksize for task 124: unlimited
  | Current stacksize for task 125: unlimited
  | Current stacksize for task 126: unlimited
  | Current stacksize for task 127: unlimited
  | Current stacksize for task 128: unlimited
  | Current stacksize for task 129: unlimited
  | Current stacksize for task 130: unlimited
  | Current stacksize for task 131: unlimited
  | Current stacksize for task 132: unlimited
  | Current stacksize for task 133: unlimited
  | Current stacksize for task 134: unlimited
  | Current stacksize for task 135: unlimited
  | Current stacksize for task 136: unlimited
  | Current stacksize for task 137: unlimited
  | Current stacksize for task 138: unlimited
  | Current stacksize for task 139: unlimited
  | Current stacksize for task 140: unlimited
  | Current stacksize for task 141: unlimited
  | Current stacksize for task 142: unlimited
  | Current stacksize for task 143: unlimited
  | Current stacksize for task 144: unlimited
  | Current stacksize for task 145: unlimited
  | Current stacksize for task 146: unlimited
  | Current stacksize for task 147: unlimited
  | Current stacksize for task 148: unlimited
  | Current stacksize for task 149: unlimited
  | Current stacksize for task 150: unlimited
  | Current stacksize for task 151: unlimited
  | Current stacksize for task 152: unlimited
  | Current stacksize for task 153: unlimited
  | Current stacksize for task 154: unlimited
  | Current stacksize for task 155: unlimited
  | Current stacksize for task 156: unlimited
  | Current stacksize for task 157: unlimited
  | Current stacksize for task 158: unlimited
  | Current stacksize for task 159: unlimited
  | Current stacksize for task 160: unlimited
  | Current stacksize for task 161: unlimited
  | Current stacksize for task 162: unlimited
  | Current stacksize for task 163: unlimited
  | Current stacksize for task 164: unlimited
  | Current stacksize for task 165: unlimited
  | Current stacksize for task 166: unlimited
  | Current stacksize for task 167: unlimited
  | Current stacksize for task 168: unlimited
  | Current stacksize for task 169: unlimited
  | Current stacksize for task 170: unlimited
  | Current stacksize for task 171: unlimited
  | Current stacksize for task 172: unlimited
  | Current stacksize for task 173: unlimited
  | Current stacksize for task 174: unlimited
  | Current stacksize for task 175: unlimited
  | Current stacksize for task 176: unlimited
  | Current stacksize for task 177: unlimited
  | Current stacksize for task 178: unlimited
  | Current stacksize for task 179: unlimited
  | Current stacksize for task 180: unlimited
  | Current stacksize for task 181: unlimited
  | Current stacksize for task 182: unlimited
  | Current stacksize for task 183: unlimited
  | Current stacksize for task 184: unlimited
  | Current stacksize for task 185: unlimited
  | Current stacksize for task 186: unlimited
  | Current stacksize for task 187: unlimited
  | Current stacksize for task 188: unlimited
  | Current stacksize for task 189: unlimited
  | Current stacksize for task 190: unlimited
  | Current stacksize for task 191: unlimited
  | Current stacksize for task 192: unlimited
  | Current stacksize for task 193: unlimited
  | Current stacksize for task 194: unlimited
  | Current stacksize for task 195: unlimited
  | Current stacksize for task 196: unlimited
  | Current stacksize for task 197: unlimited
  | Current stacksize for task 198: unlimited
  | Current stacksize for task 199: unlimited
  | Current stacksize for task 200: unlimited
  | Current stacksize for task 201: unlimited
  | Current stacksize for task 202: unlimited
  | Current stacksize for task 203: unlimited
  | Current stacksize for task 204: unlimited
  | Current stacksize for task 205: unlimited
  | Current stacksize for task 206: unlimited
  | Current stacksize for task 207: unlimited
  | Current stacksize for task 208: unlimited
  | Current stacksize for task 209: unlimited
  | Current stacksize for task 210: unlimited
  | Current stacksize for task 211: unlimited
  | Current stacksize for task 212: unlimited
  | Current stacksize for task 213: unlimited
  | Current stacksize for task 214: unlimited
  | Current stacksize for task 215: unlimited
  | Current stacksize for task 216: unlimited
  | Current stacksize for task 217: unlimited
  | Current stacksize for task 218: unlimited
  | Current stacksize for task 219: unlimited
  | Current stacksize for task 220: unlimited
  | Current stacksize for task 221: unlimited
  | Current stacksize for task 222: unlimited
  | Current stacksize for task 223: unlimited
  | Current stacksize for task 224: unlimited
  | Current stacksize for task 225: unlimited
  | Current stacksize for task 226: unlimited
  | Current stacksize for task 227: unlimited
  | Current stacksize for task 228: unlimited
  | Current stacksize for task 229: unlimited
  | Current stacksize for task 230: unlimited
  | Current stacksize for task 231: unlimited
  | Current stacksize for task 232: unlimited
  | Current stacksize for task 233: unlimited
  | Current stacksize for task 234: unlimited
  | Current stacksize for task 235: unlimited
  | Current stacksize for task 236: unlimited
  | Current stacksize for task 237: unlimited
  | Current stacksize for task 238: unlimited
  | Current stacksize for task 239: unlimited
  | Current stacksize for task 240: unlimited
  | Current stacksize for task 241: unlimited
  | Current stacksize for task 242: unlimited
  | Current stacksize for task 243: unlimited
  | Current stacksize for task 244: unlimited
  | Current stacksize for task 245: unlimited
  | Current stacksize for task 246: unlimited
  | Current stacksize for task 247: unlimited
  | Current stacksize for task 248: unlimited
  | Current stacksize for task 249: unlimited
  | Current stacksize for task 250: unlimited
  | Current stacksize for task 251: unlimited
  | Current stacksize for task 252: unlimited
  | Current stacksize for task 253: unlimited
  | Current stacksize for task 254: unlimited
  | Current stacksize for task 255: unlimited
 
  Consistency checks for the contents of control.in are next.
 
  MPI_IN_PLACE appears to work with this MPI implementation.
  | Keeping use_mpi_in_place .true. (see manual).
  Target number of points in a grid batch is not set. Defaulting to  100
  Method for grid partitioning is not set. Defaulting to parallel hash+maxmin partitioning.
  Batch size limit is not set. Defaulting to    200
  By default, will store active basis functions for each batch.
  If in need of memory, prune_basis_once .false. can be used to disable this option.
  communication_type for Hartree potential was not specified.
  Defaulting to calc_hartree .
  Defaulting to Pulay charge density mixer.
  Pulay mixer: Number of relevant iterations not set.
  Defaulting to    8 iterations.
  Pulay mixer: Number of initial linear mixing iterations not set.
  Defaulting to    0 iterations.
  Work space size for distributed Hartree potential not set.
  Defaulting to   0.200000E+03 MB.
  Mixing parameter for charge density mixing has not been set.
  Using default: charge_mix_param =     0.0500.
  The mixing parameter will be adjusted in iteration number     2 of each s.c.f. cycle (i.e., each geometry step).
  Algorithm-dependent basis array size parameters:
  | n_max_pulay                         :        8
  Maximum number of self-consistency iterations not provided.
  Presetting  1000 iterations.
  Presetting      1001 iterations before the initial mixing cycle
  is restarted anyway using the sc_init_iter criterion / keyword.
  Presetting a factor      1.000 between actual scf density residual
  and density convergence criterion sc_accuracy_rho below which sc_init_iter
  takes no effect.
  Calculation of forces was not defined in control.in. No forces will be calculated.
  Geometry relaxation not requested: no relaxation will be performed.
  No accuracy limit for integral partition fn. given. Defaulting to  0.1000E-14.
  No threshold value for u(r) in integrations given. Defaulting to  0.1000E-05.
  No occupation type (smearing scheme) given. Defaulting to Gaussian broadening, width =  0.1000E-01 eV.
  The width will be adjusted in iteration number     2 of each s.c.f. cycle (i.e., each geometry step).
  No accuracy for occupation numbers given. Defaulting to  0.1000E-12.
  No threshold value for occupation numbers given. Defaulting to  0.0000E+00.
  No accuracy for fermi level given. Defaulting to  0.1000E-19.
  Maximum # of iterations to find E_F not set. Defaulting to  200.
  Maximum number of tasks per SMP nodenot specified.
  Presetting   512 tasks.
  Threshold for basis singularities not set.
  Default threshold for basis singularities:  0.1000E-04
  partition_type (choice of integration weights) for integrals was not specified.
  | Using a version of the partition function of Stratmann and coworkers ('stratmann_sparse').
  | At each grid point, the set of atoms used to build the partition table is smoothly restricted to
  | only those atoms whose free-atom density would be non-zero at that grid point.
  Partitioning for Hartree potential was not defined. Using partition_type for integrals.
  | Adjusted default value of keyword multip_moments_threshold to:       0.10000000E-11
  | This value may affect high angular momentum components of the Hartree potential in periodic systems.
  Using 2025 definition of centers list for evaluation of the Stratmann partition function.
  No q(lm)/r^(l+1) cutoff set for long-range Hartree potential.
  | Using default value of  0.100000E-09 .
  | Verify using the multipole_threshold keyword.
  Defaulting to new monopole extrapolation.
  Density update method: automatic selection selected.
  Using density matrix based charge density update.
  Using density matrix based charge density update.
  Using packed matrix style: index .
  Threshold of packed matrixes:  0.000000E+00
  Defaulting to use time-reversal symmetry for k-point grid.
  Charge integration errors on the 3D integration grid will be compensated
  by explicit normalization and distribution of residual charges.
  Use the "compensate_multipole_errors" flag to change this behaviour.
  You have selected one (or more) of: output band; output band_mulliken; output polarization
  output Z2_invariant; and use_spin_texture_scf in your control.in
  Therefore COMPLEX eigenvectors will be used in the calculation.
  Found no potential conflicts with setting 'use_local_index' for this calculation.
  Flag 'use_local_index' has not been set.
  Testing whether we classify this calculation as large-scale ...
  The calculation contains less than 100 atoms. This is most likely not a large-scale calculation.
  Not setting 'use_local_index'.
 
  Consistency checks for the contents of geometry.in are next.
 

  Range separation radius for Ewald summation (hartree_convergence_parameter):      2.90111125 bohr.
  Number of empty states per atom not set in control.in - providing a guess from actual geometry.
  | Total number of empty states used during s.c.f. cycle:       48
  If you use a very high smearing, use empty_states (per atom!) in control.in to increase this value.

  Structure-dependent array size parameters: 
  | Maximum number of distinct radial functions  :       13
  | Maximum number of basis functions            :      232
  | Number of Kohn-Sham states (occupied + empty):      128
------------------------------------------------------------

  Checking k-grid inconsistencies now:
  | k-point density for reciprocal lattice vector 1 is    1.55 nkpts / Angstrom^-1
  | k-point density for reciprocal lattice vector 2 is    1.55 nkpts / Angstrom^-1
  | k-point density for reciprocal lattice vector 3 is    1.55 nkpts / Angstrom^-1

  | Ratio of k-point densities for reciprocal lattice vectors 1 vs 2 is    1.00
  | Ratio of k-point densities for reciprocal lattice vectors 1 vs 3 is    1.00
  | Ratio of k-point densities for reciprocal lattice vectors 2 vs 3 is    1.00

  * The specified k_grid leads to a nearly homogenous k-grid density in non-vacuum directions,
  * and seems sensible.

  | Checks passed.
  After read_input_data [GB]:    494.91

  Performing system and environment tests:
  | Environment variable OMP_NUM_THREADS correctly set to 1.
  | Checking for ScaLAPACK...
  | Testing pdtran()...
  | All pdtran() tests passed.
  | Testing CPU compatibility for run-time vs. build-time.
  | Reading /proc/cpuinfo for CPU information ...
  | Built for  : AMD EPYC 9554 64-Core Processor
  | Running on : AMD EPYC 9554 64-Core Processor
  | Runtime CPU compatibility verified.
  
  After prepare_system [GB]:    494.79

------------------------------------------------------------
          Preparing all fixed parts of the calculation.
------------------------------------------------------------
  Determining machine precision:
    2.225073858507201E-308
  Setting up grids for atomic and cluster calculations.

  Creating wave function, potential, and density for free atoms.
  Runtime choices for atomic solver:
  | atomic solver xc        : PW-LDA
  | compute density gradient: 0
  | compute kinetic density : F

  Species: Mg

  List of occupied orbitals and eigenvalues:
    n    l              occ      energy [Ha]    energy [eV]
    1    0           2.0000       -46.129861     -1255.2574
    2    0           2.0000        -2.907634       -79.1207
    3    0           2.0000        -0.170951        -4.6518
    2    1           6.0000        -1.710478       -46.5445


  Species: O

  List of occupied orbitals and eigenvalues:
    n    l              occ      energy [Ha]    energy [eV]
    1    0           2.0000       -18.786109      -511.1960
    2    0           2.0000        -0.872635       -23.7456
    2    1           4.0000        -0.337687        -9.1889


  Adding cutoff potential to free-atom effective potential.
  Creating fixed part of basis set: Ionic, confined, hydrogenic.
 
  Mg                   ion:
  Runtime choices for ionic solver:
  | ionic solver xc        : PW-LDA

  List of free ionic orbitals and eigenvalues:
    n    l      energy [Ha]    energy [eV]
    1    0       -46.892989     -1276.0232
    2    0        -3.655333       -99.4667
    2    1        -2.456328       -66.8401


  List of ionic basis orbitals and eigenvalues:
    n    l      energy [Ha]    energy [eV]    outer radius [A]
    3    2        -0.247637        -6.7386       5.100062

 
  Mg                   hydrogenic:
 
  List of hydrogenic basis orbitals: 
    n    l      effective z      eigenvalue [eV]  inner max. [A]     outer max. [A]     outer radius [A]   
    2    1         1.500000        -7.5955           1.395712           1.395712           5.100062
    3    0         2.400000        -8.0111           0.162319           2.734035           5.100062
 
 
  O                    hydrogenic:
 
  List of hydrogenic basis orbitals: 
    n    l      effective z      eigenvalue [eV]  inner max. [A]     outer max. [A]     outer radius [A]   
    2    1         1.800000       -10.9749           1.164242           1.164242           4.578029
    3    2         7.600000       -87.3180           0.624125           0.624125           3.251020
    3    0         6.400000       -61.9207           0.061167           1.081902           4.001998
 
  Creating atomic-like basis functions for current effective potential.

  Species Mg                  :

  List of atomic basis orbitals and eigenvalues:
    n    l      energy [Ha]    energy [eV]    outer radius [A]
    1    0       -46.129861     -1255.2574       0.932375
    2    0        -2.907634       -79.1207       3.621735
    3    0        -0.170951        -4.6518       5.100062
    2    1        -1.710478       -46.5445       4.404175


  Species O                   :

  List of atomic basis orbitals and eigenvalues:
    n    l      energy [Ha]    energy [eV]    outer radius [A]
    1    0       -18.786109      -511.1960       1.433179
    2    0        -0.872635       -23.7456       4.413171
    2    1        -0.337687        -9.1889       4.522403

  Assembling full basis from fixed parts.
  | Species Mg :   atomic orbital   1 s accepted.
  | Species Mg :   atomic orbital   2 s accepted.
  | Species Mg :   atomic orbital   3 s accepted.
  | Species Mg :    hydro orbital   3 s accepted.
  | Species Mg :   atomic orbital   2 p accepted.
  | Species Mg :    hydro orbital   2 p accepted.
  | Species Mg :    ionic orbital   3 d accepted.
  | Species O :   atomic orbital   1 s accepted.
  | Species O :    hydro orbital   3 s accepted.
  | Species O :   atomic orbital   2 s accepted.
  | Species O :   atomic orbital   2 p accepted.
  | Species O :    hydro orbital   2 p accepted.
  | Species O :    hydro orbital   3 d accepted.
 
  Basis size parameters after reduction:
  | Total number of radial functions:       13
  | Total number of basis functions :      232
 
  Per-task memory consumption for arrays in subroutine allocate_ext:
  |           4.445952MB.
  Testing on-site integration grid accuracy.
  |  Species  Function  <phi|h_atom|phi> (log., in eV)  <phi|h_atom|phi> (rad., in eV)
           1        1              -1255.2573828358              -1255.2567939601
           1        2                -79.1207430359                -79.1207405119
           1        3                 -4.6571725871                 -4.6569780729
           1        4                  4.1187689111                  4.1137116114
           1        5                -46.5444712533                -46.5444712057
           1        6                 -0.6243571790                 -0.6243097782
           1        7                  3.8072935088                  3.8058082227
           2        8               -511.1960429777               -511.1959399133
           2        9                 14.8973166466                 14.8974402823
           2       10                -21.2682165807                -21.2682317485
           2       11                 -9.1890598667                 -9.1892026751
           2       12                  8.1915160719                  8.1720639763
           2       13                 45.8005976646                 45.8005620229

  Preparing densities etc. for the partition functions (integrals / Hartree potential).

  Preparations completed.
  max(cpu_time)          :      0.111 s.
  Wall clock time (cpu1) :      0.111 s.
------------------------------------------------------------
  After prepare_scf [GB]:    489.97

  Initializing index lists of integration centers etc. from given atomic structure:
  Mapping all atomic coordinates to central unit cell.

  Initializing the k-points
  Using symmetry for reducing the k-points
  | k-points reduced from:        8 to        8
  | Number of k-points                             :         8
  The eigenvectors in the calculations are COMPLEX.
  | Number of basis functions in the Hamiltonian integrals       :      4301
  | Number of basis functions in a single unit cell              :       232
  | Number of centers in hartree potential                       :      1696
  | Number of centers in hartree multipole                       :      1342
  | Number of centers in electron density summation              :       974
  | Number of centers in basis integrals                         :      1040
  | Number of centers in integrals                               :       391
  | Number of centers in hamiltonian                             :      1082
  | Number of centers in partition table from touching 0-cell    :       391
  | Number of centers in partition table total                   :      1040
  | Consuming         13 KiB for k_phase.
  | Number of super-cells (origin) [n_cells]                     :         729
  | Number of super-cells (after PM_index) [n_cells]             :         106
  | Number of super-cells in hamiltonian [n_cells_in_hamiltonian]:         106
  | Size of matrix packed + index [n_hamiltonian_matrix_size]    :      552785
  After initialize_bc_dependent_lists [GB]:    489.08

------------------------------------------------------------
          Begin self-consistency loop: Initialization.

          Date     :  20260814, Time     :  171336.376
------------------------------------------------------------
  Available memory per node after initialize_hartree_non_periodic_ewald [GB]:    489.08
  | Estimated reciprocal-space cutoff momentum G_max:         3.26283811 bohr^-1 .
  | Reciprocal lattice points for long-range Hartree potential:     608
  Available memory per node after initialize_recip_hartree_potential [GB]:    489.08
  Checking for possible mapping of k-points to SMP-nodes
  Running on 2 SMP-nodes
  Mapping of k-points to SMP-nodes is *NOT* possible:
  | 8 k-points  : 2 SMP-nodes
 * The calculation will run, but some performance degradation might result.
 * Check the number of actual k-points above, and consider using a number
 * compute nodes that can be divided cleanly by the number of k points
 * (e.g., two k-points per node, two nodes per k-point, etc.).
  Using simple linear distribution as default method for k-point parallelism.
  * Using 256 tasks for Scalapack Eigenvalue solver.
  Detailed listing of tasks and assigned k-points:
   Task     0 k-point     1 on vipc2391
   Task     1 k-point     1 on vipc2391
   Task     2 k-point     1 on vipc2391
   Task     3 k-point     1 on vipc2391
   Task     4 k-point     1 on vipc2391
   Task     5 k-point     1 on vipc2391
   Task     6 k-point     1 on vipc2391
   Task     7 k-point     1 on vipc2391
   Task     8 k-point     1 on vipc2391
   Task     9 k-point     1 on vipc2391
   Task    10 k-point     1 on vipc2391
   Task    11 k-point     1 on vipc2391
   Task    12 k-point     1 on vipc2391
   Task    13 k-point     1 on vipc2391
   Task    14 k-point     1 on vipc2391
   Task    15 k-point     1 on vipc2391
   Task    16 k-point     1 on vipc2391
   Task    17 k-point     1 on vipc2391
   Task    18 k-point     1 on vipc2391
   Task    19 k-point     1 on vipc2391
   Task    20 k-point     1 on vipc2391
   Task    21 k-point     1 on vipc2391
   Task    22 k-point     1 on vipc2391
   Task    23 k-point     1 on vipc2391
   Task    24 k-point     1 on vipc2391
   Task    25 k-point     1 on vipc2391
   Task    26 k-point     1 on vipc2391
   Task    27 k-point     1 on vipc2391
   Task    28 k-point     1 on vipc2391
   Task    29 k-point     1 on vipc2391
   Task    30 k-point     1 on vipc2391
   Task    31 k-point     1 on vipc2391
   Task    32 k-point     2 on vipc2391
   Task    33 k-point     2 on vipc2391
   Task    34 k-point     2 on vipc2391
   Task    35 k-point     2 on vipc2391
   Task    36 k-point     2 on vipc2391
   Task    37 k-point     2 on vipc2391
   Task    38 k-point     2 on vipc2391
   Task    39 k-point     2 on vipc2391
   Task    40 k-point     2 on vipc2391
   Task    41 k-point     2 on vipc2391
   Task    42 k-point     2 on vipc2391
   Task    43 k-point     2 on vipc2391
   Task    44 k-point     2 on vipc2391
   Task    45 k-point     2 on vipc2391
   Task    46 k-point     2 on vipc2391
   Task    47 k-point     2 on vipc2391
   Task    48 k-point     2 on vipc2391
   Task    49 k-point     2 on vipc2391
   Task    50 k-point     2 on vipc2391
   Task    51 k-point     2 on vipc2391
   Task    52 k-point     2 on vipc2391
   Task    53 k-point     2 on vipc2391
   Task    54 k-point     2 on vipc2391
   Task    55 k-point     2 on vipc2391
   Task    56 k-point     2 on vipc2391
   Task    57 k-point     2 on vipc2391
   Task    58 k-point     2 on vipc2391
   Task    59 k-point     2 on vipc2391
   Task    60 k-point     2 on vipc2391
   Task    61 k-point     2 on vipc2391
   Task    62 k-point     2 on vipc2391
   Task    63 k-point     2 on vipc2391
   Task    64 k-point     3 on vipc2391
   Task    65 k-point     3 on vipc2391
   Task    66 k-point     3 on vipc2391
   Task    67 k-point     3 on vipc2391
   Task    68 k-point     3 on vipc2391
   Task    69 k-point     3 on vipc2391
   Task    70 k-point     3 on vipc2391
   Task    71 k-point     3 on vipc2391
   Task    72 k-point     3 on vipc2391
   Task    73 k-point     3 on vipc2391
   Task    74 k-point     3 on vipc2391
   Task    75 k-point     3 on vipc2391
   Task    76 k-point     3 on vipc2391
   Task    77 k-point     3 on vipc2391
   Task    78 k-point     3 on vipc2391
   Task    79 k-point     3 on vipc2391
   Task    80 k-point     3 on vipc2391
   Task    81 k-point     3 on vipc2391
   Task    82 k-point     3 on vipc2391
   Task    83 k-point     3 on vipc2391
   Task    84 k-point     3 on vipc2391
   Task    85 k-point     3 on vipc2391
   Task    86 k-point     3 on vipc2391
   Task    87 k-point     3 on vipc2391
   Task    88 k-point     3 on vipc2391
   Task    89 k-point     3 on vipc2391
   Task    90 k-point     3 on vipc2391
   Task    91 k-point     3 on vipc2391
   Task    92 k-point     3 on vipc2391
   Task    93 k-point     3 on vipc2391
   Task    94 k-point     3 on vipc2391
   Task    95 k-point     3 on vipc2391
   Task    96 k-point     4 on vipc2391
   Task    97 k-point     4 on vipc2391
   Task    98 k-point     4 on vipc2391
   Task    99 k-point     4 on vipc2391
   Task   100 k-point     4 on vipc2391
   Task   101 k-point     4 on vipc2391
   Task   102 k-point     4 on vipc2391
   Task   103 k-point     4 on vipc2391
   Task   104 k-point     4 on vipc2391
   Task   105 k-point     4 on vipc2391
   Task   106 k-point     4 on vipc2391
   Task   107 k-point     4 on vipc2391
   Task   108 k-point     4 on vipc2391
   Task   109 k-point     4 on vipc2391
   Task   110 k-point     4 on vipc2391
   Task   111 k-point     4 on vipc2391
   Task   112 k-point     4 on vipc2391
   Task   113 k-point     4 on vipc2391
   Task   114 k-point     4 on vipc2391
   Task   115 k-point     4 on vipc2391
   Task   116 k-point     4 on vipc2391
   Task   117 k-point     4 on vipc2391
   Task   118 k-point     4 on vipc2391
   Task   119 k-point     4 on vipc2391
   Task   120 k-point     4 on vipc2391
   Task   121 k-point     4 on vipc2391
   Task   122 k-point     4 on vipc2391
   Task   123 k-point     4 on vipc2391
   Task   124 k-point     4 on vipc2391
   Task   125 k-point     4 on vipc2391
   Task   126 k-point     4 on vipc2391
   Task   127 k-point     4 on vipc2391
   Task   128 k-point     5 on vipc2416
   Task   129 k-point     5 on vipc2416
   Task   130 k-point     5 on vipc2416
   Task   131 k-point     5 on vipc2416
   Task   132 k-point     5 on vipc2416
   Task   133 k-point     5 on vipc2416
   Task   134 k-point     5 on vipc2416
   Task   135 k-point     5 on vipc2416
   Task   136 k-point     5 on vipc2416
   Task   137 k-point     5 on vipc2416
   Task   138 k-point     5 on vipc2416
   Task   139 k-point     5 on vipc2416
   Task   140 k-point     5 on vipc2416
   Task   141 k-point     5 on vipc2416
   Task   142 k-point     5 on vipc2416
   Task   143 k-point     5 on vipc2416
   Task   144 k-point     5 on vipc2416
   Task   145 k-point     5 on vipc2416
   Task   146 k-point     5 on vipc2416
   Task   147 k-point     5 on vipc2416
   Task   148 k-point     5 on vipc2416
   Task   149 k-point     5 on vipc2416
   Task   150 k-point     5 on vipc2416
   Task   151 k-point     5 on vipc2416
   Task   152 k-point     5 on vipc2416
   Task   153 k-point     5 on vipc2416
   Task   154 k-point     5 on vipc2416
   Task   155 k-point     5 on vipc2416
   Task   156 k-point     5 on vipc2416
   Task   157 k-point     5 on vipc2416
   Task   158 k-point     5 on vipc2416
   Task   159 k-point     5 on vipc2416
   Task   160 k-point     6 on vipc2416
   Task   161 k-point     6 on vipc2416
   Task   162 k-point     6 on vipc2416
   Task   163 k-point     6 on vipc2416
   Task   164 k-point     6 on vipc2416
   Task   165 k-point     6 on vipc2416
   Task   166 k-point     6 on vipc2416
   Task   167 k-point     6 on vipc2416
   Task   168 k-point     6 on vipc2416
   Task   169 k-point     6 on vipc2416
   Task   170 k-point     6 on vipc2416
   Task   171 k-point     6 on vipc2416
   Task   172 k-point     6 on vipc2416
   Task   173 k-point     6 on vipc2416
   Task   174 k-point     6 on vipc2416
   Task   175 k-point     6 on vipc2416
   Task   176 k-point     6 on vipc2416
   Task   177 k-point     6 on vipc2416
   Task   178 k-point     6 on vipc2416
   Task   179 k-point     6 on vipc2416
   Task   180 k-point     6 on vipc2416
   Task   181 k-point     6 on vipc2416
   Task   182 k-point     6 on vipc2416
   Task   183 k-point     6 on vipc2416
   Task   184 k-point     6 on vipc2416
   Task   185 k-point     6 on vipc2416
   Task   186 k-point     6 on vipc2416
   Task   187 k-point     6 on vipc2416
   Task   188 k-point     6 on vipc2416
   Task   189 k-point     6 on vipc2416
   Task   190 k-point     6 on vipc2416
   Task   191 k-point     6 on vipc2416
   Task   192 k-point     7 on vipc2416
   Task   193 k-point     7 on vipc2416
   Task   194 k-point     7 on vipc2416
   Task   195 k-point     7 on vipc2416
   Task   196 k-point     7 on vipc2416
   Task   197 k-point     7 on vipc2416
   Task   198 k-point     7 on vipc2416
   Task   199 k-point     7 on vipc2416
   Task   200 k-point     7 on vipc2416
   Task   201 k-point     7 on vipc2416
   Task   202 k-point     7 on vipc2416
   Task   203 k-point     7 on vipc2416
   Task   204 k-point     7 on vipc2416
   Task   205 k-point     7 on vipc2416
   Task   206 k-point     7 on vipc2416
   Task   207 k-point     7 on vipc2416
   Task   208 k-point     7 on vipc2416
   Task   209 k-point     7 on vipc2416
   Task   210 k-point     7 on vipc2416
   Task   211 k-point     7 on vipc2416
   Task   212 k-point     7 on vipc2416
   Task   213 k-point     7 on vipc2416
   Task   214 k-point     7 on vipc2416
   Task   215 k-point     7 on vipc2416
   Task   216 k-point     7 on vipc2416
   Task   217 k-point     7 on vipc2416
   Task   218 k-point     7 on vipc2416
   Task   219 k-point     7 on vipc2416
   Task   220 k-point     7 on vipc2416
   Task   221 k-point     7 on vipc2416
   Task   222 k-point     7 on vipc2416
   Task   223 k-point     7 on vipc2416
   Task   224 k-point     8 on vipc2416
   Task   225 k-point     8 on vipc2416
   Task   226 k-point     8 on vipc2416
   Task   227 k-point     8 on vipc2416
   Task   228 k-point     8 on vipc2416
   Task   229 k-point     8 on vipc2416
   Task   230 k-point     8 on vipc2416
   Task   231 k-point     8 on vipc2416
   Task   232 k-point     8 on vipc2416
   Task   233 k-point     8 on vipc2416
   Task   234 k-point     8 on vipc2416
   Task   235 k-point     8 on vipc2416
   Task   236 k-point     8 on vipc2416
   Task   237 k-point     8 on vipc2416
   Task   238 k-point     8 on vipc2416
   Task   239 k-point     8 on vipc2416
   Task   240 k-point     8 on vipc2416
   Task   241 k-point     8 on vipc2416
   Task   242 k-point     8 on vipc2416
   Task   243 k-point     8 on vipc2416
   Task   244 k-point     8 on vipc2416
   Task   245 k-point     8 on vipc2416
   Task   246 k-point     8 on vipc2416
   Task   247 k-point     8 on vipc2416
   Task   248 k-point     8 on vipc2416
   Task   249 k-point     8 on vipc2416
   Task   250 k-point     8 on vipc2416
   Task   251 k-point     8 on vipc2416
   Task   252 k-point     8 on vipc2416
   Task   253 k-point     8 on vipc2416
   Task   254 k-point     8 on vipc2416
   Task   255 k-point     8 on vipc2416
  K-point:     1 Tasks:    32 split into      8 X      4 BLACS grid
  Calculating block size based on n_basis =          232  max_nprow =            8  max_npcol =            4
  ScaLAPACK block size set to:           16
  Allocating        0.031 MB for ovlp_complex
  Allocating        0.031 MB for ham_complex
  Allocating        0.031 MB for eigenvec_complex
  Required Scalapack workspace - INTEGER:            1  REAL:             1  COMPLEX:            1
  Available memory per node after initialize_scalapack [GB]:    489.08
  Available memory per node after aims_elsi_init_scf [GB]:    489.08
  Available memory per node after initialize_fixed_grids [GB]:    489.06
  Partitioning the integration grid into batches with parallel hashing+maxmin method.
  | Number of batches:     1253
  | Maximal batch size:     111
  | Minimal batch size:      49
  | Average batch size:      76.208
  | Standard deviation of batch sizes:      16.557

  Integration load balanced across   256 MPI tasks.
  Work distribution over tasks is as follows:
  Task     0 has        378 integration points.
  Task     1 has        373 integration points.
  Task     2 has        369 integration points.
  Task     3 has        357 integration points.
  Task     4 has        367 integration points.
  Task     5 has        353 integration points.
  Task     6 has        357 integration points.
  Task     7 has        365 integration points.
  Task     8 has        367 integration points.
  Task     9 has        348 integration points.
  Task    10 has        359 integration points.
  Task    11 has        346 integration points.
  Task    12 has        374 integration points.
  Task    13 has        395 integration points.
  Task    14 has        358 integration points.
  Task    15 has        391 integration points.
  Task    16 has        372 integration points.
  Task    17 has        400 integration points.
  Task    18 has        400 integration points.
  Task    19 has        389 integration points.
  Task    20 has        414 integration points.
  Task    21 has        341 integration points.
  Task    22 has        373 integration points.
  Task    23 has        371 integration points.
  Task    24 has        387 integration points.
  Task    25 has        351 integration points.
  Task    26 has        368 integration points.
  Task    27 has        339 integration points.
  Task    28 has        394 integration points.
  Task    29 has        345 integration points.
  Task    30 has        396 integration points.
  Task    31 has        424 integration points.
  Task    32 has        432 integration points.
  Task    33 has        348 integration points.
  Task    34 has        374 integration points.
  Task    35 has        389 integration points.
  Task    36 has        386 integration points.
  Task    37 has        413 integration points.
  Task    38 has        346 integration points.
  Task    39 has        409 integration points.
  Task    40 has        347 integration points.
  Task    41 has        356 integration points.
  Task    42 has        355 integration points.
  Task    43 has        339 integration points.
  Task    44 has        366 integration points.
  Task    45 has        377 integration points.
  Task    46 has        359 integration points.
  Task    47 has        341 integration points.
  Task    48 has        416 integration points.
  Task    49 has        359 integration points.
  Task    50 has        398 integration points.
  Task    51 has        369 integration points.
  Task    52 has        384 integration points.
  Task    53 has        369 integration points.
  Task    54 has        343 integration points.
  Task    55 has        383 integration points.
  Task    56 has        356 integration points.
  Task    57 has        348 integration points.
  Task    58 has        360 integration points.
  Task    59 has        390 integration points.
  Task    60 has        349 integration points.
  Task    61 has        431 integration points.
  Task    62 has        349 integration points.
  Task    63 has        377 integration points.
  Task    64 has        399 integration points.
  Task    65 has        351 integration points.
  Task    66 has        392 integration points.
  Task    67 has        354 integration points.
  Task    68 has        390 integration points.
  Task    69 has        362 integration points.
  Task    70 has        374 integration points.
  Task    71 has        343 integration points.
  Task    72 has        348 integration points.
  Task    73 has        340 integration points.
  Task    74 has        353 integration points.
  Task    75 has        400 integration points.
  Task    76 has        447 integration points.
  Task    77 has        348 integration points.
  Task    78 has        389 integration points.
  Task    79 has        387 integration points.
  Task    80 has        364 integration points.
  Task    81 has        400 integration points.
  Task    82 has        355 integration points.
  Task    83 has        340 integration points.
  Task    84 has        387 integration points.
  Task    85 has        389 integration points.
  Task    86 has        385 integration points.
  Task    87 has        340 integration points.
  Task    88 has        437 integration points.
  Task    89 has        371 integration points.
  Task    90 has        411 integration points.
  Task    91 has        354 integration points.
  Task    92 has        440 integration points.
  Task    93 has        358 integration points.
  Task    94 has        340 integration points.
  Task    95 has        356 integration points.
  Task    96 has        390 integration points.
  Task    97 has        386 integration points.
  Task    98 has        403 integration points.
  Task    99 has        342 integration points.
  Task   100 has        405 integration points.
  Task   101 has        424 integration points.
  Task   102 has        442 integration points.
  Task   103 has        379 integration points.
  Task   104 has        340 integration points.
  Task   105 has        358 integration points.
  Task   106 has        361 integration points.
  Task   107 has        347 integration points.
  Task   108 has        371 integration points.
  Task   109 has        355 integration points.
  Task   110 has        346 integration points.
  Task   111 has        358 integration points.
  Task   112 has        373 integration points.
  Task   113 has        358 integration points.
  Task   114 has        388 integration points.
  Task   115 has        372 integration points.
  Task   116 has        349 integration points.
  Task   117 has        372 integration points.
  Task   118 has        386 integration points.
  Task   119 has        343 integration points.
  Task   120 has        346 integration points.
  Task   121 has        375 integration points.
  Task   122 has        353 integration points.
  Task   123 has        384 integration points.
  Task   124 has        349 integration points.
  Task   125 has        352 integration points.
  Task   126 has        435 integration points.
  Task   127 has        340 integration points.
  Task   128 has        370 integration points.
  Task   129 has        380 integration points.
  Task   130 has        367 integration points.
  Task   131 has        343 integration points.
  Task   132 has        369 integration points.
  Task   133 has        367 integration points.
  Task   134 has        345 integration points.
  Task   135 has        368 integration points.
  Task   136 has        382 integration points.
  Task   137 has        389 integration points.
  Task   138 has        369 integration points.
  Task   139 has        438 integration points.
  Task   140 has        383 integration points.
  Task   141 has        388 integration points.
  Task   142 has        344 integration points.
  Task   143 has        446 integration points.
  Task   144 has        366 integration points.
  Task   145 has        398 integration points.
  Task   146 has        356 integration points.
  Task   147 has        372 integration points.
  Task   148 has        401 integration points.
  Task   149 has        342 integration points.
  Task   150 has        396 integration points.
  Task   151 has        361 integration points.
  Task   152 has        369 integration points.
  Task   153 has        368 integration points.
  Task   154 has        342 integration points.
  Task   155 has        365 integration points.
  Task   156 has        347 integration points.
  Task   157 has        345 integration points.
  Task   158 has        371 integration points.
  Task   159 has        384 integration points.
  Task   160 has        407 integration points.
  Task   161 has        386 integration points.
  Task   162 has        435 integration points.
  Task   163 has        353 integration points.
  Task   164 has        370 integration points.
  Task   165 has        355 integration points.
  Task   166 has        374 integration points.
  Task   167 has        357 integration points.
  Task   168 has        339 integration points.
  Task   169 has        410 integration points.
  Task   170 has        343 integration points.
  Task   171 has        355 integration points.
  Task   172 has        422 integration points.
  Task   173 has        387 integration points.
  Task   174 has        419 integration points.
  Task   175 has        388 integration points.
  Task   176 has        391 integration points.
  Task   177 has        382 integration points.
  Task   178 has        385 integration points.
  Task   179 has        384 integration points.
  Task   180 has        391 integration points.
  Task   181 has        346 integration points.
  Task   182 has        345 integration points.
  Task   183 has        365 integration points.
  Task   184 has        389 integration points.
  Task   185 has        391 integration points.
  Task   186 has        367 integration points.
  Task   187 has        387 integration points.
  Task   188 has        339 integration points.
  Task   189 has        403 integration points.
  Task   190 has        345 integration points.
  Task   191 has        356 integration points.
  Task   192 has        350 integration points.
  Task   193 has        384 integration points.
  Task   194 has        374 integration points.
  Task   195 has        356 integration points.
  Task   196 has        346 integration points.
  Task   197 has        399 integration points.
  Task   198 has        387 integration points.
  Task   199 has        431 integration points.
  Task   200 has        340 integration points.
  Task   201 has        360 integration points.
  Task   202 has        367 integration points.
  Task   203 has        359 integration points.
  Task   204 has        371 integration points.
  Task   205 has        388 integration points.
  Task   206 has        355 integration points.
  Task   207 has        342 integration points.
  Task   208 has        345 integration points.
  Task   209 has        412 integration points.
  Task   210 has        388 integration points.
  Task   211 has        342 integration points.
  Task   212 has        359 integration points.
  Task   213 has        391 integration points.
  Task   214 has        384 integration points.
  Task   215 has        341 integration points.
  Task   216 has        346 integration points.
  Task   217 has        384 integration points.
  Task   218 has        354 integration points.
  Task   219 has        396 integration points.
  Task   220 has        370 integration points.
  Task   221 has        394 integration points.
  Task   222 has        349 integration points.
  Task   223 has        353 integration points.
  Task   224 has        380 integration points.
  Task   225 has        349 integration points.
  Task   226 has        386 integration points.
  Task   227 has        339 integration points.
  Task   228 has        356 integration points.
  Task   229 has        421 integration points.
  Task   230 has        389 integration points.
  Task   231 has        346 integration points.
  Task   232 has        358 integration points.
  Task   233 has        343 integration points.
  Task   234 has        411 integration points.
  Task   235 has        386 integration points.
  Task   236 has        398 integration points.
  Task   237 has        356 integration points.
  Task   238 has        345 integration points.
  Task   239 has        399 integration points.
  Task   240 has        368 integration points.
  Task   241 has        395 integration points.
  Task   242 has        351 integration points.
  Task   243 has        386 integration points.
  Task   244 has        402 integration points.
  Task   245 has        388 integration points.
  Task   246 has        395 integration points.
  Task   247 has        354 integration points.
  Task   248 has        371 integration points.
  Task   249 has        397 integration points.
  Task   250 has        345 integration points.
  Task   251 has        413 integration points.
  Task   252 has        362 integration points.
  Task   253 has        356 integration points.
  Task   254 has        353 integration points.
  Task   255 has        351 integration points.
  Available memory per node after partition_grid [GB]:    489.06
  Initializing partition tables, free-atom densities, potentials, etc. across the integration grid (initialize_grid_storage).
  | initialize_grid_storage: Actual outermost partition radius vs. multipole_radius_free
  | (-- VB: in principle, multipole_radius_free should be larger, hence this output)
  | Species        1: Confinement radius =              5.500000000000000 AA, multipole_radius_free =              5.555717568450569 AA.
  | Species        1: outer_partition_radius set to              5.555717568450569 AA .
  | Species        2: Confinement radius =              4.999999999999999 AA, multipole_radius_free =              5.048384829883283 AA.
  | Species        2: outer_partition_radius set to              5.048384829883283 AA .
  | The sparse table of interatomic distances needs       4145.24 kbyte instead of      8652.80 kbyte of memory.
  | Net number of integration points:    95488
  | of which are non-zero points    :    73200
  | Numerical average free-atom electrostatic potential    :    -17.36059118 eV
  Available memory per node after initialize_grid_storage_p1 [GB]:    489.05
  Renormalizing the initial density to the exact electron count on the 3D integration grid.
  | Initial density: Formal number of electrons (from input files) :     160.0000000000
  | Integrated number of electrons on 3D grid     :     160.0261187488
  | Charge integration error                      :       0.0261187488
  | Normalization factor for density and gradient :       0.9998367845
  Renormalizing the free-atom superposition density to the exact electron count on the 3D integration grid.
  | Formal number of electrons (from input files) :     160.0000000000
  | Integrated number of electrons on 3D grid     :     160.0261187488
  | Charge integration error                      :       0.0261187488
  | Normalization factor for density and gradient :       0.9998367845
  Obtaining max. number of non-zero basis functions in each batch (get_n_compute_maxes).
  | Maximal number of non-zero basis functions:      860 in task     0
  | Maximal number of non-zero basis functions:      810 in task     1
  | Maximal number of non-zero basis functions:      805 in task     2
  | Maximal number of non-zero basis functions:      825 in task     3
  | Maximal number of non-zero basis functions:      845 in task     4
  | Maximal number of non-zero basis functions:      797 in task     5
  | Maximal number of non-zero basis functions:      775 in task     6
  | Maximal number of non-zero basis functions:      793 in task     7
  | Maximal number of non-zero basis functions:      795 in task     8
  | Maximal number of non-zero basis functions:      806 in task     9
  | Maximal number of non-zero basis functions:      801 in task    10
  | Maximal number of non-zero basis functions:      809 in task    11
  | Maximal number of non-zero basis functions:      833 in task    12
  | Maximal number of non-zero basis functions:      779 in task    13
  | Maximal number of non-zero basis functions:      851 in task    14
  | Maximal number of non-zero basis functions:      814 in task    15
  | Maximal number of non-zero basis functions:      804 in task    16
  | Maximal number of non-zero basis functions:      807 in task    17
  | Maximal number of non-zero basis functions:      797 in task    18
  | Maximal number of non-zero basis functions:      806 in task    19
  | Maximal number of non-zero basis functions:      804 in task    20
  | Maximal number of non-zero basis functions:      831 in task    21
  | Maximal number of non-zero basis functions:      798 in task    22
  | Maximal number of non-zero basis functions:      789 in task    23
  | Maximal number of non-zero basis functions:      830 in task    24
  | Maximal number of non-zero basis functions:      794 in task    25
  | Maximal number of non-zero basis functions:      787 in task    26
  | Maximal number of non-zero basis functions:      796 in task    27
  | Maximal number of non-zero basis functions:      801 in task    28
  | Maximal number of non-zero basis functions:      831 in task    29
  | Maximal number of non-zero basis functions:      815 in task    30
  | Maximal number of non-zero basis functions:      858 in task    31
  | Maximal number of non-zero basis functions:      855 in task    32
  | Maximal number of non-zero basis functions:      802 in task    33
  | Maximal number of non-zero basis functions:      822 in task    34
  | Maximal number of non-zero basis functions:      768 in task    35
  | Maximal number of non-zero basis functions:      787 in task    36
  | Maximal number of non-zero basis functions:      843 in task    37
  | Maximal number of non-zero basis functions:      772 in task    38
  | Maximal number of non-zero basis functions:      871 in task    39
  | Maximal number of non-zero basis functions:      789 in task    40
  | Maximal number of non-zero basis functions:      770 in task    41
  | Maximal number of non-zero basis functions:      773 in task    42
  | Maximal number of non-zero basis functions:      804 in task    43
  | Maximal number of non-zero basis functions:      781 in task    44
  | Maximal number of non-zero basis functions:      829 in task    45
  | Maximal number of non-zero basis functions:      816 in task    46
  | Maximal number of non-zero basis functions:      820 in task    47
  | Maximal number of non-zero basis functions:      795 in task    48
  | Maximal number of non-zero basis functions:      801 in task    49
  | Maximal number of non-zero basis functions:      816 in task    50
  | Maximal number of non-zero basis functions:      801 in task    51
  | Maximal number of non-zero basis functions:      804 in task    52
  | Maximal number of non-zero basis functions:      781 in task    53
  | Maximal number of non-zero basis functions:      814 in task    54
  | Maximal number of non-zero basis functions:      765 in task    55
  | Maximal number of non-zero basis functions:      768 in task    56
  | Maximal number of non-zero basis functions:      822 in task    57
  | Maximal number of non-zero basis functions:      792 in task    58
  | Maximal number of non-zero basis functions:      829 in task    59
  | Maximal number of non-zero basis functions:      819 in task    60
  | Maximal number of non-zero basis functions:      827 in task    61
  | Maximal number of non-zero basis functions:      793 in task    62
  | Maximal number of non-zero basis functions:      791 in task    63
  | Maximal number of non-zero basis functions:      833 in task    64
  | Maximal number of non-zero basis functions:      845 in task    65
  | Maximal number of non-zero basis functions:      845 in task    66
  | Maximal number of non-zero basis functions:      792 in task    67
  | Maximal number of non-zero basis functions:      851 in task    68
  | Maximal number of non-zero basis functions:      790 in task    69
  | Maximal number of non-zero basis functions:      828 in task    70
  | Maximal number of non-zero basis functions:      772 in task    71
  | Maximal number of non-zero basis functions:      766 in task    72
  | Maximal number of non-zero basis functions:      833 in task    73
  | Maximal number of non-zero basis functions:      824 in task    74
  | Maximal number of non-zero basis functions:      847 in task    75
  | Maximal number of non-zero basis functions:      844 in task    76
  | Maximal number of non-zero basis functions:      767 in task    77
  | Maximal number of non-zero basis functions:      810 in task    78
  | Maximal number of non-zero basis functions:      788 in task    79
  | Maximal number of non-zero basis functions:      791 in task    80
  | Maximal number of non-zero basis functions:      785 in task    81
  | Maximal number of non-zero basis functions:      831 in task    82
  | Maximal number of non-zero basis functions:      780 in task    83
  | Maximal number of non-zero basis functions:      764 in task    84
  | Maximal number of non-zero basis functions:      820 in task    85
  | Maximal number of non-zero basis functions:      871 in task    86
  | Maximal number of non-zero basis functions:      799 in task    87
  | Maximal number of non-zero basis functions:      801 in task    88
  | Maximal number of non-zero basis functions:      801 in task    89
  | Maximal number of non-zero basis functions:      820 in task    90
  | Maximal number of non-zero basis functions:      782 in task    91
  | Maximal number of non-zero basis functions:      834 in task    92
  | Maximal number of non-zero basis functions:      824 in task    93
  | Maximal number of non-zero basis functions:      808 in task    94
  | Maximal number of non-zero basis functions:      797 in task    95
  | Maximal number of non-zero basis functions:      796 in task    96
  | Maximal number of non-zero basis functions:      788 in task    97
  | Maximal number of non-zero basis functions:      797 in task    98
  | Maximal number of non-zero basis functions:      796 in task    99
  | Maximal number of non-zero basis functions:      807 in task   100
  | Maximal number of non-zero basis functions:      793 in task   101
  | Maximal number of non-zero basis functions:      836 in task   102
  | Maximal number of non-zero basis functions:      794 in task   103
  | Maximal number of non-zero basis functions:      782 in task   104
  | Maximal number of non-zero basis functions:      792 in task   105
  | Maximal number of non-zero basis functions:      825 in task   106
  | Maximal number of non-zero basis functions:      765 in task   107
  | Maximal number of non-zero basis functions:      787 in task   108
  | Maximal number of non-zero basis functions:      820 in task   109
  | Maximal number of non-zero basis functions:      803 in task   110
  | Maximal number of non-zero basis functions:      778 in task   111
  | Maximal number of non-zero basis functions:      792 in task   112
  | Maximal number of non-zero basis functions:      809 in task   113
  | Maximal number of non-zero basis functions:      830 in task   114
  | Maximal number of non-zero basis functions:      807 in task   115
  | Maximal number of non-zero basis functions:      787 in task   116
  | Maximal number of non-zero basis functions:      790 in task   117
  | Maximal number of non-zero basis functions:      809 in task   118
  | Maximal number of non-zero basis functions:      790 in task   119
  | Maximal number of non-zero basis functions:      830 in task   120
  | Maximal number of non-zero basis functions:      807 in task   121
  | Maximal number of non-zero basis functions:      814 in task   122
  | Maximal number of non-zero basis functions:      791 in task   123
  | Maximal number of non-zero basis functions:      804 in task   124
  | Maximal number of non-zero basis functions:      788 in task   125
  | Maximal number of non-zero basis functions:      830 in task   126
  | Maximal number of non-zero basis functions:      809 in task   127
  | Maximal number of non-zero basis functions:      829 in task   128
  | Maximal number of non-zero basis functions:      769 in task   129
  | Maximal number of non-zero basis functions:      814 in task   130
  | Maximal number of non-zero basis functions:      794 in task   131
  | Maximal number of non-zero basis functions:      795 in task   132
  | Maximal number of non-zero basis functions:      779 in task   133
  | Maximal number of non-zero basis functions:      795 in task   134
  | Maximal number of non-zero basis functions:      783 in task   135
  | Maximal number of non-zero basis functions:      780 in task   136
  | Maximal number of non-zero basis functions:      802 in task   137
  | Maximal number of non-zero basis functions:      784 in task   138
  | Maximal number of non-zero basis functions:      845 in task   139
  | Maximal number of non-zero basis functions:      829 in task   140
  | Maximal number of non-zero basis functions:      833 in task   141
  | Maximal number of non-zero basis functions:      829 in task   142
  | Maximal number of non-zero basis functions:      830 in task   143
  | Maximal number of non-zero basis functions:      820 in task   144
  | Maximal number of non-zero basis functions:      791 in task   145
  | Maximal number of non-zero basis functions:      845 in task   146
  | Maximal number of non-zero basis functions:      811 in task   147
  | Maximal number of non-zero basis functions:      805 in task   148
  | Maximal number of non-zero basis functions:      824 in task   149
  | Maximal number of non-zero basis functions:      814 in task   150
  | Maximal number of non-zero basis functions:      778 in task   151
  | Maximal number of non-zero basis functions:      785 in task   152
  | Maximal number of non-zero basis functions:      827 in task   153
  | Maximal number of non-zero basis functions:      798 in task   154
  | Maximal number of non-zero basis functions:      797 in task   155
  | Maximal number of non-zero basis functions:      815 in task   156
  | Maximal number of non-zero basis functions:      789 in task   157
  | Maximal number of non-zero basis functions:      813 in task   158
  | Maximal number of non-zero basis functions:      782 in task   159
  | Maximal number of non-zero basis functions:      828 in task   160
  | Maximal number of non-zero basis functions:      847 in task   161
  | Maximal number of non-zero basis functions:      801 in task   162
  | Maximal number of non-zero basis functions:      790 in task   163
  | Maximal number of non-zero basis functions:      800 in task   164
  | Maximal number of non-zero basis functions:      761 in task   165
  | Maximal number of non-zero basis functions:      796 in task   166
  | Maximal number of non-zero basis functions:      783 in task   167
  | Maximal number of non-zero basis functions:      772 in task   168
  | Maximal number of non-zero basis functions:      834 in task   169
  | Maximal number of non-zero basis functions:      802 in task   170
  | Maximal number of non-zero basis functions:      784 in task   171
  | Maximal number of non-zero basis functions:      834 in task   172
  | Maximal number of non-zero basis functions:      773 in task   173
  | Maximal number of non-zero basis functions:      809 in task   174
  | Maximal number of non-zero basis functions:      797 in task   175
  | Maximal number of non-zero basis functions:      845 in task   176
  | Maximal number of non-zero basis functions:      830 in task   177
  | Maximal number of non-zero basis functions:      798 in task   178
  | Maximal number of non-zero basis functions:      792 in task   179
  | Maximal number of non-zero basis functions:      792 in task   180
  | Maximal number of non-zero basis functions:      777 in task   181
  | Maximal number of non-zero basis functions:      792 in task   182
  | Maximal number of non-zero basis functions:      794 in task   183
  | Maximal number of non-zero basis functions:      874 in task   184
  | Maximal number of non-zero basis functions:      838 in task   185
  | Maximal number of non-zero basis functions:      804 in task   186
  | Maximal number of non-zero basis functions:      800 in task   187
  | Maximal number of non-zero basis functions:      803 in task   188
  | Maximal number of non-zero basis functions:      780 in task   189
  | Maximal number of non-zero basis functions:      831 in task   190
  | Maximal number of non-zero basis functions:      792 in task   191
  | Maximal number of non-zero basis functions:      798 in task   192
  | Maximal number of non-zero basis functions:      804 in task   193
  | Maximal number of non-zero basis functions:      833 in task   194
  | Maximal number of non-zero basis functions:      791 in task   195
  | Maximal number of non-zero basis functions:      809 in task   196
  | Maximal number of non-zero basis functions:      829 in task   197
  | Maximal number of non-zero basis functions:      810 in task   198
  | Maximal number of non-zero basis functions:      836 in task   199
  | Maximal number of non-zero basis functions:      791 in task   200
  | Maximal number of non-zero basis functions:      804 in task   201
  | Maximal number of non-zero basis functions:      832 in task   202
  | Maximal number of non-zero basis functions:      809 in task   203
  | Maximal number of non-zero basis functions:      783 in task   204
  | Maximal number of non-zero basis functions:      801 in task   205
  | Maximal number of non-zero basis functions:      831 in task   206
  | Maximal number of non-zero basis functions:      820 in task   207
  | Maximal number of non-zero basis functions:      778 in task   208
  | Maximal number of non-zero basis functions:      830 in task   209
  | Maximal number of non-zero basis functions:      843 in task   210
  | Maximal number of non-zero basis functions:      828 in task   211
  | Maximal number of non-zero basis functions:      831 in task   212
  | Maximal number of non-zero basis functions:      802 in task   213
  | Maximal number of non-zero basis functions:      829 in task   214
  | Maximal number of non-zero basis functions:      839 in task   215
  | Maximal number of non-zero basis functions:      833 in task   216
  | Maximal number of non-zero basis functions:      834 in task   217
  | Maximal number of non-zero basis functions:      844 in task   218
  | Maximal number of non-zero basis functions:      782 in task   219
  | Maximal number of non-zero basis functions:      790 in task   220
  | Maximal number of non-zero basis functions:      844 in task   221
  | Maximal number of non-zero basis functions:      828 in task   222
  | Maximal number of non-zero basis functions:      805 in task   223
  | Maximal number of non-zero basis functions:      789 in task   224
  | Maximal number of non-zero basis functions:      801 in task   225
  | Maximal number of non-zero basis functions:      815 in task   226
  | Maximal number of non-zero basis functions:      795 in task   227
  | Maximal number of non-zero basis functions:      798 in task   228
  | Maximal number of non-zero basis functions:      784 in task   229
  | Maximal number of non-zero basis functions:      804 in task   230
  | Maximal number of non-zero basis functions:      828 in task   231
  | Maximal number of non-zero basis functions:      785 in task   232
  | Maximal number of non-zero basis functions:      778 in task   233
  | Maximal number of non-zero basis functions:      792 in task   234
  | Maximal number of non-zero basis functions:      798 in task   235
  | Maximal number of non-zero basis functions:      829 in task   236
  | Maximal number of non-zero basis functions:      777 in task   237
  | Maximal number of non-zero basis functions:      850 in task   238
  | Maximal number of non-zero basis functions:      782 in task   239
  | Maximal number of non-zero basis functions:      832 in task   240
  | Maximal number of non-zero basis functions:      783 in task   241
  | Maximal number of non-zero basis functions:      785 in task   242
  | Maximal number of non-zero basis functions:      794 in task   243
  | Maximal number of non-zero basis functions:      824 in task   244
  | Maximal number of non-zero basis functions:      815 in task   245
  | Maximal number of non-zero basis functions:      811 in task   246
  | Maximal number of non-zero basis functions:      793 in task   247
  | Maximal number of non-zero basis functions:      776 in task   248
  | Maximal number of non-zero basis functions:      785 in task   249
  | Maximal number of non-zero basis functions:      775 in task   250
  | Maximal number of non-zero basis functions:      804 in task   251
  | Maximal number of non-zero basis functions:      777 in task   252
  | Maximal number of non-zero basis functions:      806 in task   253
  | Maximal number of non-zero basis functions:      813 in task   254
  | Maximal number of non-zero basis functions:      806 in task   255
  Available memory per node after get_n_compute_maxes_p1 [GB]:    489.01
  Available memory per node after allocate_matrices [GB]:    489.01
  Available memory per node after init_comm_sparse_local_matrix_scalapack [GB]:    489.01
  Integrating Hamiltonian matrix: batch-based integration.
  Time summed over all CPUs for integration: real work       10.084 s, elapsed       11.907 s
  Available memory per node after integrate hamiltonian matrix [GB]:    488.24
  Integrating overlap matrix.
  Time summed over all CPUs for integration: real work        8.774 s, elapsed       10.648 s
  Available memory per node after integrate ovlp matrix [GB]:    488.04
  Not deallocating overlap matrix.
  Available memory per node after save_overlap_scalapack [GB]:    488.04
  Available memory per node after advance_KS_solution [GB]:    488.04
  Calculating total energy contributions from superposition of free atom densities.
  Initialize hartree_potential_storage
  Max. number of atoms included in rho_multipole:           16

  End scf initialization - timings             :  max(cpu_time)    wall_clock(cpu1)
  | Time for scf. initialization                :        0.538 s           0.564 s
  | Boundary condition initialization           :        0.230 s           0.250 s
  | Integration                                 :        0.231 s           0.237 s
  | Grid partitioning                           :        0.040 s           0.040 s
  | Preloading free-atom quantities on grid     :        0.063 s           0.064 s
  | Free-atom superposition energy              :        0.009 s           0.010 s

  Partial memory accounting:
  | Current value for overall tracked memory usage:
  |   Minimum:       10.680 MB (on task  31)
  |   Maximum:       10.758 MB (on task   0)
  |   Average:       10.736 MB
  | Peak value for overall tracked memory usage:
  |   Minimum:       17.078 MB (on task 165 after allocating wave)
  |   Maximum:       18.752 MB (on task 184 after allocating wave)
  |   Average:       17.727 MB
  | Largest tracked array allocation so far:
  |   Minimum:        4.418 MB (hamiltonian_shell on task 165)
  |   Maximum:        5.828 MB (hamiltonian_shell on task 184)
  |   Average:        4.968 MB
  Note:  These values currently only include a subset of arrays which are explicitly tracked.
  The "true" memory usage will be greater.
------------------------------------------------------------
  Available memory after initialize_scf [GB]:    488.03
  Available memory after allocating mixing [GB]:    488.03
  Evaluating new KS density using the density matrix
  Evaluating density matrix
  Finished reading density matrices from file
  | Time :      0.118 s

  Time summed over all CPUs for getting density from density matrix: real work       10.668 s, elapsed       12.571 s
  Integration grid: deviation in total charge (<rho> - N_e) =  -5.345747E-07

  Time for density update prior                :  max(cpu_time)    wall_clock(cpu1)
  | self-consistency iterative process          :        0.227 s           0.229 s
  Available memory before start of SCF loop [GB]:    487.92

------------------------------------------------------------
          Initial SCF-cycle to compute last known
          density from restart information.

  Date     :  20260814, Time     :  171337.171
------------------------------------------------------------
  Available memory per node after mixing [GB]:    487.92
  Renormalizing the density to the exact electron count on the 3D integration grid.
  | Formal number of electrons (from input files) :     160.0000000000
  | Integrated number of electrons on 3D grid     :     159.9999994654
  | Charge integration error                      :      -0.0000005346
  | Normalization factor for density and gradient :       1.0000000033

  Evaluating partitioned Hartree potential by multipole expansion.
  | Original multipole sum: apparent total charge =  -0.801886E-14
  | Sum of charges compensated after spline to logarithmic grids =   0.225648E-04
  | Analytical far-field extrapolation by fixed multipoles:
  | Hartree multipole sum: apparent total charge =  -0.555909E-14
  Summing up the Hartree potential.
  Time summed over all CPUs for potential: real work        0.014 s, elapsed        0.015 s
  | RMS charge density error from multipole expansion :   0.314836E-01
  | Average real-space part of the electrostatic potential :      0.58199880 eV

  Integrating Hamiltonian matrix: batch-based integration.
  Time summed over all CPUs for integration: real work        9.475 s, elapsed       11.609 s

  Updating Kohn-Sham eigenvalues and eigenvectors using ELSI and the ELPA eigensolver.
  Singularity check in k-point 1 (analysis for other k-points may follow below):
  Overlap matrix is not singular
  | Lowest and highest eigenvalues :  0.3679E-03,  0.1506E+02
  Finished singularity check of overlap matrix
  | Time :     0.020 s
  Starting ELPA eigensolver
  Finished Cholesky decomposition
  | Time :     0.003 s
  Finished transformation to standard eigenproblem
  | Time :     0.001 s
  Finished solving standard eigenproblem
  | Time :     0.013 s
  Finished back-transformation of eigenvectors
  | Time :     0.001 s

  Obtaining occupation numbers and electronic chemical potential using ELSI.
  | Note that, for insulating systems, the printed 'chemical potential' value is not uniquely defined.
  | It can be anywhere in the energy gap, as long as it correctly separates occupied and unoccupied states.
  | In systems with a gap, the physically relevant chemical potential is the VBM or HOMO.

  | Chemical potential (Fermi level):    -7.58655228 eV
  Writing Kohn-Sham eigenvalues.
  K-point:       1 at    0.000000    0.000000    0.000000 (in units of recip. lattice)

  State    Occupation    Eigenvalue [Ha]    Eigenvalue [eV]
      1       2.00000         -46.205335        -1257.31114
      2       2.00000         -46.205335        -1257.31114
      3       2.00000         -46.205335        -1257.31114
      4       2.00000         -46.205335        -1257.31114
      5       2.00000         -46.205335        -1257.31114
      6       2.00000         -46.205335        -1257.31114
      7       2.00000         -46.205335        -1257.31114
      8       2.00000         -46.205335        -1257.31114
      9       2.00000         -18.725479         -509.54622
     10       2.00000         -18.725479         -509.54622
     11       2.00000         -18.725479         -509.54622
     12       2.00000         -18.725479         -509.54622
     13       2.00000         -18.725479         -509.54622
     14       2.00000         -18.725479         -509.54622
     15       2.00000         -18.725479         -509.54622
     16       2.00000         -18.725479         -509.54622
     17       2.00000          -2.993155          -81.44788
     18       2.00000          -2.992816          -81.43867
     19       2.00000          -2.992816          -81.43867
     20       2.00000          -2.992816          -81.43867
     21       2.00000          -2.992816          -81.43867
     22       2.00000          -2.992706          -81.43567
     23       2.00000          -2.992706          -81.43567
     24       2.00000          -2.992706          -81.43567
     25       2.00000          -1.797750          -48.91928
     26       2.00000          -1.797750          -48.91928
     27       2.00000          -1.797750          -48.91928
     28       2.00000          -1.797750          -48.91928
     29       2.00000          -1.797269          -48.90619
     30       2.00000          -1.797269          -48.90619
     31       2.00000          -1.797269          -48.90619
     32       2.00000          -1.795604          -48.86088
     33       2.00000          -1.795604          -48.86088
     34       2.00000          -1.795604          -48.86088
     35       2.00000          -1.795604          -48.86088
     36       2.00000          -1.795604          -48.86088
     37       2.00000          -1.795604          -48.86088
     38       2.00000          -1.794857          -48.84054
     39       2.00000          -1.794857          -48.84054
     40       2.00000          -1.794857          -48.84054
     41       2.00000          -1.794857          -48.84054
     42       2.00000          -1.794857          -48.84054
     43       2.00000          -1.794857          -48.84054
     44       2.00000          -1.794857          -48.84054
     45       2.00000          -1.794857          -48.84054
     46       2.00000          -1.794520          -48.83138
     47       2.00000          -1.794520          -48.83138
     48       2.00000          -1.794520          -48.83138
     49       2.00000          -0.987094          -26.86020
     50       2.00000          -0.936382          -25.48025
     51       2.00000          -0.936382          -25.48025
     52       2.00000          -0.936382          -25.48025
     53       2.00000          -0.936382          -25.48025
     54       2.00000          -0.928022          -25.25276
     55       2.00000          -0.928022          -25.25276
     56       2.00000          -0.928022          -25.25276
     57       2.00000          -0.535154          -14.56229
     58       2.00000          -0.535154          -14.56229
     59       2.00000          -0.535154          -14.56229
     60       2.00000          -0.535154          -14.56229
     61       2.00000          -0.514373          -13.99681
     62       2.00000          -0.514373          -13.99680
     63       2.00000          -0.514373          -13.99680
     64       2.00000          -0.412809          -11.23311
     65       2.00000          -0.412809          -11.23311
     66       2.00000          -0.412809          -11.23310
     67       2.00000          -0.412809          -11.23310
     68       2.00000          -0.412809          -11.23310
     69       2.00000          -0.412809          -11.23310
     70       2.00000          -0.387501          -10.54443
     71       2.00000          -0.387501          -10.54443
     72       2.00000          -0.387501          -10.54443
     73       2.00000          -0.387501          -10.54443
     74       2.00000          -0.387501          -10.54443
     75       2.00000          -0.387501          -10.54443
     76       2.00000          -0.387501          -10.54443
     77       2.00000          -0.387501          -10.54443
     78       2.00000          -0.362341           -9.85981
     79       2.00000          -0.362341           -9.85981
     80       2.00000          -0.362341           -9.85981
     81       0.00000          -0.195260           -5.31330
     82       0.00000          -0.070122           -1.90813
     83       0.00000          -0.070122           -1.90813
     84       0.00000          -0.070122           -1.90813
     85       0.00000          -0.070122           -1.90813
     86       0.00000          -0.036371           -0.98970
     87       0.00000          -0.036371           -0.98970
     88       0.00000          -0.036371           -0.98970
     89       0.00000          -0.008613           -0.23437
     90       0.00000          -0.008613           -0.23437
     91       0.00000          -0.008613           -0.23437
     92       0.00000           0.090924            2.47417
     93       0.00000           0.090924            2.47417
     94       0.00000           0.090924            2.47417
     95       0.00000           0.090924            2.47417
     96       0.00000           0.121671            3.31084
     97       0.00000           0.121671            3.31085
     98       0.00000           0.121671            3.31085
     99       0.00000           0.216261            5.88476
    100       0.00000           0.216261            5.88476
    101       0.00000           0.216261            5.88476
    102       0.00000           0.275122            7.48644
    103       0.00000           0.275122            7.48644
    104       0.00000           0.275122            7.48644
    105       0.00000           0.275122            7.48644
    106       0.00000           0.275122            7.48645
    107       0.00000           0.275122            7.48645
    108       0.00000           0.275122            7.48645
    109       0.00000           0.275122            7.48645
    110       0.00000           0.350210            9.52969
    111       0.00000           0.350210            9.52969
    112       0.00000           0.350210            9.52970
    113       0.00000           0.350210            9.52970
    114       0.00000           0.350210            9.52970
    115       0.00000           0.350210            9.52970
    116       0.00000           0.414836           11.28827
    117       0.00000           0.414836           11.28827
    118       0.00000           0.414836           11.28827
    119       0.00000           0.414836           11.28827
    120       0.00000           0.419625           11.41858
    121       0.00000           0.419626           11.41859
    122       0.00000           0.463670           12.61710
    123       0.00000           0.463670           12.61710
    124       0.00000           0.463670           12.61710
    125       0.00000           0.463670           12.61710
    126       0.00000           0.463670           12.61710
    127       0.00000           0.463670           12.61711
    128       0.00000           0.463670           12.61711

  What follows are estimated values for band gap, HOMO, LUMO, etc.
  | They are estimated on a discrete k-point grid and not necessarily exact.
  | For converged numbers, create a DOS and/or band structure plot on a denser k-grid.

  Highest occupied state (VBM) at     -9.85980688 eV (relative to internal zero)
  | Occupation number:      2.00000000
  | K-point:       1 at    0.000000    0.000000    0.000000 (in units of recip. lattice)

  Lowest unoccupied state (CBM) at    -5.31329768 eV (relative to internal zero)
  | Occupation number:      0.00000000
  | K-point:       1 at    0.000000    0.000000    0.000000 (in units of recip. lattice)

  The gap value is above 0.2 eV. Unless you are using a very sparse k-point grid,
  this system is most likely an insulator or a semiconductor.
  ESTIMATED overall HOMO-LUMO gap:      4.54650919 eV between HOMO at k-point 1 and LUMO at k-point 1
  | This appears to be a direct band gap.

  Total energy components:
  | Sum of eigenvalues            :       -1208.95526734 Ha      -32897.34662282 eV
  | XC energy correction          :        -190.53484587 Ha       -5184.71695158 eV
  | XC potential correction       :         251.41728463 Ha        6841.41240207 eV
  | Free-atom electrostatic energy:       -1045.50788543 Ha      -28449.71706825 eV
  | Hartree energy correction     :          -3.70605869 Ha        -100.84698797 eV
  | Entropy correction            :           0.00000000 Ha           0.00000000 eV
  | ---------------------------
  | Total energy                  :       -2197.28677269 Ha      -59791.21522854 eV
  | Total energy, T -> 0          :       -2197.28677269 Ha      -59791.21522854 eV  <-- do not rely on this value for anything but (periodic) metals
  | Electronic free energy        :       -2197.28677269 Ha      -59791.21522854 eV

  Derived energy quantities:
  | Kinetic energy                :        2194.61507491 Ha       59718.51463277 eV
  | Electrostatic energy          :       -4201.36700173 Ha     -114325.01290973 eV
  | Energy correction for multipole
  | error in Hartree potential    :           0.02718942 Ha           0.73986175 eV
  | Sum of eigenvalues per atom                           :       -2056.08416393 eV
  | Total energy (T->0) per atom                          :       -3736.95095178 eV  <-- do not rely on this value for anything but (periodic) metals
  | Electronic free energy per atom                       :       -3736.95095178 eV
  Evaluating new KS density using the density matrix
  Evaluating density matrix
  Computing the DM
  Selected method: RANK_UPDATE (ELPA capabilities not available)
  Using rank-k update with pzherk
  Finished density matrix calculation
  | Time :     0.001 s
  Time summed over all CPUs for getting density from density matrix: real work       10.530 s, elapsed       12.731 s
  Integration grid: deviation in total charge (<rho> - N_e) =   5.684342E-14

  Self-consistency convergence accuracy:
  | Change of charge density      :  0.3354E+00
  | Change of unmixed KS density  :  0.5612E+02
  | Change of sum of eigenvalues  : -0.3290E+05 eV
  | Change of total energy        : -0.5979E+05 eV


------------------------------------------------------------
  End self-consistency iteration #     0       :  max(cpu_time)    wall_clock(cpu1)
  | Time for this iteration                     :        0.289 s           0.291 s
  | Charge density update                       :        0.110 s           0.111 s
  | Density mixing                              :        0.000 s           0.000 s
  | Hartree multipole update                    :        0.004 s           0.005 s
  | Hartree multipole summation                 :        0.018 s           0.018 s
  | Integration                                 :        0.113 s           0.114 s
  | Solution of K.-S. eqns.                     :        0.042 s           0.042 s
  | Total energy evaluation                     :        0.001 s           0.001 s

  Partial memory accounting:
  | Current value for overall tracked memory usage:
  |   Minimum:       10.729 MB (on task 127)
  |   Maximum:       10.823 MB (on task  76)
  |   Average:       10.790 MB
  | Peak value for overall tracked memory usage:
  |   Minimum:       17.161 MB (on task 165 after allocating wave)
  |   Maximum:       18.832 MB (on task 184 after allocating wave)
  |   Average:       17.807 MB
  | Largest tracked array allocation so far:
  |   Minimum:        4.418 MB (hamiltonian_shell on task 165)
  |   Maximum:        5.828 MB (hamiltonian_shell on task 184)
  |   Average:        4.968 MB
  Note:  These values currently only include a subset of arrays which are explicitly tracked.
  The "true" memory usage will be greater.
------------------------------------------------------------

------------------------------------------------------------
          Begin self-consistency iteration #    1

  Date     :  20260814, Time     :  171337.464
------------------------------------------------------------
  Pulay mixing of updated and previous charge densities.
  Available memory per node after mixing [GB]:    487.83
  Renormalizing the density to the exact electron count on the 3D integration grid.
  | Formal number of electrons (from input files) :     160.0000000000
  | Integrated number of electrons on 3D grid     :     160.0000000000
  | Charge integration error                      :       0.0000000000
  | Normalization factor for density and gradient :       1.0000000000

  Evaluating partitioned Hartree potential by multipole expansion.
  | Original multipole sum: apparent total charge =  -0.993749E-14
  | Sum of charges compensated after spline to logarithmic grids =   0.225648E-04
  | Analytical far-field extrapolation by fixed multipoles:
  | Hartree multipole sum: apparent total charge =  -0.245977E-14
  Summing up the Hartree potential.
  Time summed over all CPUs for potential: real work        0.013 s, elapsed        0.014 s
  | RMS charge density error from multipole expansion :   0.314836E-01
  | Average real-space part of the electrostatic potential :      0.58199882 eV

  Integrating Hamiltonian matrix: batch-based integration.
  Time summed over all CPUs for integration: real work        9.469 s, elapsed       11.881 s

  Updating Kohn-Sham eigenvalues and eigenvectors using ELSI and the ELPA eigensolver.
  Starting ELPA eigensolver
  Finished transformation to standard eigenproblem
  | Time :     0.001 s
  Finished solving standard eigenproblem
  | Time :     0.012 s
  Finished back-transformation of eigenvectors
  | Time :     0.001 s

  Obtaining occupation numbers and electronic chemical potential using ELSI.
  | Note that, for insulating systems, the printed 'chemical potential' value is not uniquely defined.
  | It can be anywhere in the energy gap, as long as it correctly separates occupied and unoccupied states.
  | In systems with a gap, the physically relevant chemical potential is the VBM or HOMO.

  | Chemical potential (Fermi level):    -7.58655220 eV
  Writing Kohn-Sham eigenvalues.
  K-point:       1 at    0.000000    0.000000    0.000000 (in units of recip. lattice)

  State    Occupation    Eigenvalue [Ha]    Eigenvalue [eV]
      1       2.00000         -46.205335        -1257.31114
      2       2.00000         -46.205335        -1257.31114
      3       2.00000         -46.205335        -1257.31114
      4       2.00000         -46.205335        -1257.31114
      5       2.00000         -46.205335        -1257.31114
      6       2.00000         -46.205335        -1257.31114
      7       2.00000         -46.205335        -1257.31114
      8       2.00000         -46.205335        -1257.31114
      9       2.00000         -18.725479         -509.54622
     10       2.00000         -18.725479         -509.54622
     11       2.00000         -18.725479         -509.54622
     12       2.00000         -18.725479         -509.54622
     13       2.00000         -18.725479         -509.54622
     14       2.00000         -18.725479         -509.54622
     15       2.00000         -18.725479         -509.54622
     16       2.00000         -18.725479         -509.54622
     17       2.00000          -2.993155          -81.44788
     18       2.00000          -2.992816          -81.43867
     19       2.00000          -2.992816          -81.43867
     20       2.00000          -2.992816          -81.43867
     21       2.00000          -2.992816          -81.43867
     22       2.00000          -2.992706          -81.43567
     23       2.00000          -2.992706          -81.43567
     24       2.00000          -2.992706          -81.43567
     25       2.00000          -1.797750          -48.91928
     26       2.00000          -1.797750          -48.91928
     27       2.00000          -1.797750          -48.91928
     28       2.00000          -1.797750          -48.91928
     29       2.00000          -1.797269          -48.90619
     30       2.00000          -1.797269          -48.90619
     31       2.00000          -1.797269          -48.90619
     32       2.00000          -1.795604          -48.86088
     33       2.00000          -1.795604          -48.86088
     34       2.00000          -1.795604          -48.86088
     35       2.00000          -1.795604          -48.86088
     36       2.00000          -1.795604          -48.86088
     37       2.00000          -1.795604          -48.86088
     38       2.00000          -1.794857          -48.84054
     39       2.00000          -1.794857          -48.84054
     40       2.00000          -1.794857          -48.84054
     41       2.00000          -1.794857          -48.84054
     42       2.00000          -1.794857          -48.84054
     43       2.00000          -1.794857          -48.84054
     44       2.00000          -1.794857          -48.84054
     45       2.00000          -1.794857          -48.84054
     46       2.00000          -1.794520          -48.83138
     47       2.00000          -1.794520          -48.83138
     48       2.00000          -1.794520          -48.83138
     49       2.00000          -0.987094          -26.86020
     50       2.00000          -0.936382          -25.48025
     51       2.00000          -0.936382          -25.48025
     52       2.00000          -0.936382          -25.48025
     53       2.00000          -0.936382          -25.48025
     54       2.00000          -0.928022          -25.25276
     55       2.00000          -0.928022          -25.25276
     56       2.00000          -0.928022          -25.25276
     57       2.00000          -0.535154          -14.56229
     58       2.00000          -0.535154          -14.56229
     59       2.00000          -0.535154          -14.56229
     60       2.00000          -0.535154          -14.56229
     61       2.00000          -0.514373          -13.99681
     62       2.00000          -0.514373          -13.99680
     63       2.00000          -0.514373          -13.99680
     64       2.00000          -0.412809          -11.23311
     65       2.00000          -0.412809          -11.23311
     66       2.00000          -0.412809          -11.23310
     67       2.00000          -0.412809          -11.23310
     68       2.00000          -0.412809          -11.23310
     69       2.00000          -0.412809          -11.23310
     70       2.00000          -0.387501          -10.54443
     71       2.00000          -0.387501          -10.54443
     72       2.00000          -0.387501          -10.54443
     73       2.00000          -0.387501          -10.54443
     74       2.00000          -0.387501          -10.54443
     75       2.00000          -0.387501          -10.54443
     76       2.00000          -0.387501          -10.54443
     77       2.00000          -0.387501          -10.54443
     78       2.00000          -0.362341           -9.85981
     79       2.00000          -0.362341           -9.85981
     80       2.00000          -0.362341           -9.85981
     81       0.00000          -0.195260           -5.31330
     82       0.00000          -0.070122           -1.90813
     83       0.00000          -0.070122           -1.90813
     84       0.00000          -0.070122           -1.90813
     85       0.00000          -0.070122           -1.90813
     86       0.00000          -0.036371           -0.98970
     87       0.00000          -0.036371           -0.98970
     88       0.00000          -0.036371           -0.98970
     89       0.00000          -0.008613           -0.23437
     90       0.00000          -0.008613           -0.23437
     91       0.00000          -0.008613           -0.23437
     92       0.00000           0.090924            2.47417
     93       0.00000           0.090924            2.47417
     94       0.00000           0.090924            2.47417
     95       0.00000           0.090924            2.47417
     96       0.00000           0.121671            3.31084
     97       0.00000           0.121671            3.31085
     98       0.00000           0.121671            3.31085
     99       0.00000           0.216261            5.88476
    100       0.00000           0.216261            5.88476
    101       0.00000           0.216261            5.88476
    102       0.00000           0.275122            7.48644
    103       0.00000           0.275122            7.48644
    104       0.00000           0.275122            7.48644
    105       0.00000           0.275122            7.48644
    106       0.00000           0.275122            7.48645
    107       0.00000           0.275122            7.48645
    108       0.00000           0.275122            7.48645
    109       0.00000           0.275122            7.48645
    110       0.00000           0.350210            9.52969
    111       0.00000           0.350210            9.52969
    112       0.00000           0.350210            9.52970
    113       0.00000           0.350210            9.52970
    114       0.00000           0.350210            9.52970
    115       0.00000           0.350210            9.52970
    116       0.00000           0.414836           11.28827
    117       0.00000           0.414836           11.28827
    118       0.00000           0.414836           11.28827
    119       0.00000           0.414836           11.28827
    120       0.00000           0.419625           11.41858
    121       0.00000           0.419626           11.41859
    122       0.00000           0.463670           12.61710
    123       0.00000           0.463670           12.61710
    124       0.00000           0.463670           12.61710
    125       0.00000           0.463670           12.61710
    126       0.00000           0.463670           12.61710
    127       0.00000           0.463670           12.61711
    128       0.00000           0.463670           12.61711

  What follows are estimated values for band gap, HOMO, LUMO, etc.
  | They are estimated on a discrete k-point grid and not necessarily exact.
  | For converged numbers, create a DOS and/or band structure plot on a denser k-grid.

  Highest occupied state (VBM) at     -9.85980675 eV (relative to internal zero)
  | Occupation number:      2.00000000
  | K-point:       1 at    0.000000    0.000000    0.000000 (in units of recip. lattice)

  Lowest unoccupied state (CBM) at    -5.31329764 eV (relative to internal zero)
  | Occupation number:      0.00000000
  | K-point:       1 at    0.000000    0.000000    0.000000 (in units of recip. lattice)

  The gap value is above 0.2 eV. Unless you are using a very sparse k-point grid,
  this system is most likely an insulator or a semiconductor.
  ESTIMATED overall HOMO-LUMO gap:      4.54650910 eV between HOMO at k-point 1 and LUMO at k-point 1
  | This appears to be a direct band gap.

  Total energy components:
  | Sum of eigenvalues            :       -1208.95526719 Ha      -32897.34661888 eV
  | XC energy correction          :        -190.53484592 Ha       -5184.71695295 eV
  | XC potential correction       :         251.41728470 Ha        6841.41240388 eV
  | Free-atom electrostatic energy:       -1045.50788543 Ha      -28449.71706825 eV
  | Hartree energy correction     :          -3.70605885 Ha        -100.84699236 eV
  | Entropy correction            :           0.00000000 Ha           0.00000000 eV
  | ---------------------------
  | Total energy                  :       -2197.28677269 Ha      -59791.21522855 eV
  | Total energy, T -> 0          :       -2197.28677269 Ha      -59791.21522855 eV  <-- do not rely on this value for anything but (periodic) metals
  | Electronic free energy        :       -2197.28677269 Ha      -59791.21522855 eV

  Derived energy quantities:
  | Kinetic energy                :        2194.61507548 Ha       59718.51464826 eV
  | Electrostatic energy          :       -4201.36700225 Ha     -114325.01292386 eV
  | Energy correction for multipole
  | error in Hartree potential    :           0.02718942 Ha           0.73986176 eV
  | Sum of eigenvalues per atom                           :       -2056.08416368 eV
  | Total energy (T->0) per atom                          :       -3736.95095178 eV  <-- do not rely on this value for anything but (periodic) metals
  | Electronic free energy per atom                       :       -3736.95095178 eV

  Self-consistency convergence accuracy:
  | Change of charge density      :  0.6543E-06
  | Change of unmixed KS density  :  0.7096E-06
  | Change of sum of eigenvalues  :  0.3941E-05 eV
  | Change of total energy        : -0.4059E-08 eV

  Writing Kohn-Sham eigenvalues.
  K-point:       1 at    0.000000    0.000000    0.000000 (in units of recip. lattice)

  State    Occupation    Eigenvalue [Ha]    Eigenvalue [eV]
      1       2.00000         -46.205335        -1257.31114
      2       2.00000         -46.205335        -1257.31114
      3       2.00000         -46.205335        -1257.31114
      4       2.00000         -46.205335        -1257.31114
      5       2.00000         -46.205335        -1257.31114
      6       2.00000         -46.205335        -1257.31114
      7       2.00000         -46.205335        -1257.31114
      8       2.00000         -46.205335        -1257.31114
      9       2.00000         -18.725479         -509.54622
     10       2.00000         -18.725479         -509.54622
     11       2.00000         -18.725479         -509.54622
     12       2.00000         -18.725479         -509.54622
     13       2.00000         -18.725479         -509.54622
     14       2.00000         -18.725479         -509.54622
     15       2.00000         -18.725479         -509.54622
     16       2.00000         -18.725479         -509.54622
     17       2.00000          -2.993155          -81.44788
     18       2.00000          -2.992816          -81.43867
     19       2.00000          -2.992816          -81.43867
     20       2.00000          -2.992816          -81.43867
     21       2.00000          -2.992816          -81.43867
     22       2.00000          -2.992706          -81.43567
     23       2.00000          -2.992706          -81.43567
     24       2.00000          -2.992706          -81.43567
     25       2.00000          -1.797750          -48.91928
     26       2.00000          -1.797750          -48.91928
     27       2.00000          -1.797750          -48.91928
     28       2.00000          -1.797750          -48.91928
     29       2.00000          -1.797269          -48.90619
     30       2.00000          -1.797269          -48.90619
     31       2.00000          -1.797269          -48.90619
     32       2.00000          -1.795604          -48.86088
     33       2.00000          -1.795604          -48.86088
     34       2.00000          -1.795604          -48.86088
     35       2.00000          -1.795604          -48.86088
     36       2.00000          -1.795604          -48.86088
     37       2.00000          -1.795604          -48.86088
     38       2.00000          -1.794857          -48.84054
     39       2.00000          -1.794857          -48.84054
     40       2.00000          -1.794857          -48.84054
     41       2.00000          -1.794857          -48.84054
     42       2.00000          -1.794857          -48.84054
     43       2.00000          -1.794857          -48.84054
     44       2.00000          -1.794857          -48.84054
     45       2.00000          -1.794857          -48.84054
     46       2.00000          -1.794520          -48.83138
     47       2.00000          -1.794520          -48.83138
     48       2.00000          -1.794520          -48.83138
     49       2.00000          -0.987094          -26.86020
     50       2.00000          -0.936382          -25.48025
     51       2.00000          -0.936382          -25.48025
     52       2.00000          -0.936382          -25.48025
     53       2.00000          -0.936382          -25.48025
     54       2.00000          -0.928022          -25.25276
     55       2.00000          -0.928022          -25.25276
     56       2.00000          -0.928022          -25.25276
     57       2.00000          -0.535154          -14.56229
     58       2.00000          -0.535154          -14.56229
     59       2.00000          -0.535154          -14.56229
     60       2.00000          -0.535154          -14.56229
     61       2.00000          -0.514373          -13.99681
     62       2.00000          -0.514373          -13.99680
     63       2.00000          -0.514373          -13.99680
     64       2.00000          -0.412809          -11.23311
     65       2.00000          -0.412809          -11.23311
     66       2.00000          -0.412809          -11.23310
     67       2.00000          -0.412809          -11.23310
     68       2.00000          -0.412809          -11.23310
     69       2.00000          -0.412809          -11.23310
     70       2.00000          -0.387501          -10.54443
     71       2.00000          -0.387501          -10.54443
     72       2.00000          -0.387501          -10.54443
     73       2.00000          -0.387501          -10.54443
     74       2.00000          -0.387501          -10.54443
     75       2.00000          -0.387501          -10.54443
     76       2.00000          -0.387501          -10.54443
     77       2.00000          -0.387501          -10.54443
     78       2.00000          -0.362341           -9.85981
     79       2.00000          -0.362341           -9.85981
     80       2.00000          -0.362341           -9.85981
     81       0.00000          -0.195260           -5.31330
     82       0.00000          -0.070122           -1.90813
     83       0.00000          -0.070122           -1.90813
     84       0.00000          -0.070122           -1.90813
     85       0.00000          -0.070122           -1.90813
     86       0.00000          -0.036371           -0.98970
     87       0.00000          -0.036371           -0.98970
     88       0.00000          -0.036371           -0.98970
     89       0.00000          -0.008613           -0.23437
     90       0.00000          -0.008613           -0.23437
     91       0.00000          -0.008613           -0.23437
     92       0.00000           0.090924            2.47417
     93       0.00000           0.090924            2.47417
     94       0.00000           0.090924            2.47417
     95       0.00000           0.090924            2.47417
     96       0.00000           0.121671            3.31084
     97       0.00000           0.121671            3.31085
     98       0.00000           0.121671            3.31085
     99       0.00000           0.216261            5.88476
    100       0.00000           0.216261            5.88476
    101       0.00000           0.216261            5.88476
    102       0.00000           0.275122            7.48644
    103       0.00000           0.275122            7.48644
    104       0.00000           0.275122            7.48644
    105       0.00000           0.275122            7.48644
    106       0.00000           0.275122            7.48645
    107       0.00000           0.275122            7.48645
    108       0.00000           0.275122            7.48645
    109       0.00000           0.275122            7.48645
    110       0.00000           0.350210            9.52969
    111       0.00000           0.350210            9.52969
    112       0.00000           0.350210            9.52970
    113       0.00000           0.350210            9.52970
    114       0.00000           0.350210            9.52970
    115       0.00000           0.350210            9.52970
    116       0.00000           0.414836           11.28827
    117       0.00000           0.414836           11.28827
    118       0.00000           0.414836           11.28827
    119       0.00000           0.414836           11.28827
    120       0.00000           0.419625           11.41858
    121       0.00000           0.419626           11.41859
    122       0.00000           0.463670           12.61710
    123       0.00000           0.463670           12.61710
    124       0.00000           0.463670           12.61710
    125       0.00000           0.463670           12.61710
    126       0.00000           0.463670           12.61710
    127       0.00000           0.463670           12.61711
    128       0.00000           0.463670           12.61711

  What follows are estimated values for band gap, HOMO, LUMO, etc.
  | They are estimated on a discrete k-point grid and not necessarily exact.
  | For converged numbers, create a DOS and/or band structure plot on a denser k-grid.

  Highest occupied state (VBM) at     -9.85980675 eV (relative to internal zero)
  | Occupation number:      2.00000000
  | K-point:       1 at    0.000000    0.000000    0.000000 (in units of recip. lattice)

  Lowest unoccupied state (CBM) at    -5.31329764 eV (relative to internal zero)
  | Occupation number:      0.00000000
  | K-point:       1 at    0.000000    0.000000    0.000000 (in units of recip. lattice)

  The gap value is above 0.2 eV. Unless you are using a very sparse k-point grid,
  this system is most likely an insulator or a semiconductor.
  ESTIMATED overall HOMO-LUMO gap:      4.54650910 eV between HOMO at k-point 1 and LUMO at k-point 1
  | This appears to be a direct band gap.

  | Chemical Potential                          :    -7.58655220 eV
  | Note that, for insulating systems, the printed 'chemical potential' value is not uniquely defined.
  | It can be anywhere in the energy gap, as long as it correctly separates occupied and unoccupied states.
  | In systems with a gap, the physically relevant chemical potential is the VBM or HOMO.

  Self-consistency cycle converged.


------------------------------------------------------------
  End self-consistency iteration #     1       :  max(cpu_time)    wall_clock(cpu1)
  | Time for this iteration                     :        0.147 s           0.148 s
  | Charge density update                       :        0.000 s           0.000 s
  | Density mixing                              :        0.001 s           0.000 s
  | Hartree multipole update                    :        0.004 s           0.004 s
  | Hartree multipole summation                 :        0.016 s           0.016 s
  | Integration                                 :        0.110 s           0.111 s
  | Solution of K.-S. eqns.                     :        0.015 s           0.016 s
  | Total energy evaluation                     :        0.000 s           0.000 s

  Partial memory accounting:
  | Current value for overall tracked memory usage:
  |   Minimum:       10.729 MB (on task 127)
  |   Maximum:       10.823 MB (on task  76)
  |   Average:       10.790 MB
  | Peak value for overall tracked memory usage:
  |   Minimum:       17.161 MB (on task 165 after allocating wave)
  |   Maximum:       18.832 MB (on task 184 after allocating wave)
  |   Average:       17.807 MB
  | Largest tracked array allocation so far:
  |   Minimum:        4.418 MB (hamiltonian_shell on task 165)
  |   Maximum:        5.828 MB (hamiltonian_shell on task 184)
  |   Average:        4.968 MB
  Note:  These values currently only include a subset of arrays which are explicitly tracked.
  The "true" memory usage will be greater.
------------------------------------------------------------

  Energy and forces in a compact form:
  | Total energy uncorrected      :         -0.597912152285485E+05 eV
  | Total energy corrected        :         -0.597912152285485E+05 eV  <-- do not rely on this value for anything but (periodic) metals
  | Electronic free energy        :         -0.597912152285485E+05 eV

  ------------------------------------ 
  Start decomposition of the XC Energy 
  ------------------------------------ 
  X and C from original XC functional choice 
  Hartree-Fock Energy :          0.000000000 Ha              0.000000000 eV
  X Energy            :       -178.702148269 Ha          -4862.732867510 eV
  C Energy            :        -11.832697650 Ha           -321.984085440 eV
  XC Energy w/o HF    :       -190.534845919 Ha          -5184.716952950 eV
  Total XC Energy     :       -190.534845919 Ha          -5184.716952950 eV
  ------------------------------------ 
  LDA X and C from self-consistent density 
  X Energy LDA        :       -178.702148269 Ha          -4862.732867510 eV
  C Energy LDA        :        -11.832697650 Ha           -321.984085440 eV
  ------------------------------------ 
  End decomposition of the XC Energy 
  ------------------------------------ 

------------------------------------------------------------

  Starting with the calculation of the polarization (ScaLAPACK version):
   |-> Using ScaLAPACK for polarization directive   1 of   1 directives

  Number of k-points for which the Wannier centers of charge are calculated for:     4
  Number of k-points used at each of this k-points to obtain the Wannier center of charge:     2
  Wannier center evolution is sampled along the reciprocal lattice vector  3 in     4 steps.
  - The Wannier center evoulution is computed along the following      4 strings in k_space:
    Band     1 from k_start = -0.500 -0.500  0.500 to k_end = -0.500 -0.500 -0.500
    Band     2 from k_start = -0.500  0.500  0.500 to k_end = -0.500  0.500 -0.500
    Band     3 from k_start =  0.500 -0.500  0.500 to k_end =  0.500 -0.500 -0.500
    Band     4 from k_start =  0.500  0.500  0.500 to k_end =  0.500  0.500 -0.500


  -------------------------------------------------------------------
  Computing Wannier centers of charge         (ScaLAPACK version):
  -------------------------------------------------------------------


  Integrating Hamiltonian matrix: batch-based integration.
  Time summed over all CPUs for integration: real work        9.634 s, elapsed       11.486 s
  Initializing polarization subroutine with:
  - n. of k-points: 2
  - n. of physical bands: 4
  - n. of computational bands: 8
  Calculating dipole matrix along reciprocal lattice vector 3:     0.394     0.394    -0.394
  Using atomic phases =   T
  Integrating dipole matrix.
  Time summed over all CPUs for integration: real work       14.546 s, elapsed       16.886 s
  Calculating k-points    1 to    8
  Overlap matrix is not singular
  | Lowest and highest eigenvalues :  0.5299E-03,  0.1148E+02
  Finished singularity check of overlap matrix
  | Time :     0.011 s
  Starting ELPA eigensolver
  Finished Cholesky decomposition
  | Time :     0.001 s
  Finished transformation to standard eigenproblem
  | Time :     0.001 s
  Finished solving standard eigenproblem
  | Time :     0.012 s
  Finished back-transformation of eigenvectors
  | Time :     0.001 s
   Detailed listing of bands and assigned k-points in polarization calculation:
   Task      0 band        1 (effectively band     1) with k-point 1/2 ( -0.500 -0.500  0.500) -->  useful
   Task      1 band        1 (effectively band     1) with k-point 1/2 ( -0.500 -0.500  0.500) -->  useful
   Task      2 band        1 (effectively band     1) with k-point 1/2 ( -0.500 -0.500  0.500) -->  useful
   Task      3 band        1 (effectively band     1) with k-point 1/2 ( -0.500 -0.500  0.500) -->  useful
   Task      4 band        1 (effectively band     1) with k-point 1/2 ( -0.500 -0.500  0.500) -->  useful
   Task      5 band        1 (effectively band     1) with k-point 1/2 ( -0.500 -0.500  0.500) -->  useful
   Task      6 band        1 (effectively band     1) with k-point 1/2 ( -0.500 -0.500  0.500) -->  useful
   Task      7 band        1 (effectively band     1) with k-point 1/2 ( -0.500 -0.500  0.500) -->  useful
   Task      8 band        1 (effectively band     1) with k-point 1/2 ( -0.500 -0.500  0.500) -->  useful
   Task      9 band        1 (effectively band     1) with k-point 1/2 ( -0.500 -0.500  0.500) -->  useful
   Task     10 band        1 (effectively band     1) with k-point 1/2 ( -0.500 -0.500  0.500) -->  useful
   Task     11 band        1 (effectively band     1) with k-point 1/2 ( -0.500 -0.500  0.500) -->  useful
   Task     12 band        1 (effectively band     1) with k-point 1/2 ( -0.500 -0.500  0.500) -->  useful
   Task     13 band        1 (effectively band     1) with k-point 1/2 ( -0.500 -0.500  0.500) -->  useful
   Task     14 band        1 (effectively band     1) with k-point 1/2 ( -0.500 -0.500  0.500) -->  useful
   Task     15 band        1 (effectively band     1) with k-point 1/2 ( -0.500 -0.500  0.500) -->  useful
   Task     16 band        1 (effectively band     1) with k-point 1/2 ( -0.500 -0.500  0.500) -->  useful
   Task     17 band        1 (effectively band     1) with k-point 1/2 ( -0.500 -0.500  0.500) -->  useful
   Task     18 band        1 (effectively band     1) with k-point 1/2 ( -0.500 -0.500  0.500) -->  useful
   Task     19 band        1 (effectively band     1) with k-point 1/2 ( -0.500 -0.500  0.500) -->  useful
   Task     20 band        1 (effectively band     1) with k-point 1/2 ( -0.500 -0.500  0.500) -->  useful
   Task     21 band        1 (effectively band     1) with k-point 1/2 ( -0.500 -0.500  0.500) -->  useful
   Task     22 band        1 (effectively band     1) with k-point 1/2 ( -0.500 -0.500  0.500) -->  useful
   Task     23 band        1 (effectively band     1) with k-point 1/2 ( -0.500 -0.500  0.500) -->  useful
   Task     24 band        1 (effectively band     1) with k-point 1/2 ( -0.500 -0.500  0.500) -->  useful
   Task     25 band        1 (effectively band     1) with k-point 1/2 ( -0.500 -0.500  0.500) -->  useful
   Task     26 band        1 (effectively band     1) with k-point 1/2 ( -0.500 -0.500  0.500) -->  useful
   Task     27 band        1 (effectively band     1) with k-point 1/2 ( -0.500 -0.500  0.500) -->  useful
   Task     28 band        1 (effectively band     1) with k-point 1/2 ( -0.500 -0.500  0.500) -->  useful
   Task     29 band        1 (effectively band     1) with k-point 1/2 ( -0.500 -0.500  0.500) -->  useful
   Task     30 band        1 (effectively band     1) with k-point 1/2 ( -0.500 -0.500  0.500) -->  useful
   Task     31 band        1 (effectively band     1) with k-point 1/2 ( -0.500 -0.500  0.500) -->  useful
   Task     32 band        2 (effectively band     2) with k-point 1/2 ( -0.500  0.500  0.500) -->  useful
   Task     33 band        2 (effectively band     2) with k-point 1/2 ( -0.500  0.500  0.500) -->  useful
   Task     34 band        2 (effectively band     2) with k-point 1/2 ( -0.500  0.500  0.500) -->  useful
   Task     35 band        2 (effectively band     2) with k-point 1/2 ( -0.500  0.500  0.500) -->  useful
   Task     36 band        2 (effectively band     2) with k-point 1/2 ( -0.500  0.500  0.500) -->  useful
   Task     37 band        2 (effectively band     2) with k-point 1/2 ( -0.500  0.500  0.500) -->  useful
   Task     38 band        2 (effectively band     2) with k-point 1/2 ( -0.500  0.500  0.500) -->  useful
   Task     39 band        2 (effectively band     2) with k-point 1/2 ( -0.500  0.500  0.500) -->  useful
   Task     40 band        2 (effectively band     2) with k-point 1/2 ( -0.500  0.500  0.500) -->  useful
   Task     41 band        2 (effectively band     2) with k-point 1/2 ( -0.500  0.500  0.500) -->  useful
   Task     42 band        2 (effectively band     2) with k-point 1/2 ( -0.500  0.500  0.500) -->  useful
   Task     43 band        2 (effectively band     2) with k-point 1/2 ( -0.500  0.500  0.500) -->  useful
   Task     44 band        2 (effectively band     2) with k-point 1/2 ( -0.500  0.500  0.500) -->  useful
   Task     45 band        2 (effectively band     2) with k-point 1/2 ( -0.500  0.500  0.500) -->  useful
   Task     46 band        2 (effectively band     2) with k-point 1/2 ( -0.500  0.500  0.500) -->  useful
   Task     47 band        2 (effectively band     2) with k-point 1/2 ( -0.500  0.500  0.500) -->  useful
   Task     48 band        2 (effectively band     2) with k-point 1/2 ( -0.500  0.500  0.500) -->  useful
   Task     49 band        2 (effectively band     2) with k-point 1/2 ( -0.500  0.500  0.500) -->  useful
   Task     50 band        2 (effectively band     2) with k-point 1/2 ( -0.500  0.500  0.500) -->  useful
   Task     51 band        2 (effectively band     2) with k-point 1/2 ( -0.500  0.500  0.500) -->  useful
   Task     52 band        2 (effectively band     2) with k-point 1/2 ( -0.500  0.500  0.500) -->  useful
   Task     53 band        2 (effectively band     2) with k-point 1/2 ( -0.500  0.500  0.500) -->  useful
   Task     54 band        2 (effectively band     2) with k-point 1/2 ( -0.500  0.500  0.500) -->  useful
   Task     55 band        2 (effectively band     2) with k-point 1/2 ( -0.500  0.500  0.500) -->  useful
   Task     56 band        2 (effectively band     2) with k-point 1/2 ( -0.500  0.500  0.500) -->  useful
   Task     57 band        2 (effectively band     2) with k-point 1/2 ( -0.500  0.500  0.500) -->  useful
   Task     58 band        2 (effectively band     2) with k-point 1/2 ( -0.500  0.500  0.500) -->  useful
   Task     59 band        2 (effectively band     2) with k-point 1/2 ( -0.500  0.500  0.500) -->  useful
   Task     60 band        2 (effectively band     2) with k-point 1/2 ( -0.500  0.500  0.500) -->  useful
   Task     61 band        2 (effectively band     2) with k-point 1/2 ( -0.500  0.500  0.500) -->  useful
   Task     62 band        2 (effectively band     2) with k-point 1/2 ( -0.500  0.500  0.500) -->  useful
   Task     63 band        2 (effectively band     2) with k-point 1/2 ( -0.500  0.500  0.500) -->  useful
   Task     64 band        3 (effectively band     3) with k-point 1/2 (  0.500 -0.500  0.500) -->  useful
   Task     65 band        3 (effectively band     3) with k-point 1/2 (  0.500 -0.500  0.500) -->  useful
   Task     66 band        3 (effectively band     3) with k-point 1/2 (  0.500 -0.500  0.500) -->  useful
   Task     67 band        3 (effectively band     3) with k-point 1/2 (  0.500 -0.500  0.500) -->  useful
   Task     68 band        3 (effectively band     3) with k-point 1/2 (  0.500 -0.500  0.500) -->  useful
   Task     69 band        3 (effectively band     3) with k-point 1/2 (  0.500 -0.500  0.500) -->  useful
   Task     70 band        3 (effectively band     3) with k-point 1/2 (  0.500 -0.500  0.500) -->  useful
   Task     71 band        3 (effectively band     3) with k-point 1/2 (  0.500 -0.500  0.500) -->  useful
   Task     72 band        3 (effectively band     3) with k-point 1/2 (  0.500 -0.500  0.500) -->  useful
   Task     73 band        3 (effectively band     3) with k-point 1/2 (  0.500 -0.500  0.500) -->  useful
   Task     74 band        3 (effectively band     3) with k-point 1/2 (  0.500 -0.500  0.500) -->  useful
   Task     75 band        3 (effectively band     3) with k-point 1/2 (  0.500 -0.500  0.500) -->  useful
   Task     76 band        3 (effectively band     3) with k-point 1/2 (  0.500 -0.500  0.500) -->  useful
   Task     77 band        3 (effectively band     3) with k-point 1/2 (  0.500 -0.500  0.500) -->  useful
   Task     78 band        3 (effectively band     3) with k-point 1/2 (  0.500 -0.500  0.500) -->  useful
   Task     79 band        3 (effectively band     3) with k-point 1/2 (  0.500 -0.500  0.500) -->  useful
   Task     80 band        3 (effectively band     3) with k-point 1/2 (  0.500 -0.500  0.500) -->  useful
   Task     81 band        3 (effectively band     3) with k-point 1/2 (  0.500 -0.500  0.500) -->  useful
   Task     82 band        3 (effectively band     3) with k-point 1/2 (  0.500 -0.500  0.500) -->  useful
   Task     83 band        3 (effectively band     3) with k-point 1/2 (  0.500 -0.500  0.500) -->  useful
   Task     84 band        3 (effectively band     3) with k-point 1/2 (  0.500 -0.500  0.500) -->  useful
   Task     85 band        3 (effectively band     3) with k-point 1/2 (  0.500 -0.500  0.500) -->  useful
   Task     86 band        3 (effectively band     3) with k-point 1/2 (  0.500 -0.500  0.500) -->  useful
   Task     87 band        3 (effectively band     3) with k-point 1/2 (  0.500 -0.500  0.500) -->  useful
   Task     88 band        3 (effectively band     3) with k-point 1/2 (  0.500 -0.500  0.500) -->  useful
   Task     89 band        3 (effectively band     3) with k-point 1/2 (  0.500 -0.500  0.500) -->  useful
   Task     90 band        3 (effectively band     3) with k-point 1/2 (  0.500 -0.500  0.500) -->  useful
   Task     91 band        3 (effectively band     3) with k-point 1/2 (  0.500 -0.500  0.500) -->  useful
   Task     92 band        3 (effectively band     3) with k-point 1/2 (  0.500 -0.500  0.500) -->  useful
   Task     93 band        3 (effectively band     3) with k-point 1/2 (  0.500 -0.500  0.500) -->  useful
   Task     94 band        3 (effectively band     3) with k-point 1/2 (  0.500 -0.500  0.500) -->  useful
   Task     95 band        3 (effectively band     3) with k-point 1/2 (  0.500 -0.500  0.500) -->  useful
   Task     96 band        4 (effectively band     4) with k-point 1/2 (  0.500  0.500  0.500) -->  useful
   Task     97 band        4 (effectively band     4) with k-point 1/2 (  0.500  0.500  0.500) -->  useful
   Task     98 band        4 (effectively band     4) with k-point 1/2 (  0.500  0.500  0.500) -->  useful
   Task     99 band        4 (effectively band     4) with k-point 1/2 (  0.500  0.500  0.500) -->  useful
   Task    100 band        4 (effectively band     4) with k-point 1/2 (  0.500  0.500  0.500) -->  useful
   Task    101 band        4 (effectively band     4) with k-point 1/2 (  0.500  0.500  0.500) -->  useful
   Task    102 band        4 (effectively band     4) with k-point 1/2 (  0.500  0.500  0.500) -->  useful
   Task    103 band        4 (effectively band     4) with k-point 1/2 (  0.500  0.500  0.500) -->  useful
   Task    104 band        4 (effectively band     4) with k-point 1/2 (  0.500  0.500  0.500) -->  useful
   Task    105 band        4 (effectively band     4) with k-point 1/2 (  0.500  0.500  0.500) -->  useful
   Task    106 band        4 (effectively band     4) with k-point 1/2 (  0.500  0.500  0.500) -->  useful
   Task    107 band        4 (effectively band     4) with k-point 1/2 (  0.500  0.500  0.500) -->  useful
   Task    108 band        4 (effectively band     4) with k-point 1/2 (  0.500  0.500  0.500) -->  useful
   Task    109 band        4 (effectively band     4) with k-point 1/2 (  0.500  0.500  0.500) -->  useful
   Task    110 band        4 (effectively band     4) with k-point 1/2 (  0.500  0.500  0.500) -->  useful
   Task    111 band        4 (effectively band     4) with k-point 1/2 (  0.500  0.500  0.500) -->  useful
   Task    112 band        4 (effectively band     4) with k-point 1/2 (  0.500  0.500  0.500) -->  useful
   Task    113 band        4 (effectively band     4) with k-point 1/2 (  0.500  0.500  0.500) -->  useful
   Task    114 band        4 (effectively band     4) with k-point 1/2 (  0.500  0.500  0.500) -->  useful
   Task    115 band        4 (effectively band     4) with k-point 1/2 (  0.500  0.500  0.500) -->  useful
   Task    116 band        4 (effectively band     4) with k-point 1/2 (  0.500  0.500  0.500) -->  useful
   Task    117 band        4 (effectively band     4) with k-point 1/2 (  0.500  0.500  0.500) -->  useful
   Task    118 band        4 (effectively band     4) with k-point 1/2 (  0.500  0.500  0.500) -->  useful
   Task    119 band        4 (effectively band     4) with k-point 1/2 (  0.500  0.500  0.500) -->  useful
   Task    120 band        4 (effectively band     4) with k-point 1/2 (  0.500  0.500  0.500) -->  useful
   Task    121 band        4 (effectively band     4) with k-point 1/2 (  0.500  0.500  0.500) -->  useful
   Task    122 band        4 (effectively band     4) with k-point 1/2 (  0.500  0.500  0.500) -->  useful
   Task    123 band        4 (effectively band     4) with k-point 1/2 (  0.500  0.500  0.500) -->  useful
   Task    124 band        4 (effectively band     4) with k-point 1/2 (  0.500  0.500  0.500) -->  useful
   Task    125 band        4 (effectively band     4) with k-point 1/2 (  0.500  0.500  0.500) -->  useful
   Task    126 band        4 (effectively band     4) with k-point 1/2 (  0.500  0.500  0.500) -->  useful
   Task    127 band        4 (effectively band     4) with k-point 1/2 (  0.500  0.500  0.500) -->  useful
   Task    128 band        5 (effectively band     4) with k-point 1/2 (  0.500  0.500  0.500) -->  useless
   Task    129 band        5 (effectively band     4) with k-point 1/2 (  0.500  0.500  0.500) -->  useless
   Task    130 band        5 (effectively band     4) with k-point 1/2 (  0.500  0.500  0.500) -->  useless
   Task    131 band        5 (effectively band     4) with k-point 1/2 (  0.500  0.500  0.500) -->  useless
   Task    132 band        5 (effectively band     4) with k-point 1/2 (  0.500  0.500  0.500) -->  useless
   Task    133 band        5 (effectively band     4) with k-point 1/2 (  0.500  0.500  0.500) -->  useless
   Task    134 band        5 (effectively band     4) with k-point 1/2 (  0.500  0.500  0.500) -->  useless
   Task    135 band        5 (effectively band     4) with k-point 1/2 (  0.500  0.500  0.500) -->  useless
   Task    136 band        5 (effectively band     4) with k-point 1/2 (  0.500  0.500  0.500) -->  useless
   Task    137 band        5 (effectively band     4) with k-point 1/2 (  0.500  0.500  0.500) -->  useless
   Task    138 band        5 (effectively band     4) with k-point 1/2 (  0.500  0.500  0.500) -->  useless
   Task    139 band        5 (effectively band     4) with k-point 1/2 (  0.500  0.500  0.500) -->  useless
   Task    140 band        5 (effectively band     4) with k-point 1/2 (  0.500  0.500  0.500) -->  useless
   Task    141 band        5 (effectively band     4) with k-point 1/2 (  0.500  0.500  0.500) -->  useless
   Task    142 band        5 (effectively band     4) with k-point 1/2 (  0.500  0.500  0.500) -->  useless
   Task    143 band        5 (effectively band     4) with k-point 1/2 (  0.500  0.500  0.500) -->  useless
   Task    144 band        5 (effectively band     4) with k-point 1/2 (  0.500  0.500  0.500) -->  useless
   Task    145 band        5 (effectively band     4) with k-point 1/2 (  0.500  0.500  0.500) -->  useless
   Task    146 band        5 (effectively band     4) with k-point 1/2 (  0.500  0.500  0.500) -->  useless
   Task    147 band        5 (effectively band     4) with k-point 1/2 (  0.500  0.500  0.500) -->  useless
   Task    148 band        5 (effectively band     4) with k-point 1/2 (  0.500  0.500  0.500) -->  useless
   Task    149 band        5 (effectively band     4) with k-point 1/2 (  0.500  0.500  0.500) -->  useless
   Task    150 band        5 (effectively band     4) with k-point 1/2 (  0.500  0.500  0.500) -->  useless
   Task    151 band        5 (effectively band     4) with k-point 1/2 (  0.500  0.500  0.500) -->  useless
   Task    152 band        5 (effectively band     4) with k-point 1/2 (  0.500  0.500  0.500) -->  useless
   Task    153 band        5 (effectively band     4) with k-point 1/2 (  0.500  0.500  0.500) -->  useless
   Task    154 band        5 (effectively band     4) with k-point 1/2 (  0.500  0.500  0.500) -->  useless
   Task    155 band        5 (effectively band     4) with k-point 1/2 (  0.500  0.500  0.500) -->  useless
   Task    156 band        5 (effectively band     4) with k-point 1/2 (  0.500  0.500  0.500) -->  useless
   Task    157 band        5 (effectively band     4) with k-point 1/2 (  0.500  0.500  0.500) -->  useless
   Task    158 band        5 (effectively band     4) with k-point 1/2 (  0.500  0.500  0.500) -->  useless
   Task    159 band        5 (effectively band     4) with k-point 1/2 (  0.500  0.500  0.500) -->  useless
   Task    160 band        6 (effectively band     4) with k-point 1/2 (  0.500  0.500  0.500) -->  useless
   Task    161 band        6 (effectively band     4) with k-point 1/2 (  0.500  0.500  0.500) -->  useless
   Task    162 band        6 (effectively band     4) with k-point 1/2 (  0.500  0.500  0.500) -->  useless
   Task    163 band        6 (effectively band     4) with k-point 1/2 (  0.500  0.500  0.500) -->  useless
   Task    164 band        6 (effectively band     4) with k-point 1/2 (  0.500  0.500  0.500) -->  useless
   Task    165 band        6 (effectively band     4) with k-point 1/2 (  0.500  0.500  0.500) -->  useless
   Task    166 band        6 (effectively band     4) with k-point 1/2 (  0.500  0.500  0.500) -->  useless
   Task    167 band        6 (effectively band     4) with k-point 1/2 (  0.500  0.500  0.500) -->  useless
   Task    168 band        6 (effectively band     4) with k-point 1/2 (  0.500  0.500  0.500) -->  useless
   Task    169 band        6 (effectively band     4) with k-point 1/2 (  0.500  0.500  0.500) -->  useless
   Task    170 band        6 (effectively band     4) with k-point 1/2 (  0.500  0.500  0.500) -->  useless
   Task    171 band        6 (effectively band     4) with k-point 1/2 (  0.500  0.500  0.500) -->  useless
   Task    172 band        6 (effectively band     4) with k-point 1/2 (  0.500  0.500  0.500) -->  useless
   Task    173 band        6 (effectively band     4) with k-point 1/2 (  0.500  0.500  0.500) -->  useless
   Task    174 band        6 (effectively band     4) with k-point 1/2 (  0.500  0.500  0.500) -->  useless
   Task    175 band        6 (effectively band     4) with k-point 1/2 (  0.500  0.500  0.500) -->  useless
   Task    176 band        6 (effectively band     4) with k-point 1/2 (  0.500  0.500  0.500) -->  useless
   Task    177 band        6 (effectively band     4) with k-point 1/2 (  0.500  0.500  0.500) -->  useless
   Task    178 band        6 (effectively band     4) with k-point 1/2 (  0.500  0.500  0.500) -->  useless
   Task    179 band        6 (effectively band     4) with k-point 1/2 (  0.500  0.500  0.500) -->  useless
   Task    180 band        6 (effectively band     4) with k-point 1/2 (  0.500  0.500  0.500) -->  useless
   Task    181 band        6 (effectively band     4) with k-point 1/2 (  0.500  0.500  0.500) -->  useless
   Task    182 band        6 (effectively band     4) with k-point 1/2 (  0.500  0.500  0.500) -->  useless
   Task    183 band        6 (effectively band     4) with k-point 1/2 (  0.500  0.500  0.500) -->  useless
   Task    184 band        6 (effectively band     4) with k-point 1/2 (  0.500  0.500  0.500) -->  useless
   Task    185 band        6 (effectively band     4) with k-point 1/2 (  0.500  0.500  0.500) -->  useless
   Task    186 band        6 (effectively band     4) with k-point 1/2 (  0.500  0.500  0.500) -->  useless
   Task    187 band        6 (effectively band     4) with k-point 1/2 (  0.500  0.500  0.500) -->  useless
   Task    188 band        6 (effectively band     4) with k-point 1/2 (  0.500  0.500  0.500) -->  useless
   Task    189 band        6 (effectively band     4) with k-point 1/2 (  0.500  0.500  0.500) -->  useless
   Task    190 band        6 (effectively band     4) with k-point 1/2 (  0.500  0.500  0.500) -->  useless
   Task    191 band        6 (effectively band     4) with k-point 1/2 (  0.500  0.500  0.500) -->  useless
   Task    192 band        7 (effectively band     4) with k-point 1/2 (  0.500  0.500  0.500) -->  useless
   Task    193 band        7 (effectively band     4) with k-point 1/2 (  0.500  0.500  0.500) -->  useless
   Task    194 band        7 (effectively band     4) with k-point 1/2 (  0.500  0.500  0.500) -->  useless
   Task    195 band        7 (effectively band     4) with k-point 1/2 (  0.500  0.500  0.500) -->  useless
   Task    196 band        7 (effectively band     4) with k-point 1/2 (  0.500  0.500  0.500) -->  useless
   Task    197 band        7 (effectively band     4) with k-point 1/2 (  0.500  0.500  0.500) -->  useless
   Task    198 band        7 (effectively band     4) with k-point 1/2 (  0.500  0.500  0.500) -->  useless
   Task    199 band        7 (effectively band     4) with k-point 1/2 (  0.500  0.500  0.500) -->  useless
   Task    200 band        7 (effectively band     4) with k-point 1/2 (  0.500  0.500  0.500) -->  useless
   Task    201 band        7 (effectively band     4) with k-point 1/2 (  0.500  0.500  0.500) -->  useless
   Task    202 band        7 (effectively band     4) with k-point 1/2 (  0.500  0.500  0.500) -->  useless
   Task    203 band        7 (effectively band     4) with k-point 1/2 (  0.500  0.500  0.500) -->  useless
   Task    204 band        7 (effectively band     4) with k-point 1/2 (  0.500  0.500  0.500) -->  useless
   Task    205 band        7 (effectively band     4) with k-point 1/2 (  0.500  0.500  0.500) -->  useless
   Task    206 band        7 (effectively band     4) with k-point 1/2 (  0.500  0.500  0.500) -->  useless
   Task    207 band        7 (effectively band     4) with k-point 1/2 (  0.500  0.500  0.500) -->  useless
   Task    208 band        7 (effectively band     4) with k-point 1/2 (  0.500  0.500  0.500) -->  useless
   Task    209 band        7 (effectively band     4) with k-point 1/2 (  0.500  0.500  0.500) -->  useless
   Task    210 band        7 (effectively band     4) with k-point 1/2 (  0.500  0.500  0.500) -->  useless
   Task    211 band        7 (effectively band     4) with k-point 1/2 (  0.500  0.500  0.500) -->  useless
   Task    212 band        7 (effectively band     4) with k-point 1/2 (  0.500  0.500  0.500) -->  useless
   Task    213 band        7 (effectively band     4) with k-point 1/2 (  0.500  0.500  0.500) -->  useless
   Task    214 band        7 (effectively band     4) with k-point 1/2 (  0.500  0.500  0.500) -->  useless
   Task    215 band        7 (effectively band     4) with k-point 1/2 (  0.500  0.500  0.500) -->  useless
   Task    216 band        7 (effectively band     4) with k-point 1/2 (  0.500  0.500  0.500) -->  useless
   Task    217 band        7 (effectively band     4) with k-point 1/2 (  0.500  0.500  0.500) -->  useless
   Task    218 band        7 (effectively band     4) with k-point 1/2 (  0.500  0.500  0.500) -->  useless
   Task    219 band        7 (effectively band     4) with k-point 1/2 (  0.500  0.500  0.500) -->  useless
   Task    220 band        7 (effectively band     4) with k-point 1/2 (  0.500  0.500  0.500) -->  useless
   Task    221 band        7 (effectively band     4) with k-point 1/2 (  0.500  0.500  0.500) -->  useless
   Task    222 band        7 (effectively band     4) with k-point 1/2 (  0.500  0.500  0.500) -->  useless
   Task    223 band        7 (effectively band     4) with k-point 1/2 (  0.500  0.500  0.500) -->  useless
   Task    224 band        8 (effectively band     4) with k-point 1/2 (  0.500  0.500  0.500) -->  useless
   Task    225 band        8 (effectively band     4) with k-point 1/2 (  0.500  0.500  0.500) -->  useless
   Task    226 band        8 (effectively band     4) with k-point 1/2 (  0.500  0.500  0.500) -->  useless
   Task    227 band        8 (effectively band     4) with k-point 1/2 (  0.500  0.500  0.500) -->  useless
   Task    228 band        8 (effectively band     4) with k-point 1/2 (  0.500  0.500  0.500) -->  useless
   Task    229 band        8 (effectively band     4) with k-point 1/2 (  0.500  0.500  0.500) -->  useless
   Task    230 band        8 (effectively band     4) with k-point 1/2 (  0.500  0.500  0.500) -->  useless
   Task    231 band        8 (effectively band     4) with k-point 1/2 (  0.500  0.500  0.500) -->  useless
   Task    232 band        8 (effectively band     4) with k-point 1/2 (  0.500  0.500  0.500) -->  useless
   Task    233 band        8 (effectively band     4) with k-point 1/2 (  0.500  0.500  0.500) -->  useless
   Task    234 band        8 (effectively band     4) with k-point 1/2 (  0.500  0.500  0.500) -->  useless
   Task    235 band        8 (effectively band     4) with k-point 1/2 (  0.500  0.500  0.500) -->  useless
   Task    236 band        8 (effectively band     4) with k-point 1/2 (  0.500  0.500  0.500) -->  useless
   Task    237 band        8 (effectively band     4) with k-point 1/2 (  0.500  0.500  0.500) -->  useless
   Task    238 band        8 (effectively band     4) with k-point 1/2 (  0.500  0.500  0.500) -->  useless
   Task    239 band        8 (effectively band     4) with k-point 1/2 (  0.500  0.500  0.500) -->  useless
   Task    240 band        8 (effectively band     4) with k-point 1/2 (  0.500  0.500  0.500) -->  useless
   Task    241 band        8 (effectively band     4) with k-point 1/2 (  0.500  0.500  0.500) -->  useless
   Task    242 band        8 (effectively band     4) with k-point 1/2 (  0.500  0.500  0.500) -->  useless
   Task    243 band        8 (effectively band     4) with k-point 1/2 (  0.500  0.500  0.500) -->  useless
   Task    244 band        8 (effectively band     4) with k-point 1/2 (  0.500  0.500  0.500) -->  useless
   Task    245 band        8 (effectively band     4) with k-point 1/2 (  0.500  0.500  0.500) -->  useless
   Task    246 band        8 (effectively band     4) with k-point 1/2 (  0.500  0.500  0.500) -->  useless
   Task    247 band        8 (effectively band     4) with k-point 1/2 (  0.500  0.500  0.500) -->  useless
   Task    248 band        8 (effectively band     4) with k-point 1/2 (  0.500  0.500  0.500) -->  useless
   Task    249 band        8 (effectively band     4) with k-point 1/2 (  0.500  0.500  0.500) -->  useless
   Task    250 band        8 (effectively band     4) with k-point 1/2 (  0.500  0.500  0.500) -->  useless
   Task    251 band        8 (effectively band     4) with k-point 1/2 (  0.500  0.500  0.500) -->  useless
   Task    252 band        8 (effectively band     4) with k-point 1/2 (  0.500  0.500  0.500) -->  useless
   Task    253 band        8 (effectively band     4) with k-point 1/2 (  0.500  0.500  0.500) -->  useless
   Task    254 band        8 (effectively band     4) with k-point 1/2 (  0.500  0.500  0.500) -->  useless
   Task    255 band        8 (effectively band     4) with k-point 1/2 (  0.500  0.500  0.500) -->  useless

  "Band gap" along reciprocal space direction number:    1
  | Lowest unoccupied state:      -2.94814146 eV
  | Highest occupied state :     -10.21590611 eV
  | Energy difference      :       7.26776466 eV

  Calculating k-points    9 to   16
  Overlap matrix is not singular
  | Lowest and highest eigenvalues :  0.5299E-03,  0.1148E+02
  Finished singularity check of overlap matrix
  | Time :     0.011 s
  Starting ELPA eigensolver
  Finished Cholesky decomposition
  | Time :     0.001 s
  Finished transformation to standard eigenproblem
  | Time :     0.001 s
  Finished solving standard eigenproblem
  | Time :     0.012 s
  Finished back-transformation of eigenvectors
  | Time :     0.001 s
   Detailed listing of bands and assigned k-points in polarization calculation:
   Task      0 band        1 (effectively band     1) with k-point 2/2 ( -0.500 -0.500 -0.500) -->  useful
   Task      1 band        1 (effectively band     1) with k-point 2/2 ( -0.500 -0.500 -0.500) -->  useful
   Task      2 band        1 (effectively band     1) with k-point 2/2 ( -0.500 -0.500 -0.500) -->  useful
   Task      3 band        1 (effectively band     1) with k-point 2/2 ( -0.500 -0.500 -0.500) -->  useful
   Task      4 band        1 (effectively band     1) with k-point 2/2 ( -0.500 -0.500 -0.500) -->  useful
   Task      5 band        1 (effectively band     1) with k-point 2/2 ( -0.500 -0.500 -0.500) -->  useful
   Task      6 band        1 (effectively band     1) with k-point 2/2 ( -0.500 -0.500 -0.500) -->  useful
   Task      7 band        1 (effectively band     1) with k-point 2/2 ( -0.500 -0.500 -0.500) -->  useful
   Task      8 band        1 (effectively band     1) with k-point 2/2 ( -0.500 -0.500 -0.500) -->  useful
   Task      9 band        1 (effectively band     1) with k-point 2/2 ( -0.500 -0.500 -0.500) -->  useful
   Task     10 band        1 (effectively band     1) with k-point 2/2 ( -0.500 -0.500 -0.500) -->  useful
   Task     11 band        1 (effectively band     1) with k-point 2/2 ( -0.500 -0.500 -0.500) -->  useful
   Task     12 band        1 (effectively band     1) with k-point 2/2 ( -0.500 -0.500 -0.500) -->  useful
   Task     13 band        1 (effectively band     1) with k-point 2/2 ( -0.500 -0.500 -0.500) -->  useful
   Task     14 band        1 (effectively band     1) with k-point 2/2 ( -0.500 -0.500 -0.500) -->  useful
   Task     15 band        1 (effectively band     1) with k-point 2/2 ( -0.500 -0.500 -0.500) -->  useful
   Task     16 band        1 (effectively band     1) with k-point 2/2 ( -0.500 -0.500 -0.500) -->  useful
   Task     17 band        1 (effectively band     1) with k-point 2/2 ( -0.500 -0.500 -0.500) -->  useful
   Task     18 band        1 (effectively band     1) with k-point 2/2 ( -0.500 -0.500 -0.500) -->  useful
   Task     19 band        1 (effectively band     1) with k-point 2/2 ( -0.500 -0.500 -0.500) -->  useful
   Task     20 band        1 (effectively band     1) with k-point 2/2 ( -0.500 -0.500 -0.500) -->  useful
   Task     21 band        1 (effectively band     1) with k-point 2/2 ( -0.500 -0.500 -0.500) -->  useful
   Task     22 band        1 (effectively band     1) with k-point 2/2 ( -0.500 -0.500 -0.500) -->  useful
   Task     23 band        1 (effectively band     1) with k-point 2/2 ( -0.500 -0.500 -0.500) -->  useful
   Task     24 band        1 (effectively band     1) with k-point 2/2 ( -0.500 -0.500 -0.500) -->  useful
   Task     25 band        1 (effectively band     1) with k-point 2/2 ( -0.500 -0.500 -0.500) -->  useful
   Task     26 band        1 (effectively band     1) with k-point 2/2 ( -0.500 -0.500 -0.500) -->  useful
   Task     27 band        1 (effectively band     1) with k-point 2/2 ( -0.500 -0.500 -0.500) -->  useful
   Task     28 band        1 (effectively band     1) with k-point 2/2 ( -0.500 -0.500 -0.500) -->  useful
   Task     29 band        1 (effectively band     1) with k-point 2/2 ( -0.500 -0.500 -0.500) -->  useful
   Task     30 band        1 (effectively band     1) with k-point 2/2 ( -0.500 -0.500 -0.500) -->  useful
   Task     31 band        1 (effectively band     1) with k-point 2/2 ( -0.500 -0.500 -0.500) -->  useful
   Task     32 band        2 (effectively band     2) with k-point 2/2 ( -0.500  0.500 -0.500) -->  useful
   Task     33 band        2 (effectively band     2) with k-point 2/2 ( -0.500  0.500 -0.500) -->  useful
   Task     34 band        2 (effectively band     2) with k-point 2/2 ( -0.500  0.500 -0.500) -->  useful
   Task     35 band        2 (effectively band     2) with k-point 2/2 ( -0.500  0.500 -0.500) -->  useful
   Task     36 band        2 (effectively band     2) with k-point 2/2 ( -0.500  0.500 -0.500) -->  useful
   Task     37 band        2 (effectively band     2) with k-point 2/2 ( -0.500  0.500 -0.500) -->  useful
   Task     38 band        2 (effectively band     2) with k-point 2/2 ( -0.500  0.500 -0.500) -->  useful
   Task     39 band        2 (effectively band     2) with k-point 2/2 ( -0.500  0.500 -0.500) -->  useful
   Task     40 band        2 (effectively band     2) with k-point 2/2 ( -0.500  0.500 -0.500) -->  useful
   Task     41 band        2 (effectively band     2) with k-point 2/2 ( -0.500  0.500 -0.500) -->  useful
   Task     42 band        2 (effectively band     2) with k-point 2/2 ( -0.500  0.500 -0.500) -->  useful
   Task     43 band        2 (effectively band     2) with k-point 2/2 ( -0.500  0.500 -0.500) -->  useful
   Task     44 band        2 (effectively band     2) with k-point 2/2 ( -0.500  0.500 -0.500) -->  useful
   Task     45 band        2 (effectively band     2) with k-point 2/2 ( -0.500  0.500 -0.500) -->  useful
   Task     46 band        2 (effectively band     2) with k-point 2/2 ( -0.500  0.500 -0.500) -->  useful
   Task     47 band        2 (effectively band     2) with k-point 2/2 ( -0.500  0.500 -0.500) -->  useful
   Task     48 band        2 (effectively band     2) with k-point 2/2 ( -0.500  0.500 -0.500) -->  useful
   Task     49 band        2 (effectively band     2) with k-point 2/2 ( -0.500  0.500 -0.500) -->  useful
   Task     50 band        2 (effectively band     2) with k-point 2/2 ( -0.500  0.500 -0.500) -->  useful
   Task     51 band        2 (effectively band     2) with k-point 2/2 ( -0.500  0.500 -0.500) -->  useful
   Task     52 band        2 (effectively band     2) with k-point 2/2 ( -0.500  0.500 -0.500) -->  useful
   Task     53 band        2 (effectively band     2) with k-point 2/2 ( -0.500  0.500 -0.500) -->  useful
   Task     54 band        2 (effectively band     2) with k-point 2/2 ( -0.500  0.500 -0.500) -->  useful
   Task     55 band        2 (effectively band     2) with k-point 2/2 ( -0.500  0.500 -0.500) -->  useful
   Task     56 band        2 (effectively band     2) with k-point 2/2 ( -0.500  0.500 -0.500) -->  useful
   Task     57 band        2 (effectively band     2) with k-point 2/2 ( -0.500  0.500 -0.500) -->  useful
   Task     58 band        2 (effectively band     2) with k-point 2/2 ( -0.500  0.500 -0.500) -->  useful
   Task     59 band        2 (effectively band     2) with k-point 2/2 ( -0.500  0.500 -0.500) -->  useful
   Task     60 band        2 (effectively band     2) with k-point 2/2 ( -0.500  0.500 -0.500) -->  useful
   Task     61 band        2 (effectively band     2) with k-point 2/2 ( -0.500  0.500 -0.500) -->  useful
   Task     62 band        2 (effectively band     2) with k-point 2/2 ( -0.500  0.500 -0.500) -->  useful
   Task     63 band        2 (effectively band     2) with k-point 2/2 ( -0.500  0.500 -0.500) -->  useful
   Task     64 band        3 (effectively band     3) with k-point 2/2 (  0.500 -0.500 -0.500) -->  useful
   Task     65 band        3 (effectively band     3) with k-point 2/2 (  0.500 -0.500 -0.500) -->  useful
   Task     66 band        3 (effectively band     3) with k-point 2/2 (  0.500 -0.500 -0.500) -->  useful
   Task     67 band        3 (effectively band     3) with k-point 2/2 (  0.500 -0.500 -0.500) -->  useful
   Task     68 band        3 (effectively band     3) with k-point 2/2 (  0.500 -0.500 -0.500) -->  useful
   Task     69 band        3 (effectively band     3) with k-point 2/2 (  0.500 -0.500 -0.500) -->  useful
   Task     70 band        3 (effectively band     3) with k-point 2/2 (  0.500 -0.500 -0.500) -->  useful
   Task     71 band        3 (effectively band     3) with k-point 2/2 (  0.500 -0.500 -0.500) -->  useful
   Task     72 band        3 (effectively band     3) with k-point 2/2 (  0.500 -0.500 -0.500) -->  useful
   Task     73 band        3 (effectively band     3) with k-point 2/2 (  0.500 -0.500 -0.500) -->  useful
   Task     74 band        3 (effectively band     3) with k-point 2/2 (  0.500 -0.500 -0.500) -->  useful
   Task     75 band        3 (effectively band     3) with k-point 2/2 (  0.500 -0.500 -0.500) -->  useful
   Task     76 band        3 (effectively band     3) with k-point 2/2 (  0.500 -0.500 -0.500) -->  useful
   Task     77 band        3 (effectively band     3) with k-point 2/2 (  0.500 -0.500 -0.500) -->  useful
   Task     78 band        3 (effectively band     3) with k-point 2/2 (  0.500 -0.500 -0.500) -->  useful
   Task     79 band        3 (effectively band     3) with k-point 2/2 (  0.500 -0.500 -0.500) -->  useful
   Task     80 band        3 (effectively band     3) with k-point 2/2 (  0.500 -0.500 -0.500) -->  useful
   Task     81 band        3 (effectively band     3) with k-point 2/2 (  0.500 -0.500 -0.500) -->  useful
   Task     82 band        3 (effectively band     3) with k-point 2/2 (  0.500 -0.500 -0.500) -->  useful
   Task     83 band        3 (effectively band     3) with k-point 2/2 (  0.500 -0.500 -0.500) -->  useful
   Task     84 band        3 (effectively band     3) with k-point 2/2 (  0.500 -0.500 -0.500) -->  useful
   Task     85 band        3 (effectively band     3) with k-point 2/2 (  0.500 -0.500 -0.500) -->  useful
   Task     86 band        3 (effectively band     3) with k-point 2/2 (  0.500 -0.500 -0.500) -->  useful
   Task     87 band        3 (effectively band     3) with k-point 2/2 (  0.500 -0.500 -0.500) -->  useful
   Task     88 band        3 (effectively band     3) with k-point 2/2 (  0.500 -0.500 -0.500) -->  useful
   Task     89 band        3 (effectively band     3) with k-point 2/2 (  0.500 -0.500 -0.500) -->  useful
   Task     90 band        3 (effectively band     3) with k-point 2/2 (  0.500 -0.500 -0.500) -->  useful
   Task     91 band        3 (effectively band     3) with k-point 2/2 (  0.500 -0.500 -0.500) -->  useful
   Task     92 band        3 (effectively band     3) with k-point 2/2 (  0.500 -0.500 -0.500) -->  useful
   Task     93 band        3 (effectively band     3) with k-point 2/2 (  0.500 -0.500 -0.500) -->  useful
   Task     94 band        3 (effectively band     3) with k-point 2/2 (  0.500 -0.500 -0.500) -->  useful
   Task     95 band        3 (effectively band     3) with k-point 2/2 (  0.500 -0.500 -0.500) -->  useful
   Task     96 band        4 (effectively band     4) with k-point 2/2 (  0.500  0.500 -0.500) -->  useful
   Task     97 band        4 (effectively band     4) with k-point 2/2 (  0.500  0.500 -0.500) -->  useful
   Task     98 band        4 (effectively band     4) with k-point 2/2 (  0.500  0.500 -0.500) -->  useful
   Task     99 band        4 (effectively band     4) with k-point 2/2 (  0.500  0.500 -0.500) -->  useful
   Task    100 band        4 (effectively band     4) with k-point 2/2 (  0.500  0.500 -0.500) -->  useful
   Task    101 band        4 (effectively band     4) with k-point 2/2 (  0.500  0.500 -0.500) -->  useful
   Task    102 band        4 (effectively band     4) with k-point 2/2 (  0.500  0.500 -0.500) -->  useful
   Task    103 band        4 (effectively band     4) with k-point 2/2 (  0.500  0.500 -0.500) -->  useful
   Task    104 band        4 (effectively band     4) with k-point 2/2 (  0.500  0.500 -0.500) -->  useful
   Task    105 band        4 (effectively band     4) with k-point 2/2 (  0.500  0.500 -0.500) -->  useful
   Task    106 band        4 (effectively band     4) with k-point 2/2 (  0.500  0.500 -0.500) -->  useful
   Task    107 band        4 (effectively band     4) with k-point 2/2 (  0.500  0.500 -0.500) -->  useful
   Task    108 band        4 (effectively band     4) with k-point 2/2 (  0.500  0.500 -0.500) -->  useful
   Task    109 band        4 (effectively band     4) with k-point 2/2 (  0.500  0.500 -0.500) -->  useful
   Task    110 band        4 (effectively band     4) with k-point 2/2 (  0.500  0.500 -0.500) -->  useful
   Task    111 band        4 (effectively band     4) with k-point 2/2 (  0.500  0.500 -0.500) -->  useful
   Task    112 band        4 (effectively band     4) with k-point 2/2 (  0.500  0.500 -0.500) -->  useful
   Task    113 band        4 (effectively band     4) with k-point 2/2 (  0.500  0.500 -0.500) -->  useful
   Task    114 band        4 (effectively band     4) with k-point 2/2 (  0.500  0.500 -0.500) -->  useful
   Task    115 band        4 (effectively band     4) with k-point 2/2 (  0.500  0.500 -0.500) -->  useful
   Task    116 band        4 (effectively band     4) with k-point 2/2 (  0.500  0.500 -0.500) -->  useful
   Task    117 band        4 (effectively band     4) with k-point 2/2 (  0.500  0.500 -0.500) -->  useful
   Task    118 band        4 (effectively band     4) with k-point 2/2 (  0.500  0.500 -0.500) -->  useful
   Task    119 band        4 (effectively band     4) with k-point 2/2 (  0.500  0.500 -0.500) -->  useful
   Task    120 band        4 (effectively band     4) with k-point 2/2 (  0.500  0.500 -0.500) -->  useful
   Task    121 band        4 (effectively band     4) with k-point 2/2 (  0.500  0.500 -0.500) -->  useful
   Task    122 band        4 (effectively band     4) with k-point 2/2 (  0.500  0.500 -0.500) -->  useful
   Task    123 band        4 (effectively band     4) with k-point 2/2 (  0.500  0.500 -0.500) -->  useful
   Task    124 band        4 (effectively band     4) with k-point 2/2 (  0.500  0.500 -0.500) -->  useful
   Task    125 band        4 (effectively band     4) with k-point 2/2 (  0.500  0.500 -0.500) -->  useful
   Task    126 band        4 (effectively band     4) with k-point 2/2 (  0.500  0.500 -0.500) -->  useful
   Task    127 band        4 (effectively band     4) with k-point 2/2 (  0.500  0.500 -0.500) -->  useful
   Task    128 band        5 (effectively band     4) with k-point 2/2 (  0.500  0.500 -0.500) -->  useless
   Task    129 band        5 (effectively band     4) with k-point 2/2 (  0.500  0.500 -0.500) -->  useless
   Task    130 band        5 (effectively band     4) with k-point 2/2 (  0.500  0.500 -0.500) -->  useless
   Task    131 band        5 (effectively band     4) with k-point 2/2 (  0.500  0.500 -0.500) -->  useless
   Task    132 band        5 (effectively band     4) with k-point 2/2 (  0.500  0.500 -0.500) -->  useless
   Task    133 band        5 (effectively band     4) with k-point 2/2 (  0.500  0.500 -0.500) -->  useless
   Task    134 band        5 (effectively band     4) with k-point 2/2 (  0.500  0.500 -0.500) -->  useless
   Task    135 band        5 (effectively band     4) with k-point 2/2 (  0.500  0.500 -0.500) -->  useless
   Task    136 band        5 (effectively band     4) with k-point 2/2 (  0.500  0.500 -0.500) -->  useless
   Task    137 band        5 (effectively band     4) with k-point 2/2 (  0.500  0.500 -0.500) -->  useless
   Task    138 band        5 (effectively band     4) with k-point 2/2 (  0.500  0.500 -0.500) -->  useless
   Task    139 band        5 (effectively band     4) with k-point 2/2 (  0.500  0.500 -0.500) -->  useless
   Task    140 band        5 (effectively band     4) with k-point 2/2 (  0.500  0.500 -0.500) -->  useless
   Task    141 band        5 (effectively band     4) with k-point 2/2 (  0.500  0.500 -0.500) -->  useless
   Task    142 band        5 (effectively band     4) with k-point 2/2 (  0.500  0.500 -0.500) -->  useless
   Task    143 band        5 (effectively band     4) with k-point 2/2 (  0.500  0.500 -0.500) -->  useless
   Task    144 band        5 (effectively band     4) with k-point 2/2 (  0.500  0.500 -0.500) -->  useless
   Task    145 band        5 (effectively band     4) with k-point 2/2 (  0.500  0.500 -0.500) -->  useless
   Task    146 band        5 (effectively band     4) with k-point 2/2 (  0.500  0.500 -0.500) -->  useless
   Task    147 band        5 (effectively band     4) with k-point 2/2 (  0.500  0.500 -0.500) -->  useless
   Task    148 band        5 (effectively band     4) with k-point 2/2 (  0.500  0.500 -0.500) -->  useless
   Task    149 band        5 (effectively band     4) with k-point 2/2 (  0.500  0.500 -0.500) -->  useless
   Task    150 band        5 (effectively band     4) with k-point 2/2 (  0.500  0.500 -0.500) -->  useless
   Task    151 band        5 (effectively band     4) with k-point 2/2 (  0.500  0.500 -0.500) -->  useless
   Task    152 band        5 (effectively band     4) with k-point 2/2 (  0.500  0.500 -0.500) -->  useless
   Task    153 band        5 (effectively band     4) with k-point 2/2 (  0.500  0.500 -0.500) -->  useless
   Task    154 band        5 (effectively band     4) with k-point 2/2 (  0.500  0.500 -0.500) -->  useless
   Task    155 band        5 (effectively band     4) with k-point 2/2 (  0.500  0.500 -0.500) -->  useless
   Task    156 band        5 (effectively band     4) with k-point 2/2 (  0.500  0.500 -0.500) -->  useless
   Task    157 band        5 (effectively band     4) with k-point 2/2 (  0.500  0.500 -0.500) -->  useless
   Task    158 band        5 (effectively band     4) with k-point 2/2 (  0.500  0.500 -0.500) -->  useless
   Task    159 band        5 (effectively band     4) with k-point 2/2 (  0.500  0.500 -0.500) -->  useless
   Task    160 band        6 (effectively band     4) with k-point 2/2 (  0.500  0.500 -0.500) -->  useless
   Task    161 band        6 (effectively band     4) with k-point 2/2 (  0.500  0.500 -0.500) -->  useless
   Task    162 band        6 (effectively band     4) with k-point 2/2 (  0.500  0.500 -0.500) -->  useless
   Task    163 band        6 (effectively band     4) with k-point 2/2 (  0.500  0.500 -0.500) -->  useless
   Task    164 band        6 (effectively band     4) with k-point 2/2 (  0.500  0.500 -0.500) -->  useless
   Task    165 band        6 (effectively band     4) with k-point 2/2 (  0.500  0.500 -0.500) -->  useless
   Task    166 band        6 (effectively band     4) with k-point 2/2 (  0.500  0.500 -0.500) -->  useless
   Task    167 band        6 (effectively band     4) with k-point 2/2 (  0.500  0.500 -0.500) -->  useless
   Task    168 band        6 (effectively band     4) with k-point 2/2 (  0.500  0.500 -0.500) -->  useless
   Task    169 band        6 (effectively band     4) with k-point 2/2 (  0.500  0.500 -0.500) -->  useless
   Task    170 band        6 (effectively band     4) with k-point 2/2 (  0.500  0.500 -0.500) -->  useless
   Task    171 band        6 (effectively band     4) with k-point 2/2 (  0.500  0.500 -0.500) -->  useless
   Task    172 band        6 (effectively band     4) with k-point 2/2 (  0.500  0.500 -0.500) -->  useless
   Task    173 band        6 (effectively band     4) with k-point 2/2 (  0.500  0.500 -0.500) -->  useless
   Task    174 band        6 (effectively band     4) with k-point 2/2 (  0.500  0.500 -0.500) -->  useless
   Task    175 band        6 (effectively band     4) with k-point 2/2 (  0.500  0.500 -0.500) -->  useless
   Task    176 band        6 (effectively band     4) with k-point 2/2 (  0.500  0.500 -0.500) -->  useless
   Task    177 band        6 (effectively band     4) with k-point 2/2 (  0.500  0.500 -0.500) -->  useless
   Task    178 band        6 (effectively band     4) with k-point 2/2 (  0.500  0.500 -0.500) -->  useless
   Task    179 band        6 (effectively band     4) with k-point 2/2 (  0.500  0.500 -0.500) -->  useless
   Task    180 band        6 (effectively band     4) with k-point 2/2 (  0.500  0.500 -0.500) -->  useless
   Task    181 band        6 (effectively band     4) with k-point 2/2 (  0.500  0.500 -0.500) -->  useless
   Task    182 band        6 (effectively band     4) with k-point 2/2 (  0.500  0.500 -0.500) -->  useless
   Task    183 band        6 (effectively band     4) with k-point 2/2 (  0.500  0.500 -0.500) -->  useless
   Task    184 band        6 (effectively band     4) with k-point 2/2 (  0.500  0.500 -0.500) -->  useless
   Task    185 band        6 (effectively band     4) with k-point 2/2 (  0.500  0.500 -0.500) -->  useless
   Task    186 band        6 (effectively band     4) with k-point 2/2 (  0.500  0.500 -0.500) -->  useless
   Task    187 band        6 (effectively band     4) with k-point 2/2 (  0.500  0.500 -0.500) -->  useless
   Task    188 band        6 (effectively band     4) with k-point 2/2 (  0.500  0.500 -0.500) -->  useless
   Task    189 band        6 (effectively band     4) with k-point 2/2 (  0.500  0.500 -0.500) -->  useless
   Task    190 band        6 (effectively band     4) with k-point 2/2 (  0.500  0.500 -0.500) -->  useless
   Task    191 band        6 (effectively band     4) with k-point 2/2 (  0.500  0.500 -0.500) -->  useless
   Task    192 band        7 (effectively band     4) with k-point 2/2 (  0.500  0.500 -0.500) -->  useless
   Task    193 band        7 (effectively band     4) with k-point 2/2 (  0.500  0.500 -0.500) -->  useless
   Task    194 band        7 (effectively band     4) with k-point 2/2 (  0.500  0.500 -0.500) -->  useless
   Task    195 band        7 (effectively band     4) with k-point 2/2 (  0.500  0.500 -0.500) -->  useless
   Task    196 band        7 (effectively band     4) with k-point 2/2 (  0.500  0.500 -0.500) -->  useless
   Task    197 band        7 (effectively band     4) with k-point 2/2 (  0.500  0.500 -0.500) -->  useless
   Task    198 band        7 (effectively band     4) with k-point 2/2 (  0.500  0.500 -0.500) -->  useless
   Task    199 band        7 (effectively band     4) with k-point 2/2 (  0.500  0.500 -0.500) -->  useless
   Task    200 band        7 (effectively band     4) with k-point 2/2 (  0.500  0.500 -0.500) -->  useless
   Task    201 band        7 (effectively band     4) with k-point 2/2 (  0.500  0.500 -0.500) -->  useless
   Task    202 band        7 (effectively band     4) with k-point 2/2 (  0.500  0.500 -0.500) -->  useless
   Task    203 band        7 (effectively band     4) with k-point 2/2 (  0.500  0.500 -0.500) -->  useless
   Task    204 band        7 (effectively band     4) with k-point 2/2 (  0.500  0.500 -0.500) -->  useless
   Task    205 band        7 (effectively band     4) with k-point 2/2 (  0.500  0.500 -0.500) -->  useless
   Task    206 band        7 (effectively band     4) with k-point 2/2 (  0.500  0.500 -0.500) -->  useless
   Task    207 band        7 (effectively band     4) with k-point 2/2 (  0.500  0.500 -0.500) -->  useless
   Task    208 band        7 (effectively band     4) with k-point 2/2 (  0.500  0.500 -0.500) -->  useless
   Task    209 band        7 (effectively band     4) with k-point 2/2 (  0.500  0.500 -0.500) -->  useless
   Task    210 band        7 (effectively band     4) with k-point 2/2 (  0.500  0.500 -0.500) -->  useless
   Task    211 band        7 (effectively band     4) with k-point 2/2 (  0.500  0.500 -0.500) -->  useless
   Task    212 band        7 (effectively band     4) with k-point 2/2 (  0.500  0.500 -0.500) -->  useless
   Task    213 band        7 (effectively band     4) with k-point 2/2 (  0.500  0.500 -0.500) -->  useless
   Task    214 band        7 (effectively band     4) with k-point 2/2 (  0.500  0.500 -0.500) -->  useless
   Task    215 band        7 (effectively band     4) with k-point 2/2 (  0.500  0.500 -0.500) -->  useless
   Task    216 band        7 (effectively band     4) with k-point 2/2 (  0.500  0.500 -0.500) -->  useless
   Task    217 band        7 (effectively band     4) with k-point 2/2 (  0.500  0.500 -0.500) -->  useless
   Task    218 band        7 (effectively band     4) with k-point 2/2 (  0.500  0.500 -0.500) -->  useless
   Task    219 band        7 (effectively band     4) with k-point 2/2 (  0.500  0.500 -0.500) -->  useless
   Task    220 band        7 (effectively band     4) with k-point 2/2 (  0.500  0.500 -0.500) -->  useless
   Task    221 band        7 (effectively band     4) with k-point 2/2 (  0.500  0.500 -0.500) -->  useless
   Task    222 band        7 (effectively band     4) with k-point 2/2 (  0.500  0.500 -0.500) -->  useless
   Task    223 band        7 (effectively band     4) with k-point 2/2 (  0.500  0.500 -0.500) -->  useless
   Task    224 band        8 (effectively band     4) with k-point 2/2 (  0.500  0.500 -0.500) -->  useless
   Task    225 band        8 (effectively band     4) with k-point 2/2 (  0.500  0.500 -0.500) -->  useless
   Task    226 band        8 (effectively band     4) with k-point 2/2 (  0.500  0.500 -0.500) -->  useless
   Task    227 band        8 (effectively band     4) with k-point 2/2 (  0.500  0.500 -0.500) -->  useless
   Task    228 band        8 (effectively band     4) with k-point 2/2 (  0.500  0.500 -0.500) -->  useless
   Task    229 band        8 (effectively band     4) with k-point 2/2 (  0.500  0.500 -0.500) -->  useless
   Task    230 band        8 (effectively band     4) with k-point 2/2 (  0.500  0.500 -0.500) -->  useless
   Task    231 band        8 (effectively band     4) with k-point 2/2 (  0.500  0.500 -0.500) -->  useless
   Task    232 band        8 (effectively band     4) with k-point 2/2 (  0.500  0.500 -0.500) -->  useless
   Task    233 band        8 (effectively band     4) with k-point 2/2 (  0.500  0.500 -0.500) -->  useless
   Task    234 band        8 (effectively band     4) with k-point 2/2 (  0.500  0.500 -0.500) -->  useless
   Task    235 band        8 (effectively band     4) with k-point 2/2 (  0.500  0.500 -0.500) -->  useless
   Task    236 band        8 (effectively band     4) with k-point 2/2 (  0.500  0.500 -0.500) -->  useless
   Task    237 band        8 (effectively band     4) with k-point 2/2 (  0.500  0.500 -0.500) -->  useless
   Task    238 band        8 (effectively band     4) with k-point 2/2 (  0.500  0.500 -0.500) -->  useless
   Task    239 band        8 (effectively band     4) with k-point 2/2 (  0.500  0.500 -0.500) -->  useless
   Task    240 band        8 (effectively band     4) with k-point 2/2 (  0.500  0.500 -0.500) -->  useless
   Task    241 band        8 (effectively band     4) with k-point 2/2 (  0.500  0.500 -0.500) -->  useless
   Task    242 band        8 (effectively band     4) with k-point 2/2 (  0.500  0.500 -0.500) -->  useless
   Task    243 band        8 (effectively band     4) with k-point 2/2 (  0.500  0.500 -0.500) -->  useless
   Task    244 band        8 (effectively band     4) with k-point 2/2 (  0.500  0.500 -0.500) -->  useless
   Task    245 band        8 (effectively band     4) with k-point 2/2 (  0.500  0.500 -0.500) -->  useless
   Task    246 band        8 (effectively band     4) with k-point 2/2 (  0.500  0.500 -0.500) -->  useless
   Task    247 band        8 (effectively band     4) with k-point 2/2 (  0.500  0.500 -0.500) -->  useless
   Task    248 band        8 (effectively band     4) with k-point 2/2 (  0.500  0.500 -0.500) -->  useless
   Task    249 band        8 (effectively band     4) with k-point 2/2 (  0.500  0.500 -0.500) -->  useless
   Task    250 band        8 (effectively band     4) with k-point 2/2 (  0.500  0.500 -0.500) -->  useless
   Task    251 band        8 (effectively band     4) with k-point 2/2 (  0.500  0.500 -0.500) -->  useless
   Task    252 band        8 (effectively band     4) with k-point 2/2 (  0.500  0.500 -0.500) -->  useless
   Task    253 band        8 (effectively band     4) with k-point 2/2 (  0.500  0.500 -0.500) -->  useless
   Task    254 band        8 (effectively band     4) with k-point 2/2 (  0.500  0.500 -0.500) -->  useless
   Task    255 band        8 (effectively band     4) with k-point 2/2 (  0.500  0.500 -0.500) -->  useless

  "Band gap" along reciprocal space direction number:    1
  | Lowest unoccupied state:      -2.94814146 eV
  | Highest occupied state :     -10.21590611 eV
  | Energy difference      :       7.26776466 eV

   - Ionic      polarization along rec. latt. vec.    3 is:       74.740362E-12 C/m^2
   - Berry term: Preliminary Electronic polarization along rec. latt. vec.    3 is:     -519.214709E-03 C/m^2 before branch-mapping
   --> Detailed listing before/after branch mapping in terms of the polarization quantum P0=     -519.214709E-03 C/m^2
     | k-string    1 :         1.000000E+00 /       -83.331392E-12 P0
     | k-string    2 :         1.000000E+00 /       -83.344987E-12 P0
     | k-string    3 :         1.000000E+00 /       -83.334379E-12 P0
     | k-string    4 :         1.000000E+00 /       -83.342312E-12 P0
   - Berry term: Electronic polarization along rec. latt. vec.    3 is:       43.270461E-12 C/m^2 after branch-mapping

   - Dipole term: Preliminary Electronic polarization along rec. latt. vec.    3 is:      -22.014500E-12 C/m^2 before branch-mapping
   --> Detailed listing before/after branch mapping in terms of the polarization quantum P0=     -519.214709E-03 C/m^2
     | k-string    1 :        42.393733E-12 /        42.393733E-12 P0
     | k-string    2 :        42.395563E-12 /        42.395563E-12 P0
     | k-string    3 :        42.396270E-12 /        42.396270E-12 P0
     | k-string    4 :        42.412862E-12 /        42.412862E-12 P0
   - Dipole term: Electronic polarization along rec. latt. vec.    3 is:      -22.014516E-12 C/m^2 after branch-mapping


  Polarization calculation                                 :  max(cpu_time) wall_clock(cpu1)
  | Total Time                                             :          0.190            0.213
  | Total Time for dipole matrix                           :          0.180            0.193
  | Total Time for dipole term                             :          0.001            0.001
  | Total Time for berry term                              :          0.005            0.012
------------------------------------------------------------

  "Band gap" of total set of bands:
  | Lowest unoccupied state:      -2.94814146 eV
  | Highest occupied state :     -10.21590611 eV
  | Energy difference      :       7.26776466 eV


  Wannier center evolution                                :  max(cpu_time) wall_clock(cpu1)
  | Total Time                                            :          0.354            0.383
  | Total Time for Fourier interpolated EV solution       :          0.054            0.055
------------------------------------------------------------

  Summary for all Polarization Directives:

  * Ionic Polarization along rec. latt. vecs. is (C/m^2):        83.054066E-12      232.584598E-12       74.740362E-12
  * Electronic Contributions:
    Summarizing all directives:
    - Directive    1 in direction of rec. latt. vec.  3 yields the electronic polarization (Berry term):          43.270461E-12 (C/m^2)
    - Directive    1 in direction of rec. latt. vec.  3 yields the electronic polarization (Dipole term):        -22.014516E-12 (C/m^2)
  * Full Polarizations (Electron + Ions):
    Summarizing all directives:
    - Directive    1 in direction of rec. latt. vec.  3 yields the full polarization      :        95.996278E-12 (C/m^2)

------------------------------------------------------------


------------------------------------------------------------------------------
  Final output of selected total energy values:

  The following output summarizes some interesting total energy values
  at the end of a run (AFTER all relaxation, molecular dynamics, etc.).

  | Total energy of the DFT / Hartree-Fock s.c.f. calculation      :         -59791.215228548 eV
  | Final zero-broadening corrected energy (caution - metals only) :         -59791.215228548 eV
  | For reference only, the value of 1 Hartree used in FHI-aims is :             27.211384500 eV
  | For reference only, the overall average (free atom contribution
  | + realspace contribution) of the electrostatic potential after
  | s.c.f. convergence is                                          :            -16.778592363 eV

  Before relying on these values, please be sure to understand exactly which
  total energy value is referred to by a given number. Different objects may
  all carry the same name 'total energy'. Definitions:

  Total energy of the DFT / Hartree-Fock s.c.f. calculation:
  | Note that this energy does not include ANY quantities calculated after the
  | s.c.f. cycle, in particular not ANY RPA, MP2, etc. many-body perturbation terms.

  Final zero-broadening corrected energy:
  | For metallic systems only, a broadening of the occupation numbers at the Fermi
  | level can be extrapolated back to zero broadening by an electron-gas inspired
  | formula. For all systems that are not real metals, this value can be
  | meaningless and should be avoided.

------------------------------------------------------------------------------
  Methods described in the following list of references were used in this FHI-aims run.
  If you publish the results, please make sure to cite these reference if they apply.
  FHI-aims is an academic code, and for our developers (often, Ph.D. students
  and postdocs), scientific credit in the community is essential.
  Thank you for helping us!

  For any use of FHI-aims, please cite:

    Volker Blum, Ralf Gehrke, Felix Hanke, Paula Havu, Ville Havu,
    Xinguo Ren, Karsten Reuter, and Matthias Scheffler
    'Ab initio molecular simulations with numeric atom-centered orbitals'
    Computer Physics Communications 180, 2175-2196 (2009)
    http://doi.org/10.1016/j.cpc.2009.06.022


  The provided symmetry information was generated with SPGlib:

    Atsushi Togo, Yusuke Seto, Dimitar Pashov
    SPGlib 1.7.3 obtained from http://spglib.sourceforge.net
    Licence: New BSD license
    Copyright (C) 2008 Atsushi Togo


  The ELSI infrastructure was used in your run to solve the Kohn-Sham electronic structure.
  Please check out https://wordpress.elsi-interchange.org to learn more.
  If scalability is important for your project, please acknowledge ELSI by citing:

    V. W-z. Yu, F. Corsetti, A. Garcia, W. P. Huhn, M. Jacquelin, W. Jia,
    B. Lange, L. Lin, J. Lu, W. Mi, A. Seifitokaldani, A. Vazquez-Mayagoitia,
    C. Yang, H. Yang, and V. Blum
    'ELSI: A unified software interface for Kohn-Sham electronic structure solvers'
    Computer Physics Communications 222, 267-285 (2018).
    http://doi.org/10.1016/j.cpc.2017.09.007


  For the real-space grid partitioning and parallelization used in this calculation, please cite:

    Ville Havu, Volker Blum, Paula Havu, and Matthias Scheffler,
    'Efficient O(N) integration for all-electron electronic structure calculation'
    'using numerically tabulated basis functions'
    Journal of Computational Physics 228, 8367-8379 (2009).
    http://doi.org/10.1016/j.jcp.2009.08.008

  Of course, there are many other important community references, e.g., those cited in the
  above references. Our list is limited to references that describe implementations in the
  FHI-aims code. The reason is purely practical (length of this list) - please credit others as well.
------------------------------------------------------------
Warnings summary:

At least    0 warnings were raised during execution.

------------------------------------------------------------
          Leaving FHI-aims.
          Date     :  20260814, Time     :  171338.004

          Computational steps:
          | Number of self-consistency cycles          :            1
          | Number of SCF (re)initializations          :            1

          Detailed time accounting                     :  max(cpu_time)    wall_clock(cpu1)
          | Total time                                  :        2.642 s           2.800 s
          | Preparation time                            :        0.111 s           0.111 s
          | Boundary condition initalization            :        0.230 s           0.250 s
          | Grid partitioning                           :        0.040 s           0.040 s
          | Preloading free-atom quantities on grid     :        0.063 s           0.064 s
          | Free-atom superposition energy              :        0.009 s           0.010 s
          | Total time for integrations                 :        0.454 s           0.462 s
          | Total time for solution of K.-S. equations  :        0.058 s           0.059 s
          | Total time for density update               :        0.337 s           0.340 s
          | Total time for mixing                       :        0.001 s           0.000 s
          | Total time for Hartree multipole update     :        0.008 s           0.009 s
          | Total time for Hartree multipole sum        :        0.034 s           0.034 s
          | Total time for total energy evaluation      :        0.001 s           0.001 s
          | Total time for scaled ZORA corrections      :        0.000 s           0.000 s
          | Total time for matrix I/O                   :        0.051 s           0.118 s
          | Total time for Wannier Center Evolution     :        0.379 s           0.383 s

          Partial memory accounting:
          | Residual value for overall tracked memory usage across tasks:     0.000000 MB (should be 0.000000 MB)
          | Peak values for overall tracked memory usage:
          |   Minimum:       24.977 MB (on task 165 after allocating dipolemat_shell)
          |   Maximum:       26.553 MB (on task 184 after allocating dipolemat_shell)
          |   Average:       25.585 MB
          | Largest tracked array allocation:
          |   Minimum:        4.418 MB (hamiltonian_shell on task 165)
          |   Maximum:        5.828 MB (hamiltonian_shell on task 184)
          |   Average:        4.968 MB
          Note:  These values currently only include a subset of arrays which are explicitly tracked.
          The "true" memory usage will be greater.

          Have a nice day.
------------------------------------------------------------
