------------------------------------------------------------
          Invoking FHI-aims ...

          When using FHI-aims, please cite the following reference:

            Volker Blum, Ralf Gehrke, Felix Hanke, Paula Havu,
            Ville Havu, Xinguo Ren, Karsten Reuter, and Matthias Scheffler,
            'Ab Initio Molecular Simulations with Numeric Atom-Centered Orbitals',
            Computer Physics Communications 180, 2175-2196 (2009)

          In addition, many other developments in FHI-aims are likely important for
          your particular application. If so, please cite them. A partial list of references
          is written at the end of this file. Thank you for giving credit to the authors
          of these developments.

          For general information about FHI-aims please find us at

            https://fhi-aims.org

          Online tutorials can be found at

            https://fhi-aims-club.gitlab.io/tutorials/tutorials-overview/

          For any questions about FHI-aims, please visit our slack channel at

            https://fhi-aims.slack.com

          and our main development and support site at

            https://aims-git.rz-berlin.mpg.de .

          The latter site, in particular, has a wiki to collect information, as well
          as an issue tracker to log discussions, suggest improvements, and report issues
          or bugs. https://aims-git.rz-berlin.mpg.de is also the main development site
          of the project and all new and updated code versions can be obtained there.
          Please send an email to aims-coordinators@ms1p.org and we will add
          you to these sites. They are for you and everyone is welcome there.

------------------------------------------------------------



  Date     :  20260729, Time     :  141220.548
  Time zero on CPU 1             :   0.384616000000000E+00  s.
  Internal wall clock time zero  :           554566340.548  s.

  FHI-aims created a unique identifier for this run for later identification
  aims_uuid : A848A970-DFF0-4EFE-A071-8F027BB0E614

  Build configuration of the current instance of FHI-aims
  -------------------------------------------------------
  FHI-aims version      : 260527
  Commit number         : 59e070fb4
  CMake host system     : Linux-5.14.0-570.103.1.el9_6.x86_64
  CMake version         : 3.26.5
  OS Distribution       : Red Hat Enterprise Linux 9.6 (Plow)
  Built on              : AMD EPYC 9554 64-Core Processor
  Fortran compiler      : /mpcdf/soft/RHEL_9/packages/x86_64/intel_oneapi/2024.0/mpi/2021.11/bin/mpiifort (Intel) version 2021.1.0.20231117
  Fortran compiler flags: -O3 -ip -fp-model precise -diag-disable=10448
  C compiler            : /mpcdf/soft/RHEL_9/packages/x86_64/intel/2024.0.2/bin/icx (IntelLLVM) version 2024.0.2
  C compiler flags      : -O3 -std=gnu99
  C++ compiler          : /mpcdf/soft/RHEL_9/packages/x86_64/intel/2024.0.2/bin/icpx (IntelLLVM) version 2024.0.2
  C++ compiler flags    : -O3 -std=c++14
  HIP compiler          :
  HIP compiler flags    :
  HIP GPU arch          :
  Using MPI
  Using ScaLAPACK
  Using LibXC
  Using i-PI
  Using RLSY
  Using GREENX
  Linking against: /mpcdf/soft/RHEL_9/packages/x86_64/intel_oneapi/2024.0/mkl/latest/lib/libmkl_intel_lp64.so
                   /mpcdf/soft/RHEL_9/packages/x86_64/intel_oneapi/2024.0/mkl/latest/lib/libmkl_sequential.so
                   /mpcdf/soft/RHEL_9/packages/x86_64/intel_oneapi/2024.0/mkl/latest/lib/libmkl_core.so
                   /mpcdf/soft/RHEL_9/packages/x86_64/intel_oneapi/2024.0/mkl/latest/lib/libmkl_blacs_intelmpi_lp64.so
                   /mpcdf/soft/RHEL_9/packages/x86_64/intel_oneapi/2024.0/mkl/latest/lib/libmkl_scalapack_lp64.so

  Using      128 parallel tasks.
  Task        0 on host vipc2057 reporting.
  Task        1 on host vipc2057 reporting.
  Task        2 on host vipc2057 reporting.
  Task        3 on host vipc2057 reporting.
  Task        4 on host vipc2057 reporting.
  Task        5 on host vipc2057 reporting.
  Task        6 on host vipc2057 reporting.
  Task        7 on host vipc2057 reporting.
  Task        8 on host vipc2057 reporting.
  Task        9 on host vipc2057 reporting.
  Task       10 on host vipc2057 reporting.
  Task       11 on host vipc2057 reporting.
  Task       12 on host vipc2057 reporting.
  Task       13 on host vipc2057 reporting.
  Task       14 on host vipc2057 reporting.
  Task       15 on host vipc2057 reporting.
  Task       16 on host vipc2057 reporting.
  Task       17 on host vipc2057 reporting.
  Task       18 on host vipc2057 reporting.
  Task       19 on host vipc2057 reporting.
  Task       20 on host vipc2057 reporting.
  Task       21 on host vipc2057 reporting.
  Task       22 on host vipc2057 reporting.
  Task       23 on host vipc2057 reporting.
  Task       24 on host vipc2057 reporting.
  Task       25 on host vipc2057 reporting.
  Task       26 on host vipc2057 reporting.
  Task       27 on host vipc2057 reporting.
  Task       28 on host vipc2057 reporting.
  Task       29 on host vipc2057 reporting.
  Task       30 on host vipc2057 reporting.
  Task       31 on host vipc2057 reporting.
  Task       32 on host vipc2057 reporting.
  Task       33 on host vipc2057 reporting.
  Task       34 on host vipc2057 reporting.
  Task       35 on host vipc2057 reporting.
  Task       36 on host vipc2057 reporting.
  Task       37 on host vipc2057 reporting.
  Task       38 on host vipc2057 reporting.
  Task       39 on host vipc2057 reporting.
  Task       40 on host vipc2057 reporting.
  Task       41 on host vipc2057 reporting.
  Task       42 on host vipc2057 reporting.
  Task       43 on host vipc2057 reporting.
  Task       44 on host vipc2057 reporting.
  Task       45 on host vipc2057 reporting.
  Task       46 on host vipc2057 reporting.
  Task       47 on host vipc2057 reporting.
  Task       48 on host vipc2057 reporting.
  Task       49 on host vipc2057 reporting.
  Task       50 on host vipc2057 reporting.
  Task       51 on host vipc2057 reporting.
  Task       52 on host vipc2057 reporting.
  Task       53 on host vipc2057 reporting.
  Task       54 on host vipc2057 reporting.
  Task       55 on host vipc2057 reporting.
  Task       56 on host vipc2057 reporting.
  Task       57 on host vipc2057 reporting.
  Task       58 on host vipc2057 reporting.
  Task       59 on host vipc2057 reporting.
  Task       60 on host vipc2057 reporting.
  Task       61 on host vipc2057 reporting.
  Task       62 on host vipc2057 reporting.
  Task       63 on host vipc2057 reporting.
  Task       64 on host vipc2057 reporting.
  Task       65 on host vipc2057 reporting.
  Task       66 on host vipc2057 reporting.
  Task       67 on host vipc2057 reporting.
  Task       68 on host vipc2057 reporting.
  Task       69 on host vipc2057 reporting.
  Task       70 on host vipc2057 reporting.
  Task       71 on host vipc2057 reporting.
  Task       72 on host vipc2057 reporting.
  Task       73 on host vipc2057 reporting.
  Task       74 on host vipc2057 reporting.
  Task       75 on host vipc2057 reporting.
  Task       76 on host vipc2057 reporting.
  Task       77 on host vipc2057 reporting.
  Task       78 on host vipc2057 reporting.
  Task       79 on host vipc2057 reporting.
  Task       80 on host vipc2057 reporting.
  Task       81 on host vipc2057 reporting.
  Task       82 on host vipc2057 reporting.
  Task       83 on host vipc2057 reporting.
  Task       84 on host vipc2057 reporting.
  Task       85 on host vipc2057 reporting.
  Task       86 on host vipc2057 reporting.
  Task       87 on host vipc2057 reporting.
  Task       88 on host vipc2057 reporting.
  Task       89 on host vipc2057 reporting.
  Task       90 on host vipc2057 reporting.
  Task       91 on host vipc2057 reporting.
  Task       92 on host vipc2057 reporting.
  Task       93 on host vipc2057 reporting.
  Task       94 on host vipc2057 reporting.
  Task       95 on host vipc2057 reporting.
  Task       96 on host vipc2057 reporting.
  Task       97 on host vipc2057 reporting.
  Task       98 on host vipc2057 reporting.
  Task       99 on host vipc2057 reporting.
  Task      100 on host vipc2057 reporting.
  Task      101 on host vipc2057 reporting.
  Task      102 on host vipc2057 reporting.
  Task      103 on host vipc2057 reporting.
  Task      104 on host vipc2057 reporting.
  Task      105 on host vipc2057 reporting.
  Task      106 on host vipc2057 reporting.
  Task      107 on host vipc2057 reporting.
  Task      108 on host vipc2057 reporting.
  Task      109 on host vipc2057 reporting.
  Task      110 on host vipc2057 reporting.
  Task      111 on host vipc2057 reporting.
  Task      112 on host vipc2057 reporting.
  Task      113 on host vipc2057 reporting.
  Task      114 on host vipc2057 reporting.
  Task      115 on host vipc2057 reporting.
  Task      116 on host vipc2057 reporting.
  Task      117 on host vipc2057 reporting.
  Task      118 on host vipc2057 reporting.
  Task      119 on host vipc2057 reporting.
  Task      120 on host vipc2057 reporting.
  Task      121 on host vipc2057 reporting.
  Task      122 on host vipc2057 reporting.
  Task      123 on host vipc2057 reporting.
  Task      124 on host vipc2057 reporting.
  Task      125 on host vipc2057 reporting.
  Task      126 on host vipc2057 reporting.
  Task      127 on host vipc2057 reporting.

  Obtaining array dimensions for all initial allocations:
  
  -----------------------------------------------------------------------
  Parsing control.in (first pass over file, find array dimensions only).
  The contents of control.in will be repeated verbatim below
  unless switched off by setting 'verbatim_writeout .false.' .
  in the first line of control.in .
  -----------------------------------------------------------------------
  
  xc                           pw-lda
  relativistic                 atomic_zora scalar
  k_grid                       8 8 8
  sc_accuracy_rho              1e-8
  output polarization          1 80  8  8
  output polarization          2  8 80  8
  output polarization          3  8  8 80
  
  ################################################################################
  #
  #  FHI-aims code project
  #  Volker Blum, Fritz Haber Institute Berlin, 2009
  #
  #  Suggested "tight" defaults for Ba atom (to be pasted into control.in file)
  #
  #  The onset of the cutoff pot'l WAS set to 8 A by default, because the neutral
  #  Ba atom is a large atom. However, this is very expensive. The radius should be
  #  much smaller in real-world situations, where Ba will be ionic. Please check
  #  and reduce the cutoff radius explicitly.
  #
  #  2015/11/12 : f and g functions from tier2 added to default basis set choice.
  #               These functions make a difference in the "delta test".
  #               Reduced the default cutoff radius to 6AA. The free-atom 6s function
  #               requires more. However, 6AA is already VERY expensive for
  #               any production calculations. In fact, revisit this choice for
  #               ionic systems to see if a smaller cutoff radius will do.
  #
  ################################################################################
    species          Ba
  #     global species definitions
      nucleus        56
      mass           137.327
  #
      l_hartree      6
  #
      cut_pot        6.0  2.0  1.0
      basis_dep_cutoff    1e-4
  #
      radial_base    65  7.0
      radial_multiplier  2
      angular_grids specified
        division   0.6752  110
        division   0.9746  194
        division   1.2241  302
        division   1.3850  434
  #      division   1.4734  590
  #      division   1.6010  770
  #      division   4.8366  974
  #      outer_grid  974
        outer_grid  434
  ################################################################################
  #
  #  Definition of "minimal" basis
  #
  ################################################################################
  #     valence basis states
      valence      6  s   2.
      valence      5  p   6.
      valence      4  d  10.
  #     ion occupancy
      ion_occ      6  s   1.
      ion_occ      5  p   6.
      ion_occ      4  d  10.
  ################################################################################
  #
  #  Suggested additional basis functions. For production calculations,
  #  uncomment them one after another (the most important basis functions are
  #  listed first).
  #
  #  Constructed for dimers: 2.65, 3.00, 3.50, 4.40, 5.50 Ang
  #
  ################################################################################
  #  "First tier" - improvements: -1277.43 meV to -9.16 meV
       ionic 5 d auto
       ionic 4 f auto
       hydro 3 p 2.7
       hydro 4 s 3.3
  #  "Second tier" - improvements: -64.04 (!) meV to -0.25 meV
       hydro 4 f 5.8
       hydro 5 g 7.4
  #     hydro 4 d 4.5
  #     hydro 6 h 11.2
  #     hydro 5 p 6.6
  #     hydro 2 s 3.2
  #  "Third tier" - max. impr. -1.16 meV, min. impr. -0.08 meV
  #     hydro 5 f 7.4
  #     hydro 5 g 10.8
  #     hydro 4 d 2.3
  #     hydro 4 p 3.7
  #     hydro 5 s 4.0
  #  Further functions - impr. -0.35 meV and below
  #     hydro 5 d 3.5
  #     hydro 6 d 0.4
  #     hydro 2 p 2.5
  #     hydro 5 f 12
  #     hydro 6 d 8.8
  ################################################################################
  #
  #  FHI-aims code project
  #  Volker Blum, Fritz Haber Institute Berlin, 2009
  #
  #  Suggested "tight" defaults for O atom (to be pasted into control.in file)
  #
  ################################################################################
    species        O
  #     global species definitions
      nucleus             8
      mass                15.9994
  #
      l_hartree           6
  #
      cut_pot             4.0  2.0  1.0
      basis_dep_cutoff    1e-4
  #
      radial_base         36 7.0
      radial_multiplier   2
       angular_grids specified
        division   0.1817   50
        division   0.3417  110
        division   0.4949  194
        division   0.6251  302
        division   0.8014  434
  #      division   0.8507  590
  #      division   0.8762  770
  #      division   0.9023  974
  #      division   1.2339 1202
  #      outer_grid 974
        outer_grid  434
  ################################################################################
  #
  #  Definition of "minimal" basis
  #
  ################################################################################
  #     valence basis states
      valence      2  s   2.
      valence      2  p   4.
  #     ion occupancy
      ion_occ      2  s   1.
      ion_occ      2  p   3.
  ################################################################################
  #
  #  Suggested additional basis functions. For production calculations,
  #  uncomment them one after another (the most important basis functions are
  #  listed first).
  #
  #  Constructed for dimers: 1.0 A, 1.208 A, 1.5 A, 2.0 A, 3.0 A
  #
  ################################################################################
  #  "First tier" - improvements: -699.05 meV to -159.38 meV
       hydro 2 p 1.8
       hydro 3 d 7.6
       hydro 3 s 6.4
  #  "Second tier" - improvements: -49.91 meV to -5.39 meV
       hydro 4 f 11.6
       hydro 3 p 6.2
       hydro 3 d 5.6
       hydro 5 g 17.6
       hydro 1 s 0.75
  #  "Third tier" - improvements: -2.83 meV to -0.50 meV
  #     ionic 2 p auto
  #     hydro 4 f 10.8
  #     hydro 4 d 4.7
  #     hydro 2 s 6.8
  #  "Fourth tier" - improvements: -0.40 meV to -0.12 meV
  #     hydro 3 p 5
  #     hydro 3 s 3.3
  #     hydro 5 g 15.6
  #     hydro 4 f 17.6
  #     hydro 4 d 14
  # Further basis functions - -0.08 meV and below
  #     hydro 3 s 2.1
  #     hydro 4 d 11.6
  #     hydro 3 p 16
  #     hydro 2 s 17.2
  ################################################################################
  #
  # For methods that use the localized form of the "resolution of identity" for
  # the two-electron Coulomb operator (RI_method LVL), particularly Hartree-Fock and
  # hybrid density functional calculations, the highest accuracy can be obtained by
  # uncommenting the line beginning with "for_aux"  below, thus adding an extra g radial
  # function to the construction of the product basis set for the expansion.
  # See Ref. New J. Phys. 17, 093020 (2015) for more information, particularly Figs. 1 and 6.
  #
  ################################################################################
  #
  # for_aux hydro 5 g 6.0
  ################################################################################
  #
  #  FHI-aims code project
  #  Volker Blum, Fritz Haber Institute Berlin, 2009
  #
  #  Suggested "tight" defaults for Ti atom (to be pasted into control.in file)
  #
  ################################################################################
    species        Ti
  #     global species definitions
      nucleus             22
      mass                47.867
  #
      l_hartree           6
  #
      cut_pot             4.0          2.0  1.0
      basis_dep_cutoff    1e-4
  #
      radial_base         48 7.0
      radial_multiplier   2
      angular_grids       specified
        division   0.3263   50
        division   0.7218  110
        division   1.0925  194
        division   1.3188  302
        division   1.4940  434
  #      division   1.6583  590
  #      division   1.8821  770
  #      division   2.0961  974
  #      division   3.3854 1202
  #      outer_grid  974
        outer_grid  434
  ################################################################################
  #
  #  Definition of "minimal" basis
  #
  ################################################################################
  #     valence basis states
      valence      4  s   2.
      valence      3  p   6.
      valence      3  d   2.
  #     ion occupancy
      ion_occ      4  s   1.
      ion_occ      3  p   6.
      ion_occ      3  d   1.
  ################################################################################
  #
  #  Suggested additional basis functions. For production calculations,
  #  uncomment them one after another (the most important basis functions are
  #  listed first).
  #
  #  Constructed for dimers: 1.6 A, 1.85 A, 2.5 A, 3.25 A, 4.25 A
  #
  ################################################################################
  #  "First tier" - improvements: -396.25 meV to -19.41 meV
       hydro 4 f 8
       hydro 3 d 2.7
       ionic 4 p auto
       hydro 5 g 11.6
       ionic 4 s auto
  #  "Second tier" - improvements: -16.30 meV to -2.03 meV
  #     hydro 3 d 4.4
  #     hydro 6 h 16
  #     hydro 4 f 9.4
  #     hydro 4 p 4.5
  #     hydro 1 s 0.5
  #  "Third tier" - improvements: -6.28 meV to -0.37 meV
  #     hydro 4 d 6.4
  #     hydro 4 f 10
  #     hydro 5 g 12
  #     hydro 2 p 1.7
  #     hydro 6 h 16.4
  #     hydro 4 s 3.8
  #  Further basis functions: -0.45 meV and smaller improvements
  #     hydro 3 d 8.8
  #     hydro 5 p 18
  #     hydro 4 f 22.4
  #     hydro 5 f 7.2  # -0.16 meV
  #     hydro 3 d 2.1  # -0.11 meV
  #     hydro 5 g 7.4  # -0.09 meV
  
  -----------------------------------------------------------------------
  Completed first pass over input file control.in .
  -----------------------------------------------------------------------
  
  
  -----------------------------------------------------------------------
  Parsing geometry.in (first pass over file, find array dimensions only).
  The contents of geometry.in will be repeated verbatim below
  unless switched off by setting 'verbatim_writeout .false.' .
  in the first line of geometry.in .
  -----------------------------------------------------------------------
  
  #===============================================================================
  # Created using the Atomic Simulation Environment (ASE)
  
  # Wed Jul 29 13:34:51 2026
  
  #=======================================================
  lattice_vector 3.9580000000000002 0.0000000000000000 0.0000000000000000
  lattice_vector 0.0000000000000000 3.9580000000000002 0.0000000000000000
  lattice_vector 0.0000000000000000 0.0000000000000000 3.9580000000000002
  atom 1.9790000000000001 1.9790000000000001 1.9790000000000001 Ba
  atom 0.0000000000000000 0.0000000000000000 0.0000000000000000 Ti
  atom 0.0000000000000000 0.0000000000000000 1.9790000000000001 O
  atom 1.9790000000000001 0.0000000000000000 0.0000000000000000 O
  atom 0.0000000000000000 1.9790000000000001 0.0000000000000000 O
  
  -----------------------------------------------------------------------
  Completed first pass over input file geometry.in .
  -----------------------------------------------------------------------
  

  Basic array size parameters:
  | Number of species                 :        3
  | Number of atoms                   :        5
  | Number of lattice vectors         :        3
  | Max. basis fn. angular momentum   :        4
  | Max. atomic/ionic basis occupied n:        6
  | Max. number of basis fn. types    :        3
  | Max. radial fns per species/type  :       12
  | Max. logarithmic grid size        :     1460
  | Max. radial integration grid size :      131
  | Max. angular integration grid size:      434
  | Max. angular grid division number :        8
  | Radial grid for Hartree potential :     1460
  | Number of spin channels           :        1

  Definition of standardized fundamental physical constants in this FHI-aims run:
  | Using the set of values used in FHI-aims up to 2024, which combines values from
  | different CODATA sets - see constants.f90.
  | Use the 'codata' keyword in control.in to change this selection.

  Memory overcommitment is allowed on your operating system.

------------------------------------------------------------
          Reading file control.in.
------------------------------------------------------------
  XC: Using Perdew-Wang parametrisation of Ceperley-Alder LDA.
  Scalar relativistic treatment of kinetic energy: on-site free-atom approximation to ZORA.
  Found k-point grid:         8         8         8
  Convergence accuracy of self-consistent charge density:  0.1000E-07

  Polarization directive number:    1
  | Calculating polarization along reciprocal lattice vector 1 using   80 k-points parallel to this direction.
  | Full Brillouin zone sampling is thus performed on a    80 x     8 x     8 grid

  Polarization directive number:    2
  | Calculating polarization along reciprocal lattice vector 2 using   80 k-points parallel to this direction.
  | Full Brillouin zone sampling is thus performed on a     8 x    80 x     8 grid

  Polarization directive number:    3
  | Calculating polarization along reciprocal lattice vector 3 using   80 k-points parallel to this direction.
  | Full Brillouin zone sampling is thus performed on a     8 x     8 x    80 grid
 
  Reading configuration options for species Ba                  .
  | Found nuclear charge :  56.0000
  | Found atomic mass :    137.327000000000      amu
  | Found l_max for Hartree potential  :   6
  | Found cutoff potl. onset [A], width [A], scale factor :    6.00000    2.00000    1.00000
  | Threshold for basis-dependent cutoff potential is   0.100000E-03
  | Found data for basic radial integration grid :    65 points, outermost radius =    7.000 A
  | Found multiplier for basic radial grid :   2
  | Found angular grid specification: user-specified.
  | Specified grid contains     5 separate shells.
  | Check grid settings after all constraints further below.
  | Found free-atom valence shell :  6 s   2.000
  | Found free-atom valence shell :  5 p   6.000
  | Found free-atom valence shell :  4 d  10.000
  | Found free-ion valence shell :  6 s   1.000
  | Found free-ion valence shell :  5 p   6.000
  | Found free-ion valence shell :  4 d  10.000
  | Found ionic basis function :  5 d , default cutoff radius.
  | Found ionic basis function :  4 f , default cutoff radius.
  | Found hydrogenic basis function :  3 p   2.700
  | Found hydrogenic basis function :  4 s   3.300
  | Found hydrogenic basis function :  4 f   5.800
  | Found hydrogenic basis function :  5 g   7.400
 | Encountered keyword species, ending the description of species Ba                  .
  Species Ba                  : Missing cutoff potential type.
  Defaulting to exp(1/x)/(1-x)^2 type cutoff potential.
  Species Ba: No 'logarithmic' tag. Using default grid for free atom:
  | Default logarithmic grid data [bohr] : 0.1000E-03 0.1000E+03 0.1012E+01
  | Will include ionic basis functions of  1.0-fold positive Ba                   ion.
  Species Ba: On-site basis accuracy parameter (for Gram-Schmidt orthonormalisation) not specified.
  Using default value basis_acc =  0.1000000E-03.
  Species Ba                  : Using default innermost maximum threshold i_radial=  2 for radial functions.
  Species Ba                  : Default cutoff onset for free atom density etc. : 0.60000000E+01 AA.
  Species Ba                  : Basic radial grid will be enhanced according to radial_multiplier =   2, to contain   131 grid points.
 
  Reading configuration options for species O                   .
  | Found nuclear charge :   8.0000
  | Found atomic mass :    15.9994000000000      amu
  | Found l_max for Hartree potential  :   6
  | Found cutoff potl. onset [A], width [A], scale factor :    4.00000    2.00000    1.00000
  | Threshold for basis-dependent cutoff potential is   0.100000E-03
  | Found data for basic radial integration grid :    36 points, outermost radius =    7.000 A
  | Found multiplier for basic radial grid :   2
  | Found angular grid specification: user-specified.
  | Specified grid contains     6 separate shells.
  | Check grid settings after all constraints further below.
  | Found free-atom valence shell :  2 s   2.000
  | Found free-atom valence shell :  2 p   4.000
  | Found free-ion valence shell :  2 s   1.000
  | Found free-ion valence shell :  2 p   3.000
  | Found hydrogenic basis function :  2 p   1.800
  | Found hydrogenic basis function :  3 d   7.600
  | Found hydrogenic basis function :  3 s   6.400
  | Found hydrogenic basis function :  4 f  11.600
  | Found hydrogenic basis function :  3 p   6.200
  | Found hydrogenic basis function :  3 d   5.600
  | Found hydrogenic basis function :  5 g  17.600
  | Found hydrogenic basis function :  1 s   0.750
 | Encountered keyword species, ending the description of species O                   .
  Species O                   : Missing cutoff potential type.
  Defaulting to exp(1/x)/(1-x)^2 type cutoff potential.
  Species O : No 'logarithmic' tag. Using default grid for free atom:
  | Default logarithmic grid data [bohr] : 0.1000E-03 0.1000E+03 0.1012E+01
  Species O : On-site basis accuracy parameter (for Gram-Schmidt orthonormalisation) not specified.
  Using default value basis_acc =  0.1000000E-03.
  Species O                   : Using default innermost maximum threshold i_radial=  2 for radial functions.
  Species O                   : Default cutoff onset for free atom density etc. : 0.40000000E+01 AA.
  Species O                   : Basic radial grid will be enhanced according to radial_multiplier =   2, to contain    73 grid points.
 
  Reading configuration options for species Ti                  .
  | Found nuclear charge :  22.0000
  | Found atomic mass :    47.8670000000000      amu
  | Found l_max for Hartree potential  :   6
  | Found cutoff potl. onset [A], width [A], scale factor :    4.00000    2.00000    1.00000
  | Threshold for basis-dependent cutoff potential is   0.100000E-03
  | Found data for basic radial integration grid :    48 points, outermost radius =    7.000 A
  | Found multiplier for basic radial grid :   2
  | Found angular grid specification: user-specified.
  | Specified grid contains     6 separate shells.
  | Check grid settings after all constraints further below.
  | Found free-atom valence shell :  4 s   2.000
  | Found free-atom valence shell :  3 p   6.000
  | Found free-atom valence shell :  3 d   2.000
  | Found free-ion valence shell :  4 s   1.000
  | Found free-ion valence shell :  3 p   6.000
  | Found free-ion valence shell :  3 d   1.000
  | Found hydrogenic basis function :  4 f   8.000
  | Found hydrogenic basis function :  3 d   2.700
  | Found ionic basis function :  4 p , default cutoff radius.
  | Found hydrogenic basis function :  5 g  11.600
  | Found ionic basis function :  4 s , default cutoff radius.
  Species Ti                  : Missing cutoff potential type.
  Defaulting to exp(1/x)/(1-x)^2 type cutoff potential.
  Species Ti: No 'logarithmic' tag. Using default grid for free atom:
  | Default logarithmic grid data [bohr] : 0.1000E-03 0.1000E+03 0.1012E+01
  | Will include ionic basis functions of  2.0-fold positive Ti                   ion.
  Species Ti: On-site basis accuracy parameter (for Gram-Schmidt orthonormalisation) not specified.
  Using default value basis_acc =  0.1000000E-03.
  Species Ti                  : Using default innermost maximum threshold i_radial=  2 for radial functions.
  Species Ti                  : Default cutoff onset for free atom density etc. : 0.40000000E+01 AA.
  Species Ti                  : Basic radial grid will be enhanced according to radial_multiplier =   2, to contain    97 grid points.
 
  Finished reading input file 'control.in'.
 
------------------------------------------------------------


------------------------------------------------------------
          Reading geometry description geometry.in.
------------------------------------------------------------
  | The smallest distance between any two atoms is         1.97900000 AA.
  | The first atom of this pair is atom number                      2 .
  | The second atom of this pair is atom number                     3 .
  | Wigner-Seitz cell of the first atom image           0     0     0 .
  | (The Wigner-Seitz cell of the second atom is 0 0 0  by definition.)

  Symmetry information by spglib:
  | Precision set to  0.1E-04
  | Number of Operations  : 48
  | Space group           : 221
  | International         : Pm-3m
  | Schoenflies           : Oh^1
  Input structure read successfully.
  The structure contains        5 atoms,  and a total of        102.000 electrons.

  Input geometry:
  | Unit cell:
  |        3.95800000        0.00000000        0.00000000
  |        0.00000000        3.95800000        0.00000000
  |        0.00000000        0.00000000        3.95800000
  | Atomic structure:
  |       Atom                x [A]            y [A]            z [A]
  |    1: Species Ba            1.97900000        1.97900000        1.97900000
  |    2: Species Ti            0.00000000        0.00000000        0.00000000
  |    3: Species O             0.00000000        0.00000000        1.97900000
  |    4: Species O             1.97900000        0.00000000        0.00000000
  |    5: Species O             0.00000000        1.97900000        0.00000000

  Lattice parameters for 3D lattice (in Angstroms) :     3.958000    3.958000    3.958000
  Angle(s) between unit vectors (in degrees)       :    90.000000   90.000000   90.000000


  Quantities derived from the lattice vectors (in Angstrom^-1):
  | Reciprocal lattice vector 1:  1.587465  0.000000  0.000000
  | Reciprocal lattice vector 2:  0.000000  1.587465  0.000000
  | Reciprocal lattice vector 3:  0.000000  0.000000  1.587465
  | Unit cell volume                               :   0.620051E+02  Angstrom^3

  Fractional coordinates:
                         L1                L2                L3
       atom_frac         0.50000000        0.50000000        0.50000000  Ba
       atom_frac         0.00000000        0.00000000        0.00000000  Ti
       atom_frac         0.00000000        0.00000000        0.50000000  O
       atom_frac         0.50000000        0.00000000        0.00000000  O
       atom_frac         0.00000000        0.50000000        0.00000000  O

  Slab Identifier: This seems to be a bulk system.
 
  Finished reading input file 'geometry.in'.
 

 
  Consistency checks for stacksize environment parameter are next.
 
  | Maximum stacksize for task 0: unlimited
  | Maximum stacksize for task 1: unlimited
  | Maximum stacksize for task 2: unlimited
  | Maximum stacksize for task 3: unlimited
  | Maximum stacksize for task 4: unlimited
  | Maximum stacksize for task 5: unlimited
  | Maximum stacksize for task 6: unlimited
  | Maximum stacksize for task 7: unlimited
  | Maximum stacksize for task 8: unlimited
  | Maximum stacksize for task 9: unlimited
  | Maximum stacksize for task 10: unlimited
  | Maximum stacksize for task 11: unlimited
  | Maximum stacksize for task 12: unlimited
  | Maximum stacksize for task 13: unlimited
  | Maximum stacksize for task 14: unlimited
  | Maximum stacksize for task 15: unlimited
  | Maximum stacksize for task 16: unlimited
  | Maximum stacksize for task 17: unlimited
  | Maximum stacksize for task 18: unlimited
  | Maximum stacksize for task 19: unlimited
  | Maximum stacksize for task 20: unlimited
  | Maximum stacksize for task 21: unlimited
  | Maximum stacksize for task 22: unlimited
  | Maximum stacksize for task 23: unlimited
  | Maximum stacksize for task 24: unlimited
  | Maximum stacksize for task 25: unlimited
  | Maximum stacksize for task 26: unlimited
  | Maximum stacksize for task 27: unlimited
  | Maximum stacksize for task 28: unlimited
  | Maximum stacksize for task 29: unlimited
  | Maximum stacksize for task 30: unlimited
  | Maximum stacksize for task 31: unlimited
  | Maximum stacksize for task 32: unlimited
  | Maximum stacksize for task 33: unlimited
  | Maximum stacksize for task 34: unlimited
  | Maximum stacksize for task 35: unlimited
  | Maximum stacksize for task 36: unlimited
  | Maximum stacksize for task 37: unlimited
  | Maximum stacksize for task 38: unlimited
  | Maximum stacksize for task 39: unlimited
  | Maximum stacksize for task 40: unlimited
  | Maximum stacksize for task 41: unlimited
  | Maximum stacksize for task 42: unlimited
  | Maximum stacksize for task 43: unlimited
  | Maximum stacksize for task 44: unlimited
  | Maximum stacksize for task 45: unlimited
  | Maximum stacksize for task 46: unlimited
  | Maximum stacksize for task 47: unlimited
  | Maximum stacksize for task 48: unlimited
  | Maximum stacksize for task 49: unlimited
  | Maximum stacksize for task 50: unlimited
  | Maximum stacksize for task 51: unlimited
  | Maximum stacksize for task 52: unlimited
  | Maximum stacksize for task 53: unlimited
  | Maximum stacksize for task 54: unlimited
  | Maximum stacksize for task 55: unlimited
  | Maximum stacksize for task 56: unlimited
  | Maximum stacksize for task 57: unlimited
  | Maximum stacksize for task 58: unlimited
  | Maximum stacksize for task 59: unlimited
  | Maximum stacksize for task 60: unlimited
  | Maximum stacksize for task 61: unlimited
  | Maximum stacksize for task 62: unlimited
  | Maximum stacksize for task 63: unlimited
  | Maximum stacksize for task 64: unlimited
  | Maximum stacksize for task 65: unlimited
  | Maximum stacksize for task 66: unlimited
  | Maximum stacksize for task 67: unlimited
  | Maximum stacksize for task 68: unlimited
  | Maximum stacksize for task 69: unlimited
  | Maximum stacksize for task 70: unlimited
  | Maximum stacksize for task 71: unlimited
  | Maximum stacksize for task 72: unlimited
  | Maximum stacksize for task 73: unlimited
  | Maximum stacksize for task 74: unlimited
  | Maximum stacksize for task 75: unlimited
  | Maximum stacksize for task 76: unlimited
  | Maximum stacksize for task 77: unlimited
  | Maximum stacksize for task 78: unlimited
  | Maximum stacksize for task 79: unlimited
  | Maximum stacksize for task 80: unlimited
  | Maximum stacksize for task 81: unlimited
  | Maximum stacksize for task 82: unlimited
  | Maximum stacksize for task 83: unlimited
  | Maximum stacksize for task 84: unlimited
  | Maximum stacksize for task 85: unlimited
  | Maximum stacksize for task 86: unlimited
  | Maximum stacksize for task 87: unlimited
  | Maximum stacksize for task 88: unlimited
  | Maximum stacksize for task 89: unlimited
  | Maximum stacksize for task 90: unlimited
  | Maximum stacksize for task 91: unlimited
  | Maximum stacksize for task 92: unlimited
  | Maximum stacksize for task 93: unlimited
  | Maximum stacksize for task 94: unlimited
  | Maximum stacksize for task 95: unlimited
  | Maximum stacksize for task 96: unlimited
  | Maximum stacksize for task 97: unlimited
  | Maximum stacksize for task 98: unlimited
  | Maximum stacksize for task 99: unlimited
  | Maximum stacksize for task 100: unlimited
  | Maximum stacksize for task 101: unlimited
  | Maximum stacksize for task 102: unlimited
  | Maximum stacksize for task 103: unlimited
  | Maximum stacksize for task 104: unlimited
  | Maximum stacksize for task 105: unlimited
  | Maximum stacksize for task 106: unlimited
  | Maximum stacksize for task 107: unlimited
  | Maximum stacksize for task 108: unlimited
  | Maximum stacksize for task 109: unlimited
  | Maximum stacksize for task 110: unlimited
  | Maximum stacksize for task 111: unlimited
  | Maximum stacksize for task 112: unlimited
  | Maximum stacksize for task 113: unlimited
  | Maximum stacksize for task 114: unlimited
  | Maximum stacksize for task 115: unlimited
  | Maximum stacksize for task 116: unlimited
  | Maximum stacksize for task 117: unlimited
  | Maximum stacksize for task 118: unlimited
  | Maximum stacksize for task 119: unlimited
  | Maximum stacksize for task 120: unlimited
  | Maximum stacksize for task 121: unlimited
  | Maximum stacksize for task 122: unlimited
  | Maximum stacksize for task 123: unlimited
  | Maximum stacksize for task 124: unlimited
  | Maximum stacksize for task 125: unlimited
  | Maximum stacksize for task 126: unlimited
  | Maximum stacksize for task 127: unlimited
  | Current stacksize for task 0: unlimited
  | Current stacksize for task 1: unlimited
  | Current stacksize for task 2: unlimited
  | Current stacksize for task 3: unlimited
  | Current stacksize for task 4: unlimited
  | Current stacksize for task 5: unlimited
  | Current stacksize for task 6: unlimited
  | Current stacksize for task 7: unlimited
  | Current stacksize for task 8: unlimited
  | Current stacksize for task 9: unlimited
  | Current stacksize for task 10: unlimited
  | Current stacksize for task 11: unlimited
  | Current stacksize for task 12: unlimited
  | Current stacksize for task 13: unlimited
  | Current stacksize for task 14: unlimited
  | Current stacksize for task 15: unlimited
  | Current stacksize for task 16: unlimited
  | Current stacksize for task 17: unlimited
  | Current stacksize for task 18: unlimited
  | Current stacksize for task 19: unlimited
  | Current stacksize for task 20: unlimited
  | Current stacksize for task 21: unlimited
  | Current stacksize for task 22: unlimited
  | Current stacksize for task 23: unlimited
  | Current stacksize for task 24: unlimited
  | Current stacksize for task 25: unlimited
  | Current stacksize for task 26: unlimited
  | Current stacksize for task 27: unlimited
  | Current stacksize for task 28: unlimited
  | Current stacksize for task 29: unlimited
  | Current stacksize for task 30: unlimited
  | Current stacksize for task 31: unlimited
  | Current stacksize for task 32: unlimited
  | Current stacksize for task 33: unlimited
  | Current stacksize for task 34: unlimited
  | Current stacksize for task 35: unlimited
  | Current stacksize for task 36: unlimited
  | Current stacksize for task 37: unlimited
  | Current stacksize for task 38: unlimited
  | Current stacksize for task 39: unlimited
  | Current stacksize for task 40: unlimited
  | Current stacksize for task 41: unlimited
  | Current stacksize for task 42: unlimited
  | Current stacksize for task 43: unlimited
  | Current stacksize for task 44: unlimited
  | Current stacksize for task 45: unlimited
  | Current stacksize for task 46: unlimited
  | Current stacksize for task 47: unlimited
  | Current stacksize for task 48: unlimited
  | Current stacksize for task 49: unlimited
  | Current stacksize for task 50: unlimited
  | Current stacksize for task 51: unlimited
  | Current stacksize for task 52: unlimited
  | Current stacksize for task 53: unlimited
  | Current stacksize for task 54: unlimited
  | Current stacksize for task 55: unlimited
  | Current stacksize for task 56: unlimited
  | Current stacksize for task 57: unlimited
  | Current stacksize for task 58: unlimited
  | Current stacksize for task 59: unlimited
  | Current stacksize for task 60: unlimited
  | Current stacksize for task 61: unlimited
  | Current stacksize for task 62: unlimited
  | Current stacksize for task 63: unlimited
  | Current stacksize for task 64: unlimited
  | Current stacksize for task 65: unlimited
  | Current stacksize for task 66: unlimited
  | Current stacksize for task 67: unlimited
  | Current stacksize for task 68: unlimited
  | Current stacksize for task 69: unlimited
  | Current stacksize for task 70: unlimited
  | Current stacksize for task 71: unlimited
  | Current stacksize for task 72: unlimited
  | Current stacksize for task 73: unlimited
  | Current stacksize for task 74: unlimited
  | Current stacksize for task 75: unlimited
  | Current stacksize for task 76: unlimited
  | Current stacksize for task 77: unlimited
  | Current stacksize for task 78: unlimited
  | Current stacksize for task 79: unlimited
  | Current stacksize for task 80: unlimited
  | Current stacksize for task 81: unlimited
  | Current stacksize for task 82: unlimited
  | Current stacksize for task 83: unlimited
  | Current stacksize for task 84: unlimited
  | Current stacksize for task 85: unlimited
  | Current stacksize for task 86: unlimited
  | Current stacksize for task 87: unlimited
  | Current stacksize for task 88: unlimited
  | Current stacksize for task 89: unlimited
  | Current stacksize for task 90: unlimited
  | Current stacksize for task 91: unlimited
  | Current stacksize for task 92: unlimited
  | Current stacksize for task 93: unlimited
  | Current stacksize for task 94: unlimited
  | Current stacksize for task 95: unlimited
  | Current stacksize for task 96: unlimited
  | Current stacksize for task 97: unlimited
  | Current stacksize for task 98: unlimited
  | Current stacksize for task 99: unlimited
  | Current stacksize for task 100: unlimited
  | Current stacksize for task 101: unlimited
  | Current stacksize for task 102: unlimited
  | Current stacksize for task 103: unlimited
  | Current stacksize for task 104: unlimited
  | Current stacksize for task 105: unlimited
  | Current stacksize for task 106: unlimited
  | Current stacksize for task 107: unlimited
  | Current stacksize for task 108: unlimited
  | Current stacksize for task 109: unlimited
  | Current stacksize for task 110: unlimited
  | Current stacksize for task 111: unlimited
  | Current stacksize for task 112: unlimited
  | Current stacksize for task 113: unlimited
  | Current stacksize for task 114: unlimited
  | Current stacksize for task 115: unlimited
  | Current stacksize for task 116: unlimited
  | Current stacksize for task 117: unlimited
  | Current stacksize for task 118: unlimited
  | Current stacksize for task 119: unlimited
  | Current stacksize for task 120: unlimited
  | Current stacksize for task 121: unlimited
  | Current stacksize for task 122: unlimited
  | Current stacksize for task 123: unlimited
  | Current stacksize for task 124: unlimited
  | Current stacksize for task 125: unlimited
  | Current stacksize for task 126: unlimited
  | Current stacksize for task 127: unlimited
 
  Consistency checks for the contents of control.in are next.
 
  MPI_IN_PLACE appears to work with this MPI implementation.
  | Keeping use_mpi_in_place .true. (see manual).
  Target number of points in a grid batch is not set. Defaulting to  100
  Method for grid partitioning is not set. Defaulting to parallel hash+maxmin partitioning.
  Batch size limit is not set. Defaulting to    200
  By default, will store active basis functions for each batch.
  If in need of memory, prune_basis_once .false. can be used to disable this option.
  communication_type for Hartree potential was not specified.
  Defaulting to calc_hartree .
  Defaulting to Pulay charge density mixer.
  Pulay mixer: Number of relevant iterations not set.
  Defaulting to    8 iterations.
  Pulay mixer: Number of initial linear mixing iterations not set.
  Defaulting to    0 iterations.
  Work space size for distributed Hartree potential not set.
  Defaulting to   0.200000E+03 MB.
  Mixing parameter for charge density mixing has not been set.
  Using default: charge_mix_param =     0.0500.
  The mixing parameter will be adjusted in iteration number     2 of each s.c.f. cycle (i.e., each geometry step).
  Algorithm-dependent basis array size parameters:
  | n_max_pulay                         :        8
  Maximum number of self-consistency iterations not provided.
  Presetting  1000 iterations.
  Presetting      1001 iterations before the initial mixing cycle
  is restarted anyway using the sc_init_iter criterion / keyword.
  Presetting a factor      1.000 between actual scf density residual
  and density convergence criterion sc_accuracy_rho below which sc_init_iter
  takes no effect.
  Calculation of forces was not defined in control.in. No forces will be calculated.
  Geometry relaxation not requested: no relaxation will be performed.
  No accuracy limit for integral partition fn. given. Defaulting to  0.1000E-14.
  No threshold value for u(r) in integrations given. Defaulting to  0.1000E-05.
  No occupation type (smearing scheme) given. Defaulting to Gaussian broadening, width =  0.1000E-01 eV.
  The width will be adjusted in iteration number     2 of each s.c.f. cycle (i.e., each geometry step).
  No accuracy for occupation numbers given. Defaulting to  0.1000E-12.
  No threshold value for occupation numbers given. Defaulting to  0.0000E+00.
  No accuracy for fermi level given. Defaulting to  0.1000E-19.
  Maximum # of iterations to find E_F not set. Defaulting to  200.
  Preferred method for the eigenvalue solver ('KS_method') not specified in 'control.in'.
  Defaulting to serial version, LAPACK (via ELSI), since more k-points than CPUs available.
  Threshold for basis singularities not set.
  Default threshold for basis singularities:  0.1000E-04
  partition_type (choice of integration weights) for integrals was not specified.
  | Using a version of the partition function of Stratmann and coworkers ('stratmann_sparse').
  | At each grid point, the set of atoms used to build the partition table is smoothly restricted to
  | only those atoms whose free-atom density would be non-zero at that grid point.
  Partitioning for Hartree potential was not defined. Using partition_type for integrals.
  | Adjusted default value of keyword multip_moments_threshold to:       0.10000000E-11
  | This value may affect high angular momentum components of the Hartree potential in periodic systems.
  Using 2025 definition of centers list for evaluation of the Stratmann partition function.
  Spin handling was not defined in control.in. Defaulting to unpolarized case.
  No q(lm)/r^(l+1) cutoff set for long-range Hartree potential.
  | Using default value of  0.100000E-09 .
  | Verify using the multipole_threshold keyword.
  Defaulting to new monopole extrapolation.
  Density update method: automatic selection selected.
  Using density matrix based charge density update.
  Using density matrix based charge density update.
  Using packed matrix style: index .
  Threshold of packed matrixes:  0.000000E+00
  Defaulting to use time-reversal symmetry for k-point grid.
  Charge integration errors on the 3D integration grid will be compensated
  by explicit normalization and distribution of residual charges.
  Use the "compensate_multipole_errors" flag to change this behaviour.
  You have selected one (or more) of: output band; output band_mulliken; output polarization
  output Z2_invariant; and use_spin_texture_scf in your control.in
  Therefore COMPLEX eigenvectors will be used in the calculation.
  Set 'collect_eigenvectors' to be '.true.' for all serial calculations. This is mandatory.
  Set 'collect_eigenvectors' to be '.true.' for KS_method lapack_fast and serial.
  Found potential conflicts with setting 'use_local_index' for this calculation. Will not set it.
 
  Consistency checks for the contents of geometry.in are next.
 

  Range separation radius for Ewald summation (hartree_convergence_parameter):      3.24389560 bohr.
  Number of empty states per atom not set in control.in - providing a guess from actual geometry.
  | Total number of empty states used during s.c.f. cycle:       20
  If you use a very high smearing, use empty_states (per atom!) in control.in to increase this value.

  Structure-dependent array size parameters: 
  | Maximum number of distinct radial functions  :       41
  | Maximum number of basis functions            :      217
  | Number of Kohn-Sham states (occupied + empty):       71
------------------------------------------------------------

  Checking k-grid inconsistencies now:
  | k-point density for reciprocal lattice vector 1 is    5.04 nkpts / Angstrom^-1
  | k-point density for reciprocal lattice vector 2 is    5.04 nkpts / Angstrom^-1
  | k-point density for reciprocal lattice vector 3 is    5.04 nkpts / Angstrom^-1

  | Ratio of k-point densities for reciprocal lattice vectors 1 vs 2 is    1.00
  | Ratio of k-point densities for reciprocal lattice vectors 1 vs 3 is    1.00
  | Ratio of k-point densities for reciprocal lattice vectors 2 vs 3 is    1.00

  * The specified k_grid leads to a nearly homogenous k-grid density in non-vacuum directions,
  * and seems sensible.

  | Checks passed.
  After read_input_data [GB]:    506.86

  Performing system and environment tests:
  | Environment variable OMP_NUM_THREADS correctly set to 1.
  | Checking for ScaLAPACK...
  | Testing pdtran()...
  | All pdtran() tests passed.
  | Testing CPU compatibility for run-time vs. build-time.
  | Reading /proc/cpuinfo for CPU information ...
  | Built for  : AMD EPYC 9554 64-Core Processor
  | Running on : AMD EPYC 9554 64-Core Processor
  | Runtime CPU compatibility verified.
  
  After prepare_system [GB]:    506.42

------------------------------------------------------------
          Preparing all fixed parts of the calculation.
------------------------------------------------------------
  Determining machine precision:
    2.225073858507201E-308
  Setting up grids for atomic and cluster calculations.

  Creating wave function, potential, and density for free atoms.
  Runtime choices for atomic solver:
  | atomic solver xc        : PW-LDA
  | compute density gradient: 0
  | compute kinetic density : F

  Species: Ba

  List of occupied orbitals and eigenvalues:
    n    l              occ      energy [Ha]    energy [eV]
    1    0           2.0000     -1427.162554    -38835.0690
    2    0           2.0000      -217.960478     -5931.0064
    3    0           2.0000       -45.700559     -1243.5755
    4    0           2.0000        -8.937735      -243.2081
    5    0           2.0000        -1.240339       -33.7513
    6    0           2.0000        -0.121843        -3.3155
    2    1           6.0000      -195.440294     -5318.2010
    3    1           6.0000       -38.547652     -1048.9350
    4    1           6.0000        -6.634332      -180.5294
    5    1           6.0000        -0.689279       -18.7562
    3    2          10.0000       -28.153245      -766.0888
    4    2          10.0000        -3.293650       -89.6248


  Species: O

  List of occupied orbitals and eigenvalues:
    n    l              occ      energy [Ha]    energy [eV]
    1    0           2.0000       -18.786458      -511.2055
    2    0           2.0000        -0.872894       -23.7527
    2    1           4.0000        -0.337952        -9.1962


  Species: Ti

  List of occupied orbitals and eigenvalues:
    n    l              occ      energy [Ha]    energy [eV]
    1    0           2.0000      -179.494891     -4884.3045
    2    0           2.0000       -19.686176      -535.6881
    3    0           2.0000        -2.282180       -62.1013
    4    0           2.0000        -0.163864        -4.4590
    2    1           6.0000       -16.319592      -444.0787
    3    1           6.0000        -1.419321       -38.6217
    3    2           2.0000        -0.158535        -4.3140


  Adding cutoff potential to free-atom effective potential.
  Creating fixed part of basis set: Ionic, confined, hydrogenic.
 
  Ba                   ion:
  Runtime choices for ionic solver:
  | ionic solver xc        : PW-LDA

  List of free ionic orbitals and eigenvalues:
    n    l      energy [Ha]    energy [eV]
    1    0     -1427.386486    -38841.1625
    2    0      -218.177246     -5936.9049
    3    0       -45.916216     -1249.4438
    4    0        -9.152701      -249.0577
    5    0        -1.452758       -39.5315
    6    0        -0.287342        -7.8190
    2    1      -195.656927     -5324.0959
    3    1       -38.763265     -1054.8021
    4    1        -6.849212      -186.3765
    5    1        -0.899782       -24.4843
    3    2       -28.368814      -771.9547
    4    2        -3.508339       -95.4668


  List of ionic basis orbitals and eigenvalues:
    n    l      energy [Ha]    energy [eV]    outer radius [A]
    5    2        -0.266775        -7.2593       6.922523
    4    3        -0.152438        -4.1480       6.922523

 
  Ba                   hydrogenic:
 
  List of hydrogenic basis orbitals: 
    n    l      effective z      eigenvalue [eV]  inner max. [A]     outer max. [A]     outer radius [A]   
    3    1         2.700000       -11.0183           0.585865           2.360755           7.358861
    4    0         3.300000        -9.1387           0.118110           3.896996           7.449375
    4    3         5.800000       -28.6057           1.465516           1.465516           5.905331
    5    4         7.400000       -29.8017           1.782126           1.782126           6.354768
 
 
  O                    hydrogenic:
 
  List of hydrogenic basis orbitals: 
    n    l      effective z      eigenvalue [eV]  inner max. [A]     outer max. [A]     outer radius [A]   
    2    1         1.800000       -11.0118           1.178562           1.178562           5.432602
    3    2         7.600000       -87.3182           0.624125           0.624125           3.541477
    3    0         6.400000       -61.9209           0.061167           1.081902           4.306578
    4    3        11.600000      -114.4238           0.731631           0.731631           3.585037
    3    1         6.200000       -58.1113           0.255680           1.030270           4.306578
    3    2         5.600000       -47.4081           0.847233           0.847233           4.413171
    5    4        17.600000      -168.5799           0.749740           0.749740           3.372465
    1    0         0.750000        -7.6499           0.705284           0.705284           5.366593
 
 
  Ti                   ion:
  Runtime choices for ionic solver:
  | ionic solver xc        : PW-LDA

  List of free ionic orbitals and eigenvalues:
    n    l      energy [Ha]    energy [eV]
    1    0      -180.346512     -4907.4783
    2    0       -20.558929      -559.4369
    3    0        -3.105104       -84.4942
    4    0        -0.707661       -19.2564
    2    1       -17.189957      -467.7625
    3    1        -2.231709       -60.7279
    3    2        -0.922254       -25.0958


  List of ionic basis orbitals and eigenvalues:
    n    l      energy [Ha]    energy [eV]    outer radius [A]
    4    1        -0.527667       -14.3585       5.449321
    4    0        -0.707634       -19.2557       5.383109

 
  Ti                   hydrogenic:
 
  List of hydrogenic basis orbitals: 
    n    l      effective z      eigenvalue [eV]  inner max. [A]     outer max. [A]     outer radius [A]   
    4    3         8.000000       -54.4226           1.059019           1.059019           4.648601
    3    2         2.700000       -10.9576           1.748166           1.748166           5.449321
    5    4        11.600000       -73.2312           1.139618           1.139618           4.536321
 
  Creating atomic-like basis functions for current effective potential.

  Species Ba                  :

  List of atomic basis orbitals and eigenvalues:
    n    l      energy [Ha]    energy [eV]    outer radius [A]
    1    0     -1427.162554    -38835.0690       0.181180
    2    0      -217.960478     -5931.0064       0.481781
    3    0       -45.700559     -1243.5755       1.053516
    4    0        -8.937735      -243.2081       2.303735
    5    0        -1.240339       -33.7513       5.905331
    6    0        -0.121843        -3.3155       7.358861
    2    1      -195.440294     -5318.2010       0.493705
    3    1       -38.547652     -1048.9350       1.119920
    4    1        -6.634332      -180.5294       2.603304
    5    1        -0.689279       -18.7562       6.838410
    3    2       -28.153245      -766.0888       1.250174
    4    2        -3.293650       -89.6248       3.490975


  Species O                   :

  List of atomic basis orbitals and eigenvalues:
    n    l      energy [Ha]    energy [eV]    outer radius [A]
    1    0       -18.786458      -511.2055       1.433179
    2    0        -0.872894       -23.7527       5.048385
    2    1        -0.337952        -9.1962       5.301386


  Species Ti                  :

  List of atomic basis orbitals and eigenvalues:
    n    l      energy [Ha]    energy [eV]    outer radius [A]
    1    0      -179.494891     -4884.3045       0.490254
    2    0       -19.686176      -535.6881       1.491292
    3    0        -2.282180       -62.1013       4.215492
    4    0        -0.163864        -4.4590       5.449321
    2    1       -16.319592      -444.0787       1.585290
    3    1        -1.419321       -38.6217       4.822253
    3    2        -0.158535        -4.3140       5.383109

  Assembling full basis from fixed parts.
  | Species Ba :   atomic orbital   1 s accepted.
  | Species Ba :   atomic orbital   2 s accepted.
  | Species Ba :   atomic orbital   3 s accepted.
  | Species Ba :   atomic orbital   4 s accepted.
  | Species Ba :   atomic orbital   5 s accepted.
  | Species Ba :   atomic orbital   6 s accepted.
  | Species Ba :    hydro orbital   4 s accepted.
  | Species Ba :   atomic orbital   2 p accepted.
  | Species Ba :   atomic orbital   3 p accepted.
  | Species Ba :   atomic orbital   4 p accepted.
  | Species Ba :   atomic orbital   5 p accepted.
  | Species Ba :    hydro orbital   3 p accepted.
  | Species Ba :   atomic orbital   3 d accepted.
  | Species Ba :   atomic orbital   4 d accepted.
  | Species Ba :    ionic orbital   5 d accepted.
  | Species Ba :    hydro orbital   4 f accepted.
  | Species Ba :    ionic orbital   4 f accepted.
  | Species Ba :    hydro orbital   5 g accepted.
  | Species O :   atomic orbital   1 s accepted.
  | Species O :    hydro orbital   3 s accepted.
  | Species O :   atomic orbital   2 s accepted.
  | Species O :    hydro orbital   1 s accepted.
  | Species O :    hydro orbital   3 p accepted.
  | Species O :   atomic orbital   2 p accepted.
  | Species O :    hydro orbital   2 p accepted.
  | Species O :    hydro orbital   3 d accepted.
  | Species O :    hydro orbital   3 d accepted.
  | Species O :    hydro orbital   4 f accepted.
  | Species O :    hydro orbital   5 g accepted.
  | Species Ti :   atomic orbital   1 s accepted.
  | Species Ti :   atomic orbital   2 s accepted.
  | Species Ti :   atomic orbital   3 s accepted.
  | Species Ti :    ionic orbital   4 s accepted.
  | Species Ti :   atomic orbital   4 s accepted.
  | Species Ti :   atomic orbital   2 p accepted.
  | Species Ti :   atomic orbital   3 p accepted.
  | Species Ti :    ionic orbital   4 p accepted.
  | Species Ti :   atomic orbital   3 d accepted.
  | Species Ti :    hydro orbital   3 d accepted.
  | Species Ti :    hydro orbital   4 f accepted.
  | Species Ti :    hydro orbital   5 g accepted.
 
  Basis size parameters after reduction:
  | Total number of radial functions:       41
  | Total number of basis functions :      217
 
  Per-task memory consumption for arrays in subroutine allocate_ext:
  |          15.331996MB.
  Testing on-site integration grid accuracy.
  |  Species  Function  <phi|h_atom|phi> (log., in eV)  <phi|h_atom|phi> (rad., in eV)
           1        1             -38835.0689992434             -38835.0640166250
           1        2              -5931.0063704563              -5931.0062755902
           1        3              -1243.5754793962              -1243.5754721452
           1        4               -243.2081386653               -243.2081364141
           1        5                -33.7513467914                -33.7513462595
           1        6                 -3.3168055682                 -3.3157305946
           1        7                  1.5834527852                  1.6019597409
           1        8              -5318.2009788064              -5318.2009735469
           1        9              -1048.9349786457              -1048.9349763081
           1       10               -180.5293695420               -180.5293679763
           1       11                -18.7562430974                -18.7562427816
           1       12                 -0.7364960541                 -0.7359567110
           1       13               -766.0887812536               -766.0887805836
           1       14                -89.6247750152                -89.6247741513
           1       15                 -2.0097022490                 -2.0097838905
           1       16                  7.9753282792                  7.9753293008
           1       17                  8.2999572592                  8.2997893784
           1       18                 17.3842349116                 17.3842136311
           2       19               -511.2055257460               -511.2055212647
           2       20                 14.8909316291                 14.8909245888
           2       21                -21.2761098745                -21.2761142506
           2       22                 14.4902594017                 14.4902930901
           2       23                 20.4755804255                 20.4755808251
           2       24                 -2.7025186682                 -2.7025193111
           2       25                 13.8430854879                 13.8430486164
           2       26                 45.7917095645                 45.7917095443
           2       27                 52.0376190406                 52.0376206035
           2       28                 85.3009901325                 85.3009901592
           2       29                141.9718674916                141.9718674951
           3       30              -4884.3045041830              -4884.3043561282
           3       31               -535.6881163770               -535.6881136617
           3       32                -62.1012734904                -62.1012731072
           3       33                 -3.6444450756                 -3.6444386696
           3       34                  4.5284932272                  4.5294100343
           3       35               -444.0786921184               -444.0786915427
           3       36                -38.6216821055                -38.6216819073
           3       37                 -0.0636885234                 -0.0636491586
           3       38                 -4.3143777489                 -4.3143706431
           3       39                  5.2078361839                  5.2081372407
           3       40                 27.2784668371                 27.2784671939
           3       41                 50.9946777645                 50.9946775211

  Preparing densities etc. for the partition functions (integrals / Hartree potential).

  Preparations completed.
  max(cpu_time)          :      0.352 s.
  Wall clock time (cpu1) :      0.357 s.
------------------------------------------------------------
  After prepare_scf [GB]:    496.83

  Initializing index lists of integration centers etc. from given atomic structure:
  Mapping all atomic coordinates to central unit cell.

  Initializing the k-points
  Using symmetry for reducing the k-points
  | k-points reduced from:      512 to      260
  | Number of k-points                             :       260
  The eigenvectors in the calculations are COMPLEX.
  | K-points in task   0:         2
  | K-points in task   1:         3
  | K-points in task   2:         3
  | K-points in task   3:         3
  | K-points in task   4:         3
  | K-points in task   5:         2
  | K-points in task   6:         2
  | K-points in task   7:         2
  | K-points in task   8:         2
  | K-points in task   9:         2
  | K-points in task  10:         2
  | K-points in task  11:         2
  | K-points in task  12:         2
  | K-points in task  13:         2
  | K-points in task  14:         2
  | K-points in task  15:         2
  | K-points in task  16:         2
  | K-points in task  17:         2
  | K-points in task  18:         2
  | K-points in task  19:         2
  | K-points in task  20:         2
  | K-points in task  21:         2
  | K-points in task  22:         2
  | K-points in task  23:         2
  | K-points in task  24:         2
  | K-points in task  25:         2
  | K-points in task  26:         2
  | K-points in task  27:         2
  | K-points in task  28:         2
  | K-points in task  29:         2
  | K-points in task  30:         2
  | K-points in task  31:         2
  | K-points in task  32:         2
  | K-points in task  33:         2
  | K-points in task  34:         2
  | K-points in task  35:         2
  | K-points in task  36:         2
  | K-points in task  37:         2
  | K-points in task  38:         2
  | K-points in task  39:         2
  | K-points in task  40:         2
  | K-points in task  41:         2
  | K-points in task  42:         2
  | K-points in task  43:         2
  | K-points in task  44:         2
  | K-points in task  45:         2
  | K-points in task  46:         2
  | K-points in task  47:         2
  | K-points in task  48:         2
  | K-points in task  49:         2
  | K-points in task  50:         2
  | K-points in task  51:         2
  | K-points in task  52:         2
  | K-points in task  53:         2
  | K-points in task  54:         2
  | K-points in task  55:         2
  | K-points in task  56:         2
  | K-points in task  57:         2
  | K-points in task  58:         2
  | K-points in task  59:         2
  | K-points in task  60:         2
  | K-points in task  61:         2
  | K-points in task  62:         2
  | K-points in task  63:         2
  | K-points in task  64:         2
  | K-points in task  65:         2
  | K-points in task  66:         2
  | K-points in task  67:         2
  | K-points in task  68:         2
  | K-points in task  69:         2
  | K-points in task  70:         2
  | K-points in task  71:         2
  | K-points in task  72:         2
  | K-points in task  73:         2
  | K-points in task  74:         2
  | K-points in task  75:         2
  | K-points in task  76:         2
  | K-points in task  77:         2
  | K-points in task  78:         2
  | K-points in task  79:         2
  | K-points in task  80:         2
  | K-points in task  81:         2
  | K-points in task  82:         2
  | K-points in task  83:         2
  | K-points in task  84:         2
  | K-points in task  85:         2
  | K-points in task  86:         2
  | K-points in task  87:         2
  | K-points in task  88:         2
  | K-points in task  89:         2
  | K-points in task  90:         2
  | K-points in task  91:         2
  | K-points in task  92:         2
  | K-points in task  93:         2
  | K-points in task  94:         2
  | K-points in task  95:         2
  | K-points in task  96:         2
  | K-points in task  97:         2
  | K-points in task  98:         2
  | K-points in task  99:         2
  | K-points in task 100:         2
  | K-points in task 101:         2
  | K-points in task 102:         2
  | K-points in task 103:         2
  | K-points in task 104:         2
  | K-points in task 105:         2
  | K-points in task 106:         2
  | K-points in task 107:         2
  | K-points in task 108:         2
  | K-points in task 109:         2
  | K-points in task 110:         2
  | K-points in task 111:         2
  | K-points in task 112:         2
  | K-points in task 113:         2
  | K-points in task 114:         2
  | K-points in task 115:         2
  | K-points in task 116:         2
  | K-points in task 117:         2
  | K-points in task 118:         2
  | K-points in task 119:         2
  | K-points in task 120:         2
  | K-points in task 121:         2
  | K-points in task 122:         2
  | K-points in task 123:         2
  | K-points in task 124:         2
  | K-points in task 125:         2
  | K-points in task 126:         2
  | K-points in task 127:         2
  | Number of basis functions in the Hamiltonian integrals       :      6126
  | Number of basis functions in a single unit cell              :       217
  | Number of centers in hartree potential                       :      1468
  | Number of centers in hartree multipole                       :      1254
  | Number of centers in electron density summation              :       894
  | Number of centers in basis integrals                         :       945
  | Number of centers in integrals                               :       253
  | Number of centers in hamiltonian                             :      1537
  | Number of centers in partition table from touching 0-cell    :       535
  | Number of centers in partition table total                   :      1489
  | Consuming       1291 KiB for k_phase.
  | Number of super-cells (origin) [n_cells]                     :        1331
  | Number of super-cells (after PM_index) [n_cells]             :         318
  | Number of super-cells in hamiltonian [n_cells_in_hamiltonian]:         318
  | Size of matrix packed + index [n_hamiltonian_matrix_size]    :     1418663
  After initialize_bc_dependent_lists [GB]:    495.60

------------------------------------------------------------
          Begin self-consistency loop: Initialization.

          Date     :  20260729, Time     :  141221.547
------------------------------------------------------------
  Available memory per node after initialize_hartree_non_periodic_ewald [GB]:    495.60
  | Estimated reciprocal-space cutoff momentum G_max:         3.05161171 bohr^-1 .
  | Reciprocal lattice points for long-range Hartree potential:     202
  Available memory per node after initialize_recip_hartree_potential [GB]:    495.60
  Available memory per node after initialize_scalapack [GB]:    495.60
  Available memory per node after aims_elsi_init_scf [GB]:    495.60
  Available memory per node after initialize_fixed_grids [GB]:    495.60
  Partitioning the integration grid into batches with parallel hashing+maxmin method.
  | Number of batches:     1407
  | Maximal batch size:     110
  | Minimal batch size:      52
  | Average batch size:      78.930
  | Standard deviation of batch sizes:      13.668

  Integration load balanced across   128 MPI tasks.
  Work distribution over tasks is as follows:
  Task     0 has        834 integration points.
  Task     1 has        903 integration points.
  Task     2 has        833 integration points.
  Task     3 has        856 integration points.
  Task     4 has        843 integration points.
  Task     5 has        836 integration points.
  Task     6 has        840 integration points.
  Task     7 has        883 integration points.
  Task     8 has        892 integration points.
  Task     9 has        891 integration points.
  Task    10 has        892 integration points.
  Task    11 has        837 integration points.
  Task    12 has        846 integration points.
  Task    13 has        885 integration points.
  Task    14 has        843 integration points.
  Task    15 has        851 integration points.
  Task    16 has        843 integration points.
  Task    17 has        911 integration points.
  Task    18 has        914 integration points.
  Task    19 has        845 integration points.
  Task    20 has        910 integration points.
  Task    21 has        845 integration points.
  Task    22 has        887 integration points.
  Task    23 has        842 integration points.
  Task    24 has        901 integration points.
  Task    25 has        869 integration points.
  Task    26 has        888 integration points.
  Task    27 has        865 integration points.
  Task    28 has        888 integration points.
  Task    29 has        909 integration points.
  Task    30 has        906 integration points.
  Task    31 has        887 integration points.
  Task    32 has        908 integration points.
  Task    33 has        899 integration points.
  Task    34 has        894 integration points.
  Task    35 has        849 integration points.
  Task    36 has        896 integration points.
  Task    37 has        890 integration points.
  Task    38 has        888 integration points.
  Task    39 has        904 integration points.
  Task    40 has        843 integration points.
  Task    41 has        869 integration points.
  Task    42 has        908 integration points.
  Task    43 has        893 integration points.
  Task    44 has        885 integration points.
  Task    45 has        836 integration points.
  Task    46 has        896 integration points.
  Task    47 has        882 integration points.
  Task    48 has        832 integration points.
  Task    49 has        835 integration points.
  Task    50 has        852 integration points.
  Task    51 has        837 integration points.
  Task    52 has        837 integration points.
  Task    53 has        892 integration points.
  Task    54 has        890 integration points.
  Task    55 has        871 integration points.
  Task    56 has        836 integration points.
  Task    57 has        833 integration points.
  Task    58 has        850 integration points.
  Task    59 has        846 integration points.
  Task    60 has        853 integration points.
  Task    61 has        887 integration points.
  Task    62 has        837 integration points.
  Task    63 has        883 integration points.
  Task    64 has        849 integration points.
  Task    65 has        867 integration points.
  Task    66 has        844 integration points.
  Task    67 has        846 integration points.
  Task    68 has        836 integration points.
  Task    69 has        841 integration points.
  Task    70 has        892 integration points.
  Task    71 has        887 integration points.
  Task    72 has        835 integration points.
  Task    73 has        889 integration points.
  Task    74 has        870 integration points.
  Task    75 has        840 integration points.
  Task    76 has        889 integration points.
  Task    77 has        834 integration points.
  Task    78 has        889 integration points.
  Task    79 has        905 integration points.
  Task    80 has        851 integration points.
  Task    81 has        833 integration points.
  Task    82 has        841 integration points.
  Task    83 has        900 integration points.
  Task    84 has        848 integration points.
  Task    85 has        838 integration points.
  Task    86 has        906 integration points.
  Task    87 has        842 integration points.
  Task    88 has        894 integration points.
  Task    89 has        834 integration points.
  Task    90 has        895 integration points.
  Task    91 has        907 integration points.
  Task    92 has        885 integration points.
  Task    93 has        886 integration points.
  Task    94 has        845 integration points.
  Task    95 has        840 integration points.
  Task    96 has        833 integration points.
  Task    97 has        841 integration points.
  Task    98 has        887 integration points.
  Task    99 has        853 integration points.
  Task   100 has        835 integration points.
  Task   101 has        839 integration points.
  Task   102 has        908 integration points.
  Task   103 has        845 integration points.
  Task   104 has        839 integration points.
  Task   105 has        884 integration points.
  Task   106 has        884 integration points.
  Task   107 has        881 integration points.
  Task   108 has        867 integration points.
  Task   109 has        844 integration points.
  Task   110 has        888 integration points.
  Task   111 has        892 integration points.
  Task   112 has        845 integration points.
  Task   113 has        880 integration points.
  Task   114 has        835 integration points.
  Task   115 has        848 integration points.
  Task   116 has        911 integration points.
  Task   117 has        884 integration points.
  Task   118 has        836 integration points.
  Task   119 has        893 integration points.
  Task   120 has        894 integration points.
  Task   121 has        844 integration points.
  Task   122 has        843 integration points.
  Task   123 has        886 integration points.
  Task   124 has        888 integration points.
  Task   125 has        889 integration points.
  Task   126 has        869 integration points.
  Task   127 has        845 integration points.
  Available memory per node after partition_grid [GB]:    495.59
  Initializing partition tables, free-atom densities, potentials, etc. across the integration grid (initialize_grid_storage).
  | initialize_grid_storage: Actual outermost partition radius vs. multipole_radius_free
  | (-- VB: in principle, multipole_radius_free should be larger, hence this output)
  | Species        1: Confinement radius =              8.000000000000000 AA, multipole_radius_free =              8.016324652127386 AA.
  | Species        1: outer_partition_radius set to              8.016324652127386 AA .
  | Species        2: Confinement radius =              6.000000000000000 AA, multipole_radius_free =              6.064445521808699 AA.
  | Species        2: outer_partition_radius set to              6.064445521808699 AA .
  | Species        3: Confinement radius =              6.000000000000000 AA, multipole_radius_free =              6.009195547060584 AA.
  | Species        3: outer_partition_radius set to              6.009195547060584 AA .
  | The sparse table of interatomic distances needs      13922.67 kbyte instead of     17736.97 kbyte of memory.
  | Net number of integration points:   111054
  | of which are non-zero points    :    81418
  | Numerical average free-atom electrostatic potential    :    -23.86342972 eV
  Available memory per node after initialize_grid_storage_p1 [GB]:    495.58
  Renormalizing the initial density to the exact electron count on the 3D integration grid.
  | Initial density: Formal number of electrons (from input files) :     102.0000000000
  | Integrated number of electrons on 3D grid     :     102.0012212529
  | Charge integration error                      :       0.0012212529
  | Normalization factor for density and gradient :       0.9999880271
  Renormalizing the free-atom superposition density to the exact electron count on the 3D integration grid.
  | Formal number of electrons (from input files) :     102.0000000000
  | Integrated number of electrons on 3D grid     :     102.0012212529
  | Charge integration error                      :       0.0012212529
  | Normalization factor for density and gradient :       0.9999880271
  Obtaining max. number of non-zero basis functions in each batch (get_n_compute_maxes).
  | Maximal number of non-zero basis functions:     2175 in task     0
  | Maximal number of non-zero basis functions:     2236 in task     1
  | Maximal number of non-zero basis functions:     2162 in task     2
  | Maximal number of non-zero basis functions:     2157 in task     3
  | Maximal number of non-zero basis functions:     2187 in task     4
  | Maximal number of non-zero basis functions:     2138 in task     5
  | Maximal number of non-zero basis functions:     2111 in task     6
  | Maximal number of non-zero basis functions:     2180 in task     7
  | Maximal number of non-zero basis functions:     2224 in task     8
  | Maximal number of non-zero basis functions:     2135 in task     9
  | Maximal number of non-zero basis functions:     2192 in task    10
  | Maximal number of non-zero basis functions:     2114 in task    11
  | Maximal number of non-zero basis functions:     2149 in task    12
  | Maximal number of non-zero basis functions:     2200 in task    13
  | Maximal number of non-zero basis functions:     2150 in task    14
  | Maximal number of non-zero basis functions:     2120 in task    15
  | Maximal number of non-zero basis functions:     2236 in task    16
  | Maximal number of non-zero basis functions:     2160 in task    17
  | Maximal number of non-zero basis functions:     2136 in task    18
  | Maximal number of non-zero basis functions:     2175 in task    19
  | Maximal number of non-zero basis functions:     2180 in task    20
  | Maximal number of non-zero basis functions:     2180 in task    21
  | Maximal number of non-zero basis functions:     2174 in task    22
  | Maximal number of non-zero basis functions:     2176 in task    23
  | Maximal number of non-zero basis functions:     2129 in task    24
  | Maximal number of non-zero basis functions:     2184 in task    25
  | Maximal number of non-zero basis functions:     2136 in task    26
  | Maximal number of non-zero basis functions:     2121 in task    27
  | Maximal number of non-zero basis functions:     2160 in task    28
  | Maximal number of non-zero basis functions:     2151 in task    29
  | Maximal number of non-zero basis functions:     2130 in task    30
  | Maximal number of non-zero basis functions:     2160 in task    31
  | Maximal number of non-zero basis functions:     2222 in task    32
  | Maximal number of non-zero basis functions:     2130 in task    33
  | Maximal number of non-zero basis functions:     2205 in task    34
  | Maximal number of non-zero basis functions:     2155 in task    35
  | Maximal number of non-zero basis functions:     2130 in task    36
  | Maximal number of non-zero basis functions:     2160 in task    37
  | Maximal number of non-zero basis functions:     2188 in task    38
  | Maximal number of non-zero basis functions:     2201 in task    39
  | Maximal number of non-zero basis functions:     2153 in task    40
  | Maximal number of non-zero basis functions:     2186 in task    41
  | Maximal number of non-zero basis functions:     2153 in task    42
  | Maximal number of non-zero basis functions:     2189 in task    43
  | Maximal number of non-zero basis functions:     2126 in task    44
  | Maximal number of non-zero basis functions:     2176 in task    45
  | Maximal number of non-zero basis functions:     2174 in task    46
  | Maximal number of non-zero basis functions:     2184 in task    47
  | Maximal number of non-zero basis functions:     2200 in task    48
  | Maximal number of non-zero basis functions:     2155 in task    49
  | Maximal number of non-zero basis functions:     2180 in task    50
  | Maximal number of non-zero basis functions:     2155 in task    51
  | Maximal number of non-zero basis functions:     2176 in task    52
  | Maximal number of non-zero basis functions:     2146 in task    53
  | Maximal number of non-zero basis functions:     2252 in task    54
  | Maximal number of non-zero basis functions:     2160 in task    55
  | Maximal number of non-zero basis functions:     2186 in task    56
  | Maximal number of non-zero basis functions:     2134 in task    57
  | Maximal number of non-zero basis functions:     2192 in task    58
  | Maximal number of non-zero basis functions:     2160 in task    59
  | Maximal number of non-zero basis functions:     2136 in task    60
  | Maximal number of non-zero basis functions:     2201 in task    61
  | Maximal number of non-zero basis functions:     2174 in task    62
  | Maximal number of non-zero basis functions:     2148 in task    63
  | Maximal number of non-zero basis functions:     2192 in task    64
  | Maximal number of non-zero basis functions:     2160 in task    65
  | Maximal number of non-zero basis functions:     2252 in task    66
  | Maximal number of non-zero basis functions:     2174 in task    67
  | Maximal number of non-zero basis functions:     2150 in task    68
  | Maximal number of non-zero basis functions:     2166 in task    69
  | Maximal number of non-zero basis functions:     2160 in task    70
  | Maximal number of non-zero basis functions:     2132 in task    71
  | Maximal number of non-zero basis functions:     2183 in task    72
  | Maximal number of non-zero basis functions:     2193 in task    73
  | Maximal number of non-zero basis functions:     2222 in task    74
  | Maximal number of non-zero basis functions:     2153 in task    75
  | Maximal number of non-zero basis functions:     2151 in task    76
  | Maximal number of non-zero basis functions:     2205 in task    77
  | Maximal number of non-zero basis functions:     2158 in task    78
  | Maximal number of non-zero basis functions:     2139 in task    79
  | Maximal number of non-zero basis functions:     2201 in task    80
  | Maximal number of non-zero basis functions:     2150 in task    81
  | Maximal number of non-zero basis functions:     2176 in task    82
  | Maximal number of non-zero basis functions:     2166 in task    83
  | Maximal number of non-zero basis functions:     2152 in task    84
  | Maximal number of non-zero basis functions:     2114 in task    85
  | Maximal number of non-zero basis functions:     2127 in task    86
  | Maximal number of non-zero basis functions:     2136 in task    87
  | Maximal number of non-zero basis functions:     2203 in task    88
  | Maximal number of non-zero basis functions:     2149 in task    89
  | Maximal number of non-zero basis functions:     2155 in task    90
  | Maximal number of non-zero basis functions:     2154 in task    91
  | Maximal number of non-zero basis functions:     2192 in task    92
  | Maximal number of non-zero basis functions:     2144 in task    93
  | Maximal number of non-zero basis functions:     2147 in task    94
  | Maximal number of non-zero basis functions:     2206 in task    95
  | Maximal number of non-zero basis functions:     2119 in task    96
  | Maximal number of non-zero basis functions:     2160 in task    97
  | Maximal number of non-zero basis functions:     2176 in task    98
  | Maximal number of non-zero basis functions:     2191 in task    99
  | Maximal number of non-zero basis functions:     2149 in task   100
  | Maximal number of non-zero basis functions:     2137 in task   101
  | Maximal number of non-zero basis functions:     2195 in task   102
  | Maximal number of non-zero basis functions:     2151 in task   103
  | Maximal number of non-zero basis functions:     2180 in task   104
  | Maximal number of non-zero basis functions:     2189 in task   105
  | Maximal number of non-zero basis functions:     2186 in task   106
  | Maximal number of non-zero basis functions:     2189 in task   107
  | Maximal number of non-zero basis functions:     2175 in task   108
  | Maximal number of non-zero basis functions:     2172 in task   109
  | Maximal number of non-zero basis functions:     2130 in task   110
  | Maximal number of non-zero basis functions:     2153 in task   111
  | Maximal number of non-zero basis functions:     2141 in task   112
  | Maximal number of non-zero basis functions:     2201 in task   113
  | Maximal number of non-zero basis functions:     2205 in task   114
  | Maximal number of non-zero basis functions:     2180 in task   115
  | Maximal number of non-zero basis functions:     2124 in task   116
  | Maximal number of non-zero basis functions:     2180 in task   117
  | Maximal number of non-zero basis functions:     2198 in task   118
  | Maximal number of non-zero basis functions:     2172 in task   119
  | Maximal number of non-zero basis functions:     2158 in task   120
  | Maximal number of non-zero basis functions:     2134 in task   121
  | Maximal number of non-zero basis functions:     2198 in task   122
  | Maximal number of non-zero basis functions:     2168 in task   123
  | Maximal number of non-zero basis functions:     2166 in task   124
  | Maximal number of non-zero basis functions:     2133 in task   125
  | Maximal number of non-zero basis functions:     2171 in task   126
  | Maximal number of non-zero basis functions:     2121 in task   127
  Available memory per node after get_n_compute_maxes_p1 [GB]:    495.54
  Allocating        0.470 MB for KS_eigenvector_complex
  Available memory per node after allocate_matrices [GB]:    495.54
  Available memory per node after init_comm_sparse_local_matrix_scalapack [GB]:    495.54
  Integrating Hamiltonian matrix: batch-based integration.
  Time summed over all CPUs for integration: real work       85.104 s, elapsed       91.683 s
  Available memory per node after integrate hamiltonian matrix [GB]:    491.92
  Integrating overlap matrix.
  Time summed over all CPUs for integration: real work       72.907 s, elapsed       78.676 s
  Available memory per node after integrate ovlp matrix [GB]:    490.39
  Available memory per node after save_overlap_scalapack [GB]:    490.39

  Updating Kohn-Sham eigenvalues and eigenvectors using ELSI and the (modified) LAPACK eigensolver.
  Singularity check in k-point 128, task 0 (analysis for other k-points/tasks may follow below):
  Overlap matrix is not singular
  | Lowest and highest eigenvalues :  0.7732E-04,  0.1016E+02
  Finished singularity check of overlap matrix
  | Time :     0.006 s
  Starting LAPACK eigensolver
  Finished Cholesky decomposition
  | Time :     0.002 s
  Finished transformation to standard eigenproblem
  | Time :     0.002 s
  Finished solving standard eigenproblem
  | Time :     0.006 s
  Finished back-transformation of eigenvectors
  | Time :     0.001 s

  Obtaining occupation numbers and electronic chemical potential using ELSI.
  | Note that, for insulating systems, the printed 'chemical potential' value is not uniquely defined.
  | It can be anywhere in the energy gap, as long as it correctly separates occupied and unoccupied states.
  | In systems with a gap, the physically relevant chemical potential is the VBM or HOMO.

  | Chemical potential (Fermi level):   -10.93606236 eV
  Available memory per node after advance_KS_solution [GB]:    489.70
  Writing Kohn-Sham eigenvalues.
  K-point:       1 at    0.000000    0.000000    0.000000 (in units of recip. lattice)

  State    Occupation    Eigenvalue [Ha]    Eigenvalue [eV]
      1       2.00000       -1427.177448       -38835.47429
      2       2.00000        -217.975496        -5931.41503
      3       2.00000        -195.455297        -5318.60923
      4       2.00000        -195.455297        -5318.60923
      5       2.00000        -195.455297        -5318.60923
      6       2.00000        -179.548015        -4885.75007
      7       2.00000         -45.715994        -1243.99550
      8       2.00000         -38.563088        -1049.35501
      9       2.00000         -38.563088        -1049.35501
     10       2.00000         -38.563088        -1049.35501
     11       2.00000         -28.168616         -766.50704
     12       2.00000         -28.168616         -766.50704
     13       2.00000         -28.168616         -766.50704
     14       2.00000         -28.168616         -766.50703
     15       2.00000         -28.168616         -766.50703
     16       2.00000         -19.741119         -537.18319
     17       2.00000         -18.955854         -515.81504
     18       2.00000         -18.955854         -515.81504
     19       2.00000         -18.955854         -515.81504
     20       2.00000         -16.374207         -445.56484
     21       2.00000         -16.374207         -445.56484
     22       2.00000         -16.374207         -445.56484
     23       2.00000          -8.955287         -243.68577
     24       2.00000          -6.652286         -181.01792
     25       2.00000          -6.652286         -181.01792
     26       2.00000          -6.652286         -181.01792
     27       2.00000          -3.312630          -90.14125
     28       2.00000          -3.312630          -90.14125
     29       2.00000          -3.312630          -90.14125
     30       2.00000          -3.312597          -90.14035
     31       2.00000          -3.312597          -90.14035
     32       2.00000          -2.360091          -64.22134
     33       2.00000          -1.508640          -41.05219
     34       2.00000          -1.508640          -41.05219
     35       2.00000          -1.508640          -41.05219
     36       2.00000          -1.293794          -35.20592
     37       2.00000          -1.108722          -30.16987
     38       2.00000          -1.094447          -29.78141
     39       2.00000          -1.094447          -29.78141
     40       2.00000          -0.757620          -20.61589
     41       2.00000          -0.757620          -20.61589
     42       2.00000          -0.757620          -20.61589
     43       2.00000          -0.566837          -15.42443
     44       2.00000          -0.566837          -15.42443
     45       2.00000          -0.566837          -15.42443
     46       2.00000          -0.547484          -14.89779
     47       2.00000          -0.547484          -14.89779
     48       2.00000          -0.547484          -14.89779
     49       2.00000          -0.510140          -13.88163
     50       2.00000          -0.510140          -13.88163
     51       2.00000          -0.510140          -13.88163
     52       0.00000          -0.293645           -7.99050
     53       0.00000          -0.293645           -7.99050
     54       0.00000          -0.293645           -7.99050
     55       0.00000          -0.230197           -6.26397
     56       0.00000          -0.230197           -6.26397
     57       0.00000          -0.187765           -5.10933
     58       0.00000          -0.187765           -5.10933
     59       0.00000          -0.157186           -4.27726
     60       0.00000          -0.068627           -1.86744
     61       0.00000          -0.068627           -1.86744
     62       0.00000          -0.068627           -1.86744
     63       0.00000           0.024355            0.66273
     64       0.00000           0.032535            0.88532
     65       0.00000           0.032535            0.88532
     66       0.00000           0.032535            0.88532
     67       0.00000           0.037902            1.03135
     68       0.00000           0.037902            1.03135
     69       0.00000           0.037902            1.03135
     70       0.00000           0.153030            4.16416
     71       0.00000           0.222060            6.04257

  What follows are estimated values for band gap, HOMO, LUMO, etc.
  | They are estimated on a discrete k-point grid and not necessarily exact.
  | For converged numbers, create a DOS and/or band structure plot on a denser k-grid.

  Highest occupied state (VBM) at    -13.88162916 eV (relative to internal zero)
  | Occupation number:      2.00000000
  | K-point:       1 at    0.000000    0.000000    0.000000 (in units of recip. lattice)

  Lowest unoccupied state (CBM) at    -7.99049556 eV (relative to internal zero)
  | Occupation number:      0.00000000
  | K-point:       1 at    0.000000    0.000000    0.000000 (in units of recip. lattice)

  The gap value is above 0.2 eV. Unless you are using a very sparse k-point grid,
  this system is most likely an insulator or a semiconductor.
  ESTIMATED overall HOMO-LUMO gap:      5.89113360 eV between HOMO at k-point 1 and LUMO at k-point 1
  | This appears to be a direct band gap.
  Calculating total energy contributions from superposition of free atom densities.

  Total energy components:
  | Sum of eigenvalues            :       -5806.67916459 Ha     -158007.77941568 eV
  | XC energy correction          :        -257.29911956 Ha       -7001.46527398 eV
  | XC potential correction       :         340.97337153 Ha        9278.35751705 eV
  | Free-atom electrostatic energy:       -3623.98105672 Ha      -98613.54195517 eV
  | Hartree energy correction     :           0.00000000 Ha           0.00000000 eV
  | Entropy correction            :           0.00000000 Ha           0.00000000 eV
  | ---------------------------
  | Total energy                  :       -9346.98596934 Ha     -254344.42912779 eV
  | Total energy, T -> 0          :       -9346.98596934 Ha     -254344.42912779 eV  <-- do not rely on this value for anything but (periodic) metals
  | Electronic free energy        :       -9346.98596934 Ha     -254344.42912779 eV

  Derived energy quantities:
  | Kinetic energy                :        9815.48491252 Ha      267092.93400846 eV
  | Electrostatic energy          :      -18905.17176229 Ha     -514435.89786226 eV
  | Energy correction for multipole
  | error in Hartree potential    :           0.00000000 Ha           0.00000000 eV
  | Sum of eigenvalues per atom                           :      -31601.55588314 eV
  | Total energy (T->0) per atom                          :      -50868.88582556 eV  <-- do not rely on this value for anything but (periodic) metals
  | Electronic free energy per atom                       :      -50868.88582556 eV
  Initialize hartree_potential_storage
  Max. number of atoms included in rho_multipole:            5

  End scf initialization - timings             :  max(cpu_time)    wall_clock(cpu1)
  | Time for scf. initialization                :        1.634 s           1.656 s
  | Boundary condition initialization           :        0.116 s           0.118 s
  | Integration                                 :        1.376 s           1.396 s
  | Solution of K.-S. eqns.                     :        0.077 s           0.078 s
  | Grid partitioning                           :        0.027 s           0.027 s
  | Preloading free-atom quantities on grid     :        0.142 s           0.144 s
  | Free-atom superposition energy              :        0.008 s           0.008 s
  | Total energy evaluation                     :        0.001 s           0.001 s

  Partial memory accounting:
  | Current value for overall tracked memory usage:
  |   Minimum:       27.581 MB (on task   0)
  |   Maximum:       27.816 MB (on task   1)
  |   Average:       27.589 MB
  | Peak value for overall tracked memory usage:
  |   Minimum:       66.895 MB (on task   6 after allocating wave)
  |   Maximum:       71.944 MB (on task  54 after allocating wave)
  |   Average:       68.876 MB
  | Largest tracked array allocation so far:
  |   Minimum:       33.999 MB (hamiltonian_shell on task   6)
  |   Maximum:       38.693 MB (hamiltonian_shell on task  54)
  |   Average:       35.831 MB
  Note:  These values currently only include a subset of arrays which are explicitly tracked.
  The "true" memory usage will be greater.
------------------------------------------------------------
  Available memory after initialize_scf [GB]:    489.70
  Available memory after allocating mixing [GB]:    489.70
  Evaluating new KS density using the density matrix
  Evaluating density matrix
  Time summed over all CPUs for getting density from density matrix: real work       86.422 s, elapsed       93.565 s
  Integration grid: deviation in total charge (<rho> - N_e) =   4.263256E-14

  Time for density update prior                :  max(cpu_time)    wall_clock(cpu1)
  | self-consistency iterative process          :        0.763 s           0.773 s
  Available memory before start of SCF loop [GB]:    489.15

------------------------------------------------------------
          Begin self-consistency iteration #    1

  Date     :  20260729, Time     :  141223.979
------------------------------------------------------------
  Pulay mixing of updated and previous charge densities.
  Available memory per node after mixing [GB]:    489.15
  Renormalizing the density to the exact electron count on the 3D integration grid.
  | Formal number of electrons (from input files) :     102.0000000000
  | Integrated number of electrons on 3D grid     :     102.0000000000
  | Charge integration error                      :      -0.0000000000
  | Normalization factor for density and gradient :       1.0000000000

  Evaluating partitioned Hartree potential by multipole expansion.
  | Original multipole sum: apparent total charge =  -0.361710E-13
  | Sum of charges compensated after spline to logarithmic grids =  -0.460757E-07
  | Analytical far-field extrapolation by fixed multipoles:
  | Hartree multipole sum: apparent total charge =  -0.362017E-13
  Summing up the Hartree potential.
  Time summed over all CPUs for potential: real work        0.022 s, elapsed        0.024 s
  | RMS charge density error from multipole expansion :   0.601378E-03
  | Average real-space part of the electrostatic potential :      0.06298577 eV

  Integrating Hamiltonian matrix: batch-based integration.
  Time summed over all CPUs for integration: real work       84.891 s, elapsed       93.202 s

  Updating Kohn-Sham eigenvalues and eigenvectors using ELSI and the (modified) LAPACK eigensolver.
  Starting LAPACK eigensolver
  Finished Cholesky decomposition
  | Time :     0.001 s
  Finished transformation to standard eigenproblem
  | Time :     0.002 s
  Finished solving standard eigenproblem
  | Time :     0.007 s
  Finished back-transformation of eigenvectors
  | Time :     0.000 s

  Obtaining occupation numbers and electronic chemical potential using ELSI.
  | Note that, for insulating systems, the printed 'chemical potential' value is not uniquely defined.
  | It can be anywhere in the energy gap, as long as it correctly separates occupied and unoccupied states.
  | In systems with a gap, the physically relevant chemical potential is the VBM or HOMO.

  | Chemical potential (Fermi level):   -10.90192167 eV
  Writing Kohn-Sham eigenvalues.
  K-point:       1 at    0.000000    0.000000    0.000000 (in units of recip. lattice)

  State    Occupation    Eigenvalue [Ha]    Eigenvalue [eV]
      1       2.00000       -1427.184257       -38835.65956
      2       2.00000        -217.982077        -5931.59412
      3       2.00000        -195.461908        -5318.78914
      4       2.00000        -195.461908        -5318.78914
      5       2.00000        -195.461908        -5318.78914
      6       2.00000        -179.585802        -4886.77831
      7       2.00000         -45.722240        -1244.16546
      8       2.00000         -38.569338        -1049.52509
      9       2.00000         -38.569338        -1049.52509
     10       2.00000         -38.569338        -1049.52509
     11       2.00000         -28.174905         -766.67818
     12       2.00000         -28.174905         -766.67818
     13       2.00000         -28.174904         -766.67815
     14       2.00000         -28.174904         -766.67815
     15       2.00000         -28.174904         -766.67815
     16       2.00000         -19.777810         -538.18158
     17       2.00000         -18.920085         -514.84170
     18       2.00000         -18.920085         -514.84170
     19       2.00000         -18.920085         -514.84170
     20       2.00000         -16.411147         -446.57003
     21       2.00000         -16.411147         -446.57003
     22       2.00000         -16.411147         -446.57003
     23       2.00000          -8.960878         -243.83789
     24       2.00000          -6.657801         -181.16799
     25       2.00000          -6.657801         -181.16799
     26       2.00000          -6.657801         -181.16799
     27       2.00000          -3.317980          -90.28682
     28       2.00000          -3.317980          -90.28682
     29       2.00000          -3.317980          -90.28682
     30       2.00000          -3.317953          -90.28609
     31       2.00000          -3.317953          -90.28609
     32       2.00000          -2.384039          -64.87300
     33       2.00000          -1.530556          -41.64856
     34       2.00000          -1.530556          -41.64856
     35       2.00000          -1.530556          -41.64856
     36       2.00000          -1.296333          -35.27501
     37       2.00000          -1.095530          -29.81089
     38       2.00000          -1.079073          -29.36307
     39       2.00000          -1.079073          -29.36307
     40       2.00000          -0.758685          -20.64486
     41       2.00000          -0.758685          -20.64486
     42       2.00000          -0.758685          -20.64486
     43       2.00000          -0.555887          -15.12644
     44       2.00000          -0.555887          -15.12644
     45       2.00000          -0.555887          -15.12644
     46       2.00000          -0.532187          -14.48155
     47       2.00000          -0.532187          -14.48155
     48       2.00000          -0.532187          -14.48155
     49       2.00000          -0.494817          -13.46466
     50       2.00000          -0.494817          -13.46466
     51       2.00000          -0.494817          -13.46466
     52       0.00000          -0.306459           -8.33918
     53       0.00000          -0.306459           -8.33918
     54       0.00000          -0.306459           -8.33918
     55       0.00000          -0.229935           -6.25685
     56       0.00000          -0.229935           -6.25685
     57       0.00000          -0.205067           -5.58016
     58       0.00000          -0.205067           -5.58016
     59       0.00000          -0.153962           -4.18952
     60       0.00000          -0.073240           -1.99296
     61       0.00000          -0.073240           -1.99296
     62       0.00000          -0.073240           -1.99296
     63       0.00000           0.020548            0.55914
     64       0.00000           0.030033            0.81724
     65       0.00000           0.030033            0.81724
     66       0.00000           0.030033            0.81724
     67       0.00000           0.035170            0.95703
     68       0.00000           0.035170            0.95703
     69       0.00000           0.035170            0.95703
     70       0.00000           0.149564            4.06985
     71       0.00000           0.225617            6.13936

  What follows are estimated values for band gap, HOMO, LUMO, etc.
  | They are estimated on a discrete k-point grid and not necessarily exact.
  | For converged numbers, create a DOS and/or band structure plot on a denser k-grid.

  Highest occupied state (VBM) at    -13.46466475 eV (relative to internal zero)
  | Occupation number:      2.00000000
  | K-point:       1 at    0.000000    0.000000    0.000000 (in units of recip. lattice)

  Lowest unoccupied state (CBM) at    -8.33917859 eV (relative to internal zero)
  | Occupation number:      0.00000000
  | K-point:       1 at    0.000000    0.000000    0.000000 (in units of recip. lattice)

  The gap value is above 0.2 eV. Unless you are using a very sparse k-point grid,
  this system is most likely an insulator or a semiconductor.
  ESTIMATED overall HOMO-LUMO gap:      5.12548617 eV between HOMO at k-point 1 and LUMO at k-point 1
  | This appears to be a direct band gap.

  Total energy components:
  | Sum of eigenvalues            :       -5806.99449257 Ha     -158016.35992671 eV
  | XC energy correction          :        -257.32931474 Ha       -7002.28692659 eV
  | XC potential correction       :         341.01323013 Ha        9279.44212461 eV
  | Free-atom electrostatic energy:       -3623.98105672 Ha      -98613.54195517 eV
  | Hartree energy correction     :           0.37851812 Ha          10.30000199 eV
  | Entropy correction            :           0.00000000 Ha           0.00000000 eV
  | ---------------------------
  | Total energy                  :       -9346.91311579 Ha     -254342.44668186 eV
  | Total energy, T -> 0          :       -9346.91311579 Ha     -254342.44668186 eV  <-- do not rely on this value for anything but (periodic) metals
  | Electronic free energy        :       -9346.91311579 Ha     -254342.44668186 eV

  Derived energy quantities:
  | Kinetic energy                :        9815.61962741 Ha      267096.59978716 eV
  | Electrostatic energy          :      -18905.20342846 Ha     -514436.75954244 eV
  | Energy correction for multipole
  | error in Hartree potential    :           0.00029146 Ha           0.00793109 eV
  | Sum of eigenvalues per atom                           :      -31603.27198534 eV
  | Total energy (T->0) per atom                          :      -50868.48933637 eV  <-- do not rely on this value for anything but (periodic) metals
  | Electronic free energy per atom                       :      -50868.48933637 eV
  Evaluating new KS density using the density matrix
  Evaluating density matrix
  Time summed over all CPUs for getting density from density matrix: real work       86.451 s, elapsed       93.496 s
  Integration grid: deviation in total charge (<rho> - N_e) =   2.842171E-14

  Self-consistency convergence accuracy:
  | Change of charge density      :  0.5869E+00
  | Change of unmixed KS density  :  0.2616E+03
  | Change of sum of eigenvalues  : -0.8581E+01 eV
  | Change of total energy        :  0.1982E+01 eV


------------------------------------------------------------
  End self-consistency iteration #     1       :  max(cpu_time)    wall_clock(cpu1)
  | Time for this iteration                     :        1.607 s           1.629 s
  | Charge density update                       :        0.760 s           0.770 s
  | Density mixing                              :        0.001 s           0.000 s
  | Hartree multipole update                    :        0.002 s           0.002 s
  | Hartree multipole summation                 :        0.027 s           0.027 s
  | Integration                                 :        0.758 s           0.769 s
  | Solution of K.-S. eqns.                     :        0.059 s           0.059 s
  | Total energy evaluation                     :        0.000 s           0.001 s

  Partial memory accounting:
  | Current value for overall tracked memory usage:
  |   Minimum:       27.702 MB (on task  48)
  |   Maximum:       27.947 MB (on task   1)
  |   Average:       27.714 MB
  | Peak value for overall tracked memory usage:
  |   Minimum:       67.017 MB (on task   6 after allocating wave)
  |   Maximum:       72.073 MB (on task  54 after allocating wave)
  |   Average:       69.002 MB
  | Largest tracked array allocation so far:
  |   Minimum:       33.999 MB (hamiltonian_shell on task   6)
  |   Maximum:       38.693 MB (hamiltonian_shell on task  54)
  |   Average:       35.831 MB
  Note:  These values currently only include a subset of arrays which are explicitly tracked.
  The "true" memory usage will be greater.
------------------------------------------------------------

------------------------------------------------------------
          Begin self-consistency iteration #    2

  Date     :  20260729, Time     :  141225.609
------------------------------------------------------------
  Pulay mixing of updated and previous charge densities.
  Available memory per node after mixing [GB]:    488.78
  Renormalizing the density to the exact electron count on the 3D integration grid.
  | Formal number of electrons (from input files) :     102.0000000000
  | Integrated number of electrons on 3D grid     :     102.0000000000
  | Charge integration error                      :       0.0000000000
  | Normalization factor for density and gradient :       1.0000000000

  Evaluating partitioned Hartree potential by multipole expansion.
  | Original multipole sum: apparent total charge =   0.152506E-14
  | Sum of charges compensated after spline to logarithmic grids =  -0.235995E-06
  | Analytical far-field extrapolation by fixed multipoles:
  | Hartree multipole sum: apparent total charge =   0.836323E-15
  Summing up the Hartree potential.
  Time summed over all CPUs for potential: real work        0.023 s, elapsed        0.024 s
  | RMS charge density error from multipole expansion :   0.358932E-02
  | Average real-space part of the electrostatic potential :      0.35116489 eV

  Integrating Hamiltonian matrix: batch-based integration.
  Time summed over all CPUs for integration: real work       84.887 s, elapsed       93.011 s

  Updating Kohn-Sham eigenvalues and eigenvectors using ELSI and the (modified) LAPACK eigensolver.
  Starting LAPACK eigensolver
  Finished Cholesky decomposition
  | Time :     0.001 s
  Finished transformation to standard eigenproblem
  | Time :     0.002 s
  Finished solving standard eigenproblem
  | Time :     0.006 s
  Finished back-transformation of eigenvectors
  | Time :     0.001 s

  Obtaining occupation numbers and electronic chemical potential using ELSI.
  | Note that, for insulating systems, the printed 'chemical potential' value is not uniquely defined.
  | It can be anywhere in the energy gap, as long as it correctly separates occupied and unoccupied states.
  | In systems with a gap, the physically relevant chemical potential is the VBM or HOMO.

  | Chemical potential (Fermi level):   -10.80539177 eV
  What follows are estimated values for band gap, HOMO, LUMO, etc.
  | They are estimated on a discrete k-point grid and not necessarily exact.
  | For converged numbers, create a DOS and/or band structure plot on a denser k-grid.

  Highest occupied state (VBM) at    -11.48735515 eV (relative to internal zero)
  | Occupation number:      2.00000000
  | K-point:     205 at    0.500000    0.500000    0.500000 (in units of recip. lattice)

  Lowest unoccupied state (CBM) at   -10.12342840 eV (relative to internal zero)
  | Occupation number:      0.00000000
  | K-point:       1 at    0.000000    0.000000    0.000000 (in units of recip. lattice)

  The gap value is above 0.2 eV. Unless you are using a very sparse k-point grid,
  this system is most likely an insulator or a semiconductor.
  ESTIMATED overall HOMO-LUMO gap:      1.36392675 eV between HOMO at k-point 205 and LUMO at k-point 1
  | This appears to be an indirect band gap.
  | Smallest direct gap :      1.48373513 eV for k_point 1 at    0.000000    0.000000    0.000000 (in units of recip. lattice)

  Checking to see if s.c.f. parameters should be adjusted.
  The system likely has a gap. Increased the default Pulay mixing parameter (charge_mix_param). Value:   0.200000 .
  Kept the default occupation width. Value:   0.010000 eV.

  Total energy components:
  | Sum of eigenvalues            :       -5808.59611475 Ha     -158059.94228372 eV
  | XC energy correction          :        -257.46441901 Ha       -7005.96330084 eV
  | XC potential correction       :         341.19154318 Ha        9284.29426964 eV
  | Free-atom electrostatic energy:       -3623.98105672 Ha      -98613.54195517 eV
  | Hartree energy correction     :           2.08257990 Ha          56.66988239 eV
  | Entropy correction            :           0.00000000 Ha           0.00000000 eV
  | ---------------------------
  | Total energy                  :       -9346.76746741 Ha     -254338.48338771 eV
  | Total energy, T -> 0          :       -9346.76746741 Ha     -254338.48338771 eV  <-- do not rely on this value for anything but (periodic) metals
  | Electronic free energy        :       -9346.76746741 Ha     -254338.48338771 eV

  Derived energy quantities:
  | Kinetic energy                :        9815.91859462 Ha      267104.73509892 eV
  | Electrostatic energy          :      -18905.22164301 Ha     -514437.25518578 eV
  | Energy correction for multipole
  | error in Hartree potential    :           0.00168067 Ha           0.04573333 eV
  | Sum of eigenvalues per atom                           :      -31611.98845674 eV
  | Total energy (T->0) per atom                          :      -50867.69667754 eV  <-- do not rely on this value for anything but (periodic) metals
  | Electronic free energy per atom                       :      -50867.69667754 eV
  Evaluating new KS density using the density matrix
  Evaluating density matrix
  Time summed over all CPUs for getting density from density matrix: real work       86.278 s, elapsed       93.755 s
  Integration grid: deviation in total charge (<rho> - N_e) =   0.000000E+00

  Self-consistency convergence accuracy:
  | Change of charge density      :  0.4867E+00
  | Change of unmixed KS density  :  0.7738E-01
  | Change of sum of eigenvalues  : -0.4358E+02 eV
  | Change of total energy        :  0.3963E+01 eV


------------------------------------------------------------
  End self-consistency iteration #     2       :  max(cpu_time)    wall_clock(cpu1)
  | Time for this iteration                     :        1.604 s           1.626 s
  | Charge density update                       :        0.762 s           0.773 s
  | Density mixing                              :        0.001 s           0.001 s
  | Hartree multipole update                    :        0.001 s           0.001 s
  | Hartree multipole summation                 :        0.027 s           0.027 s
  | Integration                                 :        0.753 s           0.764 s
  | Solution of K.-S. eqns.                     :        0.058 s           0.059 s
  | Total energy evaluation                     :        0.001 s           0.001 s

  Partial memory accounting:
  | Current value for overall tracked memory usage:
  |   Minimum:       27.702 MB (on task  48)
  |   Maximum:       27.948 MB (on task   1)
  |   Average:       27.715 MB
  | Peak value for overall tracked memory usage:
  |   Minimum:       67.018 MB (on task   6 after allocating wave)
  |   Maximum:       72.073 MB (on task  54 after allocating wave)
  |   Average:       69.002 MB
  | Largest tracked array allocation so far:
  |   Minimum:       33.999 MB (hamiltonian_shell on task   6)
  |   Maximum:       38.693 MB (hamiltonian_shell on task  54)
  |   Average:       35.831 MB
  Note:  These values currently only include a subset of arrays which are explicitly tracked.
  The "true" memory usage will be greater.
------------------------------------------------------------

------------------------------------------------------------
          Begin self-consistency iteration #    3

  Date     :  20260729, Time     :  141227.235
------------------------------------------------------------
  Pulay mixing of updated and previous charge densities.
  Available memory per node after mixing [GB]:    488.68
  Renormalizing the density to the exact electron count on the 3D integration grid.
  | Formal number of electrons (from input files) :     102.0000000000
  | Integrated number of electrons on 3D grid     :     102.0000000000
  | Charge integration error                      :       0.0000000000
  | Normalization factor for density and gradient :       1.0000000000

  Evaluating partitioned Hartree potential by multipole expansion.
  | Original multipole sum: apparent total charge =   0.164313E-13
  | Sum of charges compensated after spline to logarithmic grids =  -0.566265E-07
  | Analytical far-field extrapolation by fixed multipoles:
  | Hartree multipole sum: apparent total charge =   0.175874E-13
  Summing up the Hartree potential.
  Time summed over all CPUs for potential: real work        0.023 s, elapsed        0.024 s
  | RMS charge density error from multipole expansion :   0.432187E-02
  | Average real-space part of the electrostatic potential :      0.35307537 eV

  Integrating Hamiltonian matrix: batch-based integration.
  Time summed over all CPUs for integration: real work       84.749 s, elapsed       92.753 s

  Updating Kohn-Sham eigenvalues and eigenvectors using ELSI and the (modified) LAPACK eigensolver.
  Starting LAPACK eigensolver
  Finished Cholesky decomposition
  | Time :     0.001 s
  Finished transformation to standard eigenproblem
  | Time :     0.002 s
  Finished solving standard eigenproblem
  | Time :     0.006 s
  Finished back-transformation of eigenvectors
  | Time :     0.000 s

  Obtaining occupation numbers and electronic chemical potential using ELSI.
  | Note that, for insulating systems, the printed 'chemical potential' value is not uniquely defined.
  | It can be anywhere in the energy gap, as long as it correctly separates occupied and unoccupied states.
  | In systems with a gap, the physically relevant chemical potential is the VBM or HOMO.

  | Chemical potential (Fermi level):   -10.56624963 eV
  What follows are estimated values for band gap, HOMO, LUMO, etc.
  | They are estimated on a discrete k-point grid and not necessarily exact.
  | For converged numbers, create a DOS and/or band structure plot on a denser k-grid.

  Highest occupied state (VBM) at    -11.90539415 eV (relative to internal zero)
  | Occupation number:      2.00000000
  | K-point:     205 at    0.500000    0.500000    0.500000 (in units of recip. lattice)

  Lowest unoccupied state (CBM) at    -9.22710512 eV (relative to internal zero)
  | Occupation number:      0.00000000
  | K-point:       1 at    0.000000    0.000000    0.000000 (in units of recip. lattice)

  The gap value is above 0.2 eV. Unless you are using a very sparse k-point grid,
  this system is most likely an insulator or a semiconductor.
  ESTIMATED overall HOMO-LUMO gap:      2.67828904 eV between HOMO at k-point 205 and LUMO at k-point 1
  | This appears to be an indirect band gap.
  | Smallest direct gap :      2.74274566 eV for k_point 1 at    0.000000    0.000000    0.000000 (in units of recip. lattice)

  Total energy components:
  | Sum of eigenvalues            :       -5808.05376587 Ha     -158045.18421965 eV
  | XC energy correction          :        -257.45275494 Ha       -7005.64590533 eV
  | XC potential correction       :         341.17609739 Ha        9283.87396826 eV
  | Free-atom electrostatic energy:       -3623.98105672 Ha      -98613.54195517 eV
  | Hartree energy correction     :           1.53789200 Ha          41.84817055 eV
  | Entropy correction            :           0.00000000 Ha           0.00000000 eV
  | ---------------------------
  | Total energy                  :       -9346.77358814 Ha     -254338.64994134 eV
  | Total energy, T -> 0          :       -9346.77358814 Ha     -254338.64994134 eV  <-- do not rely on this value for anything but (periodic) metals
  | Electronic free energy        :       -9346.77358814 Ha     -254338.64994134 eV

  Derived energy quantities:
  | Kinetic energy                :        9815.90426229 Ha      267104.34509631 eV
  | Electrostatic energy          :      -18905.22509549 Ha     -514437.34913232 eV
  | Energy correction for multipole
  | error in Hartree potential    :           0.00195363 Ha           0.05316090 eV
  | Sum of eigenvalues per atom                           :      -31609.03684393 eV
  | Total energy (T->0) per atom                          :      -50867.72998827 eV  <-- do not rely on this value for anything but (periodic) metals
  | Electronic free energy per atom                       :      -50867.72998827 eV
  Evaluating new KS density using the density matrix
  Evaluating density matrix
  Time summed over all CPUs for getting density from density matrix: real work       86.317 s, elapsed       93.551 s
  Integration grid: deviation in total charge (<rho> - N_e) =   2.842171E-14

  Self-consistency convergence accuracy:
  | Change of charge density      :  0.1584E+00
  | Change of unmixed KS density  :  0.4411E+00
  | Change of sum of eigenvalues  :  0.1476E+02 eV
  | Change of total energy        : -0.1666E+00 eV


------------------------------------------------------------
  End self-consistency iteration #     3       :  max(cpu_time)    wall_clock(cpu1)
  | Time for this iteration                     :        1.601 s           1.624 s
  | Charge density update                       :        0.763 s           0.774 s
  | Density mixing                              :        0.001 s           0.001 s
  | Hartree multipole update                    :        0.001 s           0.001 s
  | Hartree multipole summation                 :        0.027 s           0.027 s
  | Integration                                 :        0.751 s           0.762 s
  | Solution of K.-S. eqns.                     :        0.058 s           0.058 s
  | Total energy evaluation                     :        0.001 s           0.000 s

  Partial memory accounting:
  | Current value for overall tracked memory usage:
  |   Minimum:       27.703 MB (on task  48)
  |   Maximum:       27.948 MB (on task   1)
  |   Average:       27.715 MB
  | Peak value for overall tracked memory usage:
  |   Minimum:       67.018 MB (on task   6 after allocating wave)
  |   Maximum:       72.073 MB (on task  54 after allocating wave)
  |   Average:       69.002 MB
  | Largest tracked array allocation so far:
  |   Minimum:       33.999 MB (hamiltonian_shell on task   6)
  |   Maximum:       38.693 MB (hamiltonian_shell on task  54)
  |   Average:       35.831 MB
  Note:  These values currently only include a subset of arrays which are explicitly tracked.
  The "true" memory usage will be greater.
------------------------------------------------------------

------------------------------------------------------------
          Begin self-consistency iteration #    4

  Date     :  20260729, Time     :  141228.859
------------------------------------------------------------
  Pulay mixing of updated and previous charge densities.
  Available memory per node after mixing [GB]:    488.75
  Renormalizing the density to the exact electron count on the 3D integration grid.
  | Formal number of electrons (from input files) :     102.0000000000
  | Integrated number of electrons on 3D grid     :     102.0000000000
  | Charge integration error                      :       0.0000000000
  | Normalization factor for density and gradient :       1.0000000000

  Evaluating partitioned Hartree potential by multipole expansion.
  | Original multipole sum: apparent total charge =  -0.672502E-13
  | Sum of charges compensated after spline to logarithmic grids =   0.289518E-06
  | Analytical far-field extrapolation by fixed multipoles:
  | Hartree multipole sum: apparent total charge =  -0.672748E-13
  Summing up the Hartree potential.
  Time summed over all CPUs for potential: real work        0.023 s, elapsed        0.029 s
  | RMS charge density error from multipole expansion :   0.834819E-02
  | Average real-space part of the electrostatic potential :      0.53369765 eV

  Integrating Hamiltonian matrix: batch-based integration.
  Time summed over all CPUs for integration: real work       84.914 s, elapsed       94.705 s

  Updating Kohn-Sham eigenvalues and eigenvectors using ELSI and the (modified) LAPACK eigensolver.
  Starting LAPACK eigensolver
  Finished Cholesky decomposition
  | Time :     0.002 s
  Finished transformation to standard eigenproblem
  | Time :     0.002 s
  Finished solving standard eigenproblem
  | Time :     0.006 s
  Finished back-transformation of eigenvectors
  | Time :     0.000 s

  Obtaining occupation numbers and electronic chemical potential using ELSI.
  | Note that, for insulating systems, the printed 'chemical potential' value is not uniquely defined.
  | It can be anywhere in the energy gap, as long as it correctly separates occupied and unoccupied states.
  | In systems with a gap, the physically relevant chemical potential is the VBM or HOMO.

  | Chemical potential (Fermi level):   -10.10907940 eV
  What follows are estimated values for band gap, HOMO, LUMO, etc.
  | They are estimated on a discrete k-point grid and not necessarily exact.
  | For converged numbers, create a DOS and/or band structure plot on a denser k-grid.

  Highest occupied state (VBM) at    -11.73225873 eV (relative to internal zero)
  | Occupation number:      2.00000000
  | K-point:       1 at    0.000000    0.000000    0.000000 (in units of recip. lattice)

  Lowest unoccupied state (CBM) at    -8.48590007 eV (relative to internal zero)
  | Occupation number:      0.00000000
  | K-point:       1 at    0.000000    0.000000    0.000000 (in units of recip. lattice)

  The gap value is above 0.2 eV. Unless you are using a very sparse k-point grid,
  this system is most likely an insulator or a semiconductor.
  ESTIMATED overall HOMO-LUMO gap:      3.24635866 eV between HOMO at k-point 1 and LUMO at k-point 1
  | This appears to be a direct band gap.

  Total energy components:
  | Sum of eigenvalues            :       -5807.77603757 Ha     -158037.62684819 eV
  | XC energy correction          :        -257.49852835 Ha       -7006.89146319 eV
  | XC potential correction       :         341.23631347 Ha        9285.51253130 eV
  | Free-atom electrostatic energy:       -3623.98105672 Ha      -98613.54195517 eV
  | Hartree energy correction     :           1.23423841 Ha          33.58533606 eV
  | Entropy correction            :           0.00000000 Ha           0.00000000 eV
  | ---------------------------
  | Total energy                  :       -9346.78507076 Ha     -254338.96239919 eV
  | Total energy, T -> 0          :       -9346.78507076 Ha     -254338.96239919 eV  <-- do not rely on this value for anything but (periodic) metals
  | Electronic free energy        :       -9346.78507076 Ha     -254338.96239919 eV

  Derived energy quantities:
  | Kinetic energy                :        9815.81903067 Ha      267102.02582604 eV
  | Electrostatic energy          :      -18905.10557308 Ha     -514434.09676204 eV
  | Energy correction for multipole
  | error in Hartree potential    :           0.00361558 Ha           0.09838498 eV
  | Sum of eigenvalues per atom                           :      -31607.52536964 eV
  | Total energy (T->0) per atom                          :      -50867.79247984 eV  <-- do not rely on this value for anything but (periodic) metals
  | Electronic free energy per atom                       :      -50867.79247984 eV
  Evaluating new KS density using the density matrix
  Evaluating density matrix
  Time summed over all CPUs for getting density from density matrix: real work       86.278 s, elapsed       94.134 s
  Integration grid: deviation in total charge (<rho> - N_e) =   2.842171E-14

  Self-consistency convergence accuracy:
  | Change of charge density      :  0.1510E+00
  | Change of unmixed KS density  :  0.1596E+00
  | Change of sum of eigenvalues  :  0.7557E+01 eV
  | Change of total energy        : -0.3125E+00 eV


------------------------------------------------------------
  End self-consistency iteration #     4       :  max(cpu_time)    wall_clock(cpu1)
  | Time for this iteration                     :        1.623 s           1.645 s
  | Charge density update                       :        0.765 s           0.775 s
  | Density mixing                              :        0.000 s           0.001 s
  | Hartree multipole update                    :        0.001 s           0.001 s
  | Hartree multipole summation                 :        0.031 s           0.031 s
  | Integration                                 :        0.766 s           0.777 s
  | Solution of K.-S. eqns.                     :        0.058 s           0.059 s
  | Total energy evaluation                     :        0.000 s           0.001 s

  Partial memory accounting:
  | Current value for overall tracked memory usage:
  |   Minimum:       27.703 MB (on task  48)
  |   Maximum:       27.948 MB (on task   1)
  |   Average:       27.715 MB
  | Peak value for overall tracked memory usage:
  |   Minimum:       67.018 MB (on task   6 after allocating wave)
  |   Maximum:       72.073 MB (on task  54 after allocating wave)
  |   Average:       69.002 MB
  | Largest tracked array allocation so far:
  |   Minimum:       33.999 MB (hamiltonian_shell on task   6)
  |   Maximum:       38.693 MB (hamiltonian_shell on task  54)
  |   Average:       35.831 MB
  Note:  These values currently only include a subset of arrays which are explicitly tracked.
  The "true" memory usage will be greater.
------------------------------------------------------------

------------------------------------------------------------
          Begin self-consistency iteration #    5

  Date     :  20260729, Time     :  141230.505
------------------------------------------------------------
  Pulay mixing of updated and previous charge densities.
  Available memory per node after mixing [GB]:    488.83
  Renormalizing the density to the exact electron count on the 3D integration grid.
  | Formal number of electrons (from input files) :     102.0000000000
  | Integrated number of electrons on 3D grid     :     102.0000000000
  | Charge integration error                      :       0.0000000000
  | Normalization factor for density and gradient :       1.0000000000

  Evaluating partitioned Hartree potential by multipole expansion.
  | Original multipole sum: apparent total charge =  -0.632408E-13
  | Sum of charges compensated after spline to logarithmic grids =   0.326822E-06
  | Analytical far-field extrapolation by fixed multipoles:
  | Hartree multipole sum: apparent total charge =  -0.641263E-13
  Summing up the Hartree potential.
  Time summed over all CPUs for potential: real work        0.023 s, elapsed        0.025 s
  | RMS charge density error from multipole expansion :   0.937304E-02
  | Average real-space part of the electrostatic potential :      0.57260175 eV

  Integrating Hamiltonian matrix: batch-based integration.
  Time summed over all CPUs for integration: real work       84.967 s, elapsed       94.217 s

  Updating Kohn-Sham eigenvalues and eigenvectors using ELSI and the (modified) LAPACK eigensolver.
  Starting LAPACK eigensolver
  Finished Cholesky decomposition
  | Time :     0.002 s
  Finished transformation to standard eigenproblem
  | Time :     0.001 s
  Finished solving standard eigenproblem
  | Time :     0.007 s
  Finished back-transformation of eigenvectors
  | Time :     0.000 s

  Obtaining occupation numbers and electronic chemical potential using ELSI.
  | Note that, for insulating systems, the printed 'chemical potential' value is not uniquely defined.
  | It can be anywhere in the energy gap, as long as it correctly separates occupied and unoccupied states.
  | In systems with a gap, the physically relevant chemical potential is the VBM or HOMO.

  | Chemical potential (Fermi level):   -10.22477350 eV
  What follows are estimated values for band gap, HOMO, LUMO, etc.
  | They are estimated on a discrete k-point grid and not necessarily exact.
  | For converged numbers, create a DOS and/or band structure plot on a denser k-grid.

  Highest occupied state (VBM) at    -11.57459547 eV (relative to internal zero)
  | Occupation number:      2.00000000
  | K-point:     205 at    0.500000    0.500000    0.500000 (in units of recip. lattice)

  Lowest unoccupied state (CBM) at    -8.87495154 eV (relative to internal zero)
  | Occupation number:      0.00000000
  | K-point:       1 at    0.000000    0.000000    0.000000 (in units of recip. lattice)

  The gap value is above 0.2 eV. Unless you are using a very sparse k-point grid,
  this system is most likely an insulator or a semiconductor.
  ESTIMATED overall HOMO-LUMO gap:      2.69964392 eV between HOMO at k-point 205 and LUMO at k-point 1
  | This appears to be an indirect band gap.
  | Smallest direct gap :      2.71579574 eV for k_point 1 at    0.000000    0.000000    0.000000 (in units of recip. lattice)

  Total energy components:
  | Sum of eigenvalues            :       -5807.85834199 Ha     -158039.86646530 eV
  | XC energy correction          :        -257.49915579 Ha       -7006.90853669 eV
  | XC potential correction       :         341.23704641 Ha        9285.53247542 eV
  | Free-atom electrostatic energy:       -3623.98105672 Ha      -98613.54195517 eV
  | Hartree energy correction     :           1.33083534 Ha          36.21387212 eV
  | Entropy correction            :           0.00000000 Ha           0.00000000 eV
  | ---------------------------
  | Total energy                  :       -9346.77067275 Ha     -254338.57060962 eV
  | Total energy, T -> 0          :       -9346.77067275 Ha     -254338.57060962 eV  <-- do not rely on this value for anything but (periodic) metals
  | Electronic free energy        :       -9346.77067275 Ha     -254338.57060962 eV

  Derived energy quantities:
  | Kinetic energy                :        9815.70503567 Ha      267098.92386428 eV
  | Electrostatic energy          :      -18904.97655263 Ha     -514430.58593721 eV
  | Energy correction for multipole
  | error in Hartree potential    :           0.00408838 Ha           0.11125056 eV
  | Sum of eigenvalues per atom                           :      -31607.97329306 eV
  | Total energy (T->0) per atom                          :      -50867.71412192 eV  <-- do not rely on this value for anything but (periodic) metals
  | Electronic free energy per atom                       :      -50867.71412192 eV
  Evaluating new KS density using the density matrix
  Evaluating density matrix
  Time summed over all CPUs for getting density from density matrix: real work       86.166 s, elapsed       93.384 s
  Integration grid: deviation in total charge (<rho> - N_e) =   2.842171E-14

  Self-consistency convergence accuracy:
  | Change of charge density      :  0.1784E+00
  | Change of unmixed KS density  :  0.4454E-01
  | Change of sum of eigenvalues  : -0.2240E+01 eV
  | Change of total energy        :  0.3918E+00 eV


------------------------------------------------------------
  End self-consistency iteration #     5       :  max(cpu_time)    wall_clock(cpu1)
  | Time for this iteration                     :        1.608 s           1.630 s
  | Charge density update                       :        0.759 s           0.769 s
  | Density mixing                              :        0.000 s           0.001 s
  | Hartree multipole update                    :        0.001 s           0.001 s
  | Hartree multipole summation                 :        0.027 s           0.027 s
  | Integration                                 :        0.762 s           0.773 s
  | Solution of K.-S. eqns.                     :        0.057 s           0.058 s
  | Total energy evaluation                     :        0.001 s           0.001 s

  Partial memory accounting:
  | Current value for overall tracked memory usage:
  |   Minimum:       27.703 MB (on task  48)
  |   Maximum:       27.948 MB (on task   1)
  |   Average:       27.715 MB
  | Peak value for overall tracked memory usage:
  |   Minimum:       67.018 MB (on task   6 after allocating wave)
  |   Maximum:       72.073 MB (on task  54 after allocating wave)
  |   Average:       69.002 MB
  | Largest tracked array allocation so far:
  |   Minimum:       33.999 MB (hamiltonian_shell on task   6)
  |   Maximum:       38.693 MB (hamiltonian_shell on task  54)
  |   Average:       35.831 MB
  Note:  These values currently only include a subset of arrays which are explicitly tracked.
  The "true" memory usage will be greater.
------------------------------------------------------------

------------------------------------------------------------
          Begin self-consistency iteration #    6

  Date     :  20260729, Time     :  141232.136
------------------------------------------------------------
  Pulay mixing of updated and previous charge densities.
  Available memory per node after mixing [GB]:    488.88
  Renormalizing the density to the exact electron count on the 3D integration grid.
  | Formal number of electrons (from input files) :     102.0000000000
  | Integrated number of electrons on 3D grid     :     102.0000000000
  | Charge integration error                      :       0.0000000000
  | Normalization factor for density and gradient :       1.0000000000

  Evaluating partitioned Hartree potential by multipole expansion.
  | Original multipole sum: apparent total charge =  -0.391350E-13
  | Sum of charges compensated after spline to logarithmic grids =   0.326258E-06
  | Analytical far-field extrapolation by fixed multipoles:
  | Hartree multipole sum: apparent total charge =  -0.397007E-13
  Summing up the Hartree potential.
  Time summed over all CPUs for potential: real work        0.023 s, elapsed        0.025 s
  | RMS charge density error from multipole expansion :   0.950532E-02
  | Average real-space part of the electrostatic potential :      0.57092930 eV

  Integrating Hamiltonian matrix: batch-based integration.
  Time summed over all CPUs for integration: real work       84.873 s, elapsed       96.813 s

  Updating Kohn-Sham eigenvalues and eigenvectors using ELSI and the (modified) LAPACK eigensolver.
  Starting LAPACK eigensolver
  Finished Cholesky decomposition
  | Time :     0.001 s
  Finished transformation to standard eigenproblem
  | Time :     0.002 s
  Finished solving standard eigenproblem
  | Time :     0.007 s
  Finished back-transformation of eigenvectors
  | Time :     0.000 s

  Obtaining occupation numbers and electronic chemical potential using ELSI.
  | Note that, for insulating systems, the printed 'chemical potential' value is not uniquely defined.
  | It can be anywhere in the energy gap, as long as it correctly separates occupied and unoccupied states.
  | In systems with a gap, the physically relevant chemical potential is the VBM or HOMO.

  | Chemical potential (Fermi level):   -10.29436871 eV
  What follows are estimated values for band gap, HOMO, LUMO, etc.
  | They are estimated on a discrete k-point grid and not necessarily exact.
  | For converged numbers, create a DOS and/or band structure plot on a denser k-grid.

  Highest occupied state (VBM) at    -11.56825118 eV (relative to internal zero)
  | Occupation number:      2.00000000
  | K-point:     205 at    0.500000    0.500000    0.500000 (in units of recip. lattice)

  Lowest unoccupied state (CBM) at    -9.02048624 eV (relative to internal zero)
  | Occupation number:      0.00000000
  | K-point:       1 at    0.000000    0.000000    0.000000 (in units of recip. lattice)

  The gap value is above 0.2 eV. Unless you are using a very sparse k-point grid,
  this system is most likely an insulator or a semiconductor.
  ESTIMATED overall HOMO-LUMO gap:      2.54776494 eV between HOMO at k-point 205 and LUMO at k-point 1
  | This appears to be an indirect band gap.
  | Smallest direct gap :      2.57212130 eV for k_point 1 at    0.000000    0.000000    0.000000 (in units of recip. lattice)

  Total energy components:
  | Sum of eigenvalues            :       -5807.91318222 Ha     -158041.35874400 eV
  | XC energy correction          :        -257.49241101 Ha       -7006.72500186 eV
  | XC potential correction       :         341.22811537 Ha        9285.28944964 eV
  | Free-atom electrostatic energy:       -3623.98105672 Ha      -98613.54195517 eV
  | Hartree energy correction     :           1.39083920 Ha          37.84666025 eV
  | Entropy correction            :           0.00000000 Ha           0.00000000 eV
  | ---------------------------
  | Total energy                  :       -9346.76769538 Ha     -254338.48959114 eV
  | Total energy, T -> 0          :       -9346.76769538 Ha     -254338.48959114 eV  <-- do not rely on this value for anything but (periodic) metals
  | Electronic free energy        :       -9346.76769538 Ha     -254338.48959114 eV

  Derived energy quantities:
  | Kinetic energy                :        9815.64687794 Ha      267097.34131191 eV
  | Electrostatic energy          :      -18904.92216231 Ha     -514429.10590119 eV
  | Energy correction for multipole
  | error in Hartree potential    :           0.00415352 Ha           0.11302293 eV
  | Sum of eigenvalues per atom                           :      -31608.27174880 eV
  | Total energy (T->0) per atom                          :      -50867.69791823 eV  <-- do not rely on this value for anything but (periodic) metals
  | Electronic free energy per atom                       :      -50867.69791823 eV
  Evaluating new KS density using the density matrix
  Evaluating density matrix
  Time summed over all CPUs for getting density from density matrix: real work       86.475 s, elapsed       94.502 s
  Integration grid: deviation in total charge (<rho> - N_e) =   2.842171E-14

  Self-consistency convergence accuracy:
  | Change of charge density      :  0.1137E+00
  | Change of unmixed KS density  :  0.5219E-01
  | Change of sum of eigenvalues  : -0.1492E+01 eV
  | Change of total energy        :  0.8102E-01 eV


------------------------------------------------------------
  End self-consistency iteration #     6       :  max(cpu_time)    wall_clock(cpu1)
  | Time for this iteration                     :        1.637 s           1.659 s
  | Charge density update                       :        0.768 s           0.778 s
  | Density mixing                              :        0.000 s           0.001 s
  | Hartree multipole update                    :        0.001 s           0.001 s
  | Hartree multipole summation                 :        0.027 s           0.027 s
  | Integration                                 :        0.782 s           0.793 s
  | Solution of K.-S. eqns.                     :        0.057 s           0.058 s
  | Total energy evaluation                     :        0.001 s           0.001 s

  Partial memory accounting:
  | Current value for overall tracked memory usage:
  |   Minimum:       27.703 MB (on task  48)
  |   Maximum:       27.948 MB (on task   1)
  |   Average:       27.715 MB
  | Peak value for overall tracked memory usage:
  |   Minimum:       67.018 MB (on task   6 after allocating wave)
  |   Maximum:       72.073 MB (on task  54 after allocating wave)
  |   Average:       69.002 MB
  | Largest tracked array allocation so far:
  |   Minimum:       33.999 MB (hamiltonian_shell on task   6)
  |   Maximum:       38.693 MB (hamiltonian_shell on task  54)
  |   Average:       35.831 MB
  Note:  These values currently only include a subset of arrays which are explicitly tracked.
  The "true" memory usage will be greater.
------------------------------------------------------------

------------------------------------------------------------
          Begin self-consistency iteration #    7

  Date     :  20260729, Time     :  141233.796
------------------------------------------------------------
  Pulay mixing of updated and previous charge densities.
  Available memory per node after mixing [GB]:    488.95
  Renormalizing the density to the exact electron count on the 3D integration grid.
  | Formal number of electrons (from input files) :     102.0000000000
  | Integrated number of electrons on 3D grid     :     102.0000000000
  | Charge integration error                      :       0.0000000000
  | Normalization factor for density and gradient :       1.0000000000

  Evaluating partitioned Hartree potential by multipole expansion.
  | Original multipole sum: apparent total charge =  -0.643969E-13
  | Sum of charges compensated after spline to logarithmic grids =   0.303772E-06
  | Analytical far-field extrapolation by fixed multipoles:
  | Hartree multipole sum: apparent total charge =  -0.650118E-13
  Summing up the Hartree potential.
  Time summed over all CPUs for potential: real work        0.023 s, elapsed        0.025 s
  | RMS charge density error from multipole expansion :   0.975983E-02
  | Average real-space part of the electrostatic potential :      0.57078884 eV

  Integrating Hamiltonian matrix: batch-based integration.
  Time summed over all CPUs for integration: real work       84.706 s, elapsed       93.326 s

  Updating Kohn-Sham eigenvalues and eigenvectors using ELSI and the (modified) LAPACK eigensolver.
  Starting LAPACK eigensolver
  Finished Cholesky decomposition
  | Time :     0.001 s
  Finished transformation to standard eigenproblem
  | Time :     0.002 s
  Finished solving standard eigenproblem
  | Time :     0.007 s
  Finished back-transformation of eigenvectors
  | Time :     0.000 s

  Obtaining occupation numbers and electronic chemical potential using ELSI.
  | Note that, for insulating systems, the printed 'chemical potential' value is not uniquely defined.
  | It can be anywhere in the energy gap, as long as it correctly separates occupied and unoccupied states.
  | In systems with a gap, the physically relevant chemical potential is the VBM or HOMO.

  | Chemical potential (Fermi level):   -10.40696907 eV
  What follows are estimated values for band gap, HOMO, LUMO, etc.
  | They are estimated on a discrete k-point grid and not necessarily exact.
  | For converged numbers, create a DOS and/or band structure plot on a denser k-grid.

  Highest occupied state (VBM) at    -11.49939858 eV (relative to internal zero)
  | Occupation number:      2.00000000
  | K-point:     205 at    0.500000    0.500000    0.500000 (in units of recip. lattice)

  Lowest unoccupied state (CBM) at    -9.31453956 eV (relative to internal zero)
  | Occupation number:      0.00000000
  | K-point:       1 at    0.000000    0.000000    0.000000 (in units of recip. lattice)

  The gap value is above 0.2 eV. Unless you are using a very sparse k-point grid,
  this system is most likely an insulator or a semiconductor.
  ESTIMATED overall HOMO-LUMO gap:      2.18485902 eV between HOMO at k-point 205 and LUMO at k-point 1
  | This appears to be an indirect band gap.
  | Smallest direct gap :      2.22899617 eV for k_point 1 at    0.000000    0.000000    0.000000 (in units of recip. lattice)

  Total energy components:
  | Sum of eigenvalues            :       -5808.21599550 Ha     -158049.59871270 eV
  | XC energy correction          :        -257.48112163 Ha       -7006.41780223 eV
  | XC potential correction       :         341.21316495 Ha        9284.88262803 eV
  | Free-atom electrostatic energy:       -3623.98105672 Ha      -98613.54195517 eV
  | Hartree energy correction     :           1.70210946 Ha          46.31675498 eV
  | Entropy correction            :           0.00000000 Ha           0.00000000 eV
  | ---------------------------
  | Total energy                  :       -9346.76289944 Ha     -254338.35908710 eV
  | Total energy, T -> 0          :       -9346.76289944 Ha     -254338.35908710 eV  <-- do not rely on this value for anything but (periodic) metals
  | Electronic free energy        :       -9346.76289944 Ha     -254338.35908710 eV

  Derived energy quantities:
  | Kinetic energy                :        9815.53180429 Ha      267094.20999846 eV
  | Electrostatic energy          :      -18904.81358210 Ha     -514426.15128332 eV
  | Energy correction for multipole
  | error in Hartree potential    :           0.00424219 Ha           0.11543592 eV
  | Sum of eigenvalues per atom                           :      -31609.91974254 eV
  | Total energy (T->0) per atom                          :      -50867.67181742 eV  <-- do not rely on this value for anything but (periodic) metals
  | Electronic free energy per atom                       :      -50867.67181742 eV
  Evaluating new KS density using the density matrix
  Evaluating density matrix
  Time summed over all CPUs for getting density from density matrix: real work       86.313 s, elapsed       94.290 s
  Integration grid: deviation in total charge (<rho> - N_e) =   5.684342E-14

  Self-consistency convergence accuracy:
  | Change of charge density      :  0.9725E-01
  | Change of unmixed KS density  :  0.1323E-01
  | Change of sum of eigenvalues  : -0.8240E+01 eV
  | Change of total energy        :  0.1305E+00 eV


------------------------------------------------------------
  End self-consistency iteration #     7       :  max(cpu_time)    wall_clock(cpu1)
  | Time for this iteration                     :        1.609 s           1.631 s
  | Charge density update                       :        0.766 s           0.777 s
  | Density mixing                              :        0.000 s           0.000 s
  | Hartree multipole update                    :        0.001 s           0.001 s
  | Hartree multipole summation                 :        0.027 s           0.028 s
  | Integration                                 :        0.756 s           0.765 s
  | Solution of K.-S. eqns.                     :        0.058 s           0.059 s
  | Total energy evaluation                     :        0.000 s           0.000 s

  Partial memory accounting:
  | Current value for overall tracked memory usage:
  |   Minimum:       27.703 MB (on task  48)
  |   Maximum:       27.948 MB (on task   1)
  |   Average:       27.715 MB
  | Peak value for overall tracked memory usage:
  |   Minimum:       67.018 MB (on task   6 after allocating wave)
  |   Maximum:       72.073 MB (on task  54 after allocating wave)
  |   Average:       69.002 MB
  | Largest tracked array allocation so far:
  |   Minimum:       33.999 MB (hamiltonian_shell on task   6)
  |   Maximum:       38.693 MB (hamiltonian_shell on task  54)
  |   Average:       35.831 MB
  Note:  These values currently only include a subset of arrays which are explicitly tracked.
  The "true" memory usage will be greater.
------------------------------------------------------------

------------------------------------------------------------
          Begin self-consistency iteration #    8

  Date     :  20260729, Time     :  141235.428
------------------------------------------------------------
  Pulay mixing of updated and previous charge densities.
  Available memory per node after mixing [GB]:    488.97
  Renormalizing the density to the exact electron count on the 3D integration grid.
  | Formal number of electrons (from input files) :     102.0000000000
  | Integrated number of electrons on 3D grid     :     102.0000000000
  | Charge integration error                      :       0.0000000000
  | Normalization factor for density and gradient :       1.0000000000

  Evaluating partitioned Hartree potential by multipole expansion.
  | Original multipole sum: apparent total charge =  -0.238352E-13
  | Sum of charges compensated after spline to logarithmic grids =   0.287728E-06
  | Analytical far-field extrapolation by fixed multipoles:
  | Hartree multipole sum: apparent total charge =  -0.232203E-13
  Summing up the Hartree potential.
  Time summed over all CPUs for potential: real work        0.023 s, elapsed        0.025 s
  | RMS charge density error from multipole expansion :   0.985716E-02
  | Average real-space part of the electrostatic potential :      0.56925743 eV

  Integrating Hamiltonian matrix: batch-based integration.
  Time summed over all CPUs for integration: real work       85.034 s, elapsed       95.423 s

  Updating Kohn-Sham eigenvalues and eigenvectors using ELSI and the (modified) LAPACK eigensolver.
  Starting LAPACK eigensolver
  Finished Cholesky decomposition
  | Time :     0.001 s
  Finished transformation to standard eigenproblem
  | Time :     0.002 s
  Finished solving standard eigenproblem
  | Time :     0.006 s
  Finished back-transformation of eigenvectors
  | Time :     0.001 s

  Obtaining occupation numbers and electronic chemical potential using ELSI.
  | Note that, for insulating systems, the printed 'chemical potential' value is not uniquely defined.
  | It can be anywhere in the energy gap, as long as it correctly separates occupied and unoccupied states.
  | In systems with a gap, the physically relevant chemical potential is the VBM or HOMO.

  | Chemical potential (Fermi level):   -10.48082048 eV
  What follows are estimated values for band gap, HOMO, LUMO, etc.
  | They are estimated on a discrete k-point grid and not necessarily exact.
  | For converged numbers, create a DOS and/or band structure plot on a denser k-grid.

  Highest occupied state (VBM) at    -11.46697143 eV (relative to internal zero)
  | Occupation number:      2.00000000
  | K-point:     205 at    0.500000    0.500000    0.500000 (in units of recip. lattice)

  Lowest unoccupied state (CBM) at    -9.49466954 eV (relative to internal zero)
  | Occupation number:      0.00000000
  | K-point:       1 at    0.000000    0.000000    0.000000 (in units of recip. lattice)

  The gap value is above 0.2 eV. Unless you are using a very sparse k-point grid,
  this system is most likely an insulator or a semiconductor.
  ESTIMATED overall HOMO-LUMO gap:      1.97230189 eV between HOMO at k-point 205 and LUMO at k-point 1
  | This appears to be an indirect band gap.
  | Smallest direct gap :      2.02773433 eV for k_point 1 at    0.000000    0.000000    0.000000 (in units of recip. lattice)

  Total energy components:
  | Sum of eigenvalues            :       -5808.33352279 Ha     -158052.79679275 eV
  | XC energy correction          :        -257.47582111 Ha       -7006.27356776 eV
  | XC potential correction       :         341.20615480 Ha        9284.69187207 eV
  | Free-atom electrostatic energy:       -3623.98105672 Ha      -98613.54195517 eV
  | Hartree energy correction     :           1.82282731 Ha          49.60165483 eV
  | Entropy correction            :           0.00000000 Ha           0.00000000 eV
  | ---------------------------
  | Total energy                  :       -9346.76141851 Ha     -254338.31878878 eV
  | Total energy, T -> 0          :       -9346.76141851 Ha     -254338.31878878 eV  <-- do not rely on this value for anything but (periodic) metals
  | Electronic free energy        :       -9346.76141851 Ha     -254338.31878878 eV

  Derived energy quantities:
  | Kinetic energy                :        9815.50667118 Ha      267093.52609170 eV
  | Electrostatic energy          :      -18904.79226857 Ha     -514425.57131272 eV
  | Energy correction for multipole
  | error in Hartree potential    :           0.00426740 Ha           0.11612198 eV
  | Sum of eigenvalues per atom                           :      -31610.55935855 eV
  | Total energy (T->0) per atom                          :      -50867.66375776 eV  <-- do not rely on this value for anything but (periodic) metals
  | Electronic free energy per atom                       :      -50867.66375776 eV
  Evaluating new KS density using the density matrix
  Evaluating density matrix
  Time summed over all CPUs for getting density from density matrix: real work       86.146 s, elapsed       94.162 s
  Integration grid: deviation in total charge (<rho> - N_e) =   4.263256E-14

  Self-consistency convergence accuracy:
  | Change of charge density      :  0.5373E-01
  | Change of unmixed KS density  :  0.3567E-01
  | Change of sum of eigenvalues  : -0.3198E+01 eV
  | Change of total energy        :  0.4030E-01 eV


------------------------------------------------------------
  End self-consistency iteration #     8       :  max(cpu_time)    wall_clock(cpu1)
  | Time for this iteration                     :        1.624 s           1.645 s
  | Charge density update                       :        0.765 s           0.776 s
  | Density mixing                              :        0.000 s           0.000 s
  | Hartree multipole update                    :        0.001 s           0.001 s
  | Hartree multipole summation                 :        0.027 s           0.027 s
  | Integration                                 :        0.772 s           0.782 s
  | Solution of K.-S. eqns.                     :        0.058 s           0.059 s
  | Total energy evaluation                     :        0.001 s           0.000 s

  Partial memory accounting:
  | Current value for overall tracked memory usage:
  |   Minimum:       27.703 MB (on task  48)
  |   Maximum:       27.948 MB (on task   1)
  |   Average:       27.715 MB
  | Peak value for overall tracked memory usage:
  |   Minimum:       67.018 MB (on task   6 after allocating wave)
  |   Maximum:       72.073 MB (on task  54 after allocating wave)
  |   Average:       69.002 MB
  | Largest tracked array allocation so far:
  |   Minimum:       33.999 MB (hamiltonian_shell on task   6)
  |   Maximum:       38.693 MB (hamiltonian_shell on task  54)
  |   Average:       35.831 MB
  Note:  These values currently only include a subset of arrays which are explicitly tracked.
  The "true" memory usage will be greater.
------------------------------------------------------------

------------------------------------------------------------
          Begin self-consistency iteration #    9

  Date     :  20260729, Time     :  141237.074
------------------------------------------------------------
  Pulay mixing of updated and previous charge densities.
  Available memory per node after mixing [GB]:    488.99
  Renormalizing the density to the exact electron count on the 3D integration grid.
  | Formal number of electrons (from input files) :     102.0000000000
  | Integrated number of electrons on 3D grid     :     102.0000000000
  | Charge integration error                      :       0.0000000000
  | Normalization factor for density and gradient :       1.0000000000

  Evaluating partitioned Hartree potential by multipole expansion.
  | Original multipole sum: apparent total charge =  -0.130860E-13
  | Sum of charges compensated after spline to logarithmic grids =   0.272255E-06
  | Analytical far-field extrapolation by fixed multipoles:
  | Hartree multipole sum: apparent total charge =  -0.119791E-13
  Summing up the Hartree potential.
  Time summed over all CPUs for potential: real work        0.023 s, elapsed        0.025 s
  | RMS charge density error from multipole expansion :   0.999587E-02
  | Average real-space part of the electrostatic potential :      0.57127689 eV

  Integrating Hamiltonian matrix: batch-based integration.
  Time summed over all CPUs for integration: real work       84.911 s, elapsed       93.082 s

  Updating Kohn-Sham eigenvalues and eigenvectors using ELSI and the (modified) LAPACK eigensolver.
  Starting LAPACK eigensolver
  Finished Cholesky decomposition
  | Time :     0.001 s
  Finished transformation to standard eigenproblem
  | Time :     0.002 s
  Finished solving standard eigenproblem
  | Time :     0.006 s
  Finished back-transformation of eigenvectors
  | Time :     0.001 s

  Obtaining occupation numbers and electronic chemical potential using ELSI.
  | Note that, for insulating systems, the printed 'chemical potential' value is not uniquely defined.
  | It can be anywhere in the energy gap, as long as it correctly separates occupied and unoccupied states.
  | In systems with a gap, the physically relevant chemical potential is the VBM or HOMO.

  | Chemical potential (Fermi level):   -10.54941644 eV
  What follows are estimated values for band gap, HOMO, LUMO, etc.
  | They are estimated on a discrete k-point grid and not necessarily exact.
  | For converged numbers, create a DOS and/or band structure plot on a denser k-grid.

  Highest occupied state (VBM) at    -11.42565821 eV (relative to internal zero)
  | Occupation number:      2.00000000
  | K-point:     205 at    0.500000    0.500000    0.500000 (in units of recip. lattice)

  Lowest unoccupied state (CBM) at    -9.67317468 eV (relative to internal zero)
  | Occupation number:      0.00000000
  | K-point:       1 at    0.000000    0.000000    0.000000 (in units of recip. lattice)

  The gap value is above 0.2 eV. Unless you are using a very sparse k-point grid,
  this system is most likely an insulator or a semiconductor.
  ESTIMATED overall HOMO-LUMO gap:      1.75248353 eV between HOMO at k-point 205 and LUMO at k-point 1
  | This appears to be an indirect band gap.
  | Smallest direct gap :      1.81861125 eV for k_point 1 at    0.000000    0.000000    0.000000 (in units of recip. lattice)

  Total energy components:
  | Sum of eigenvalues            :       -5808.42030601 Ha     -158055.15828437 eV
  | XC energy correction          :        -257.47331038 Ha       -7006.20524721 eV
  | XC potential correction       :         341.20283706 Ha        9284.60159174 eV
  | Free-atom electrostatic energy:       -3623.98105672 Ha      -98613.54195517 eV
  | Hartree energy correction     :           1.91087974 Ha          51.99768337 eV
  | Entropy correction            :           0.00000000 Ha           0.00000000 eV
  | ---------------------------
  | Total energy                  :       -9346.76095631 Ha     -254338.30621164 eV
  | Total energy, T -> 0          :       -9346.76095631 Ha     -254338.30621164 eV  <-- do not rely on this value for anything but (periodic) metals
  | Electronic free energy        :       -9346.76095631 Ha     -254338.30621164 eV

  Derived energy quantities:
  | Kinetic energy                :        9815.52000958 Ha      267093.88904806 eV
  | Electrostatic energy          :      -18904.80765551 Ha     -514425.99001250 eV
  | Energy correction for multipole
  | error in Hartree potential    :           0.00429861 Ha           0.11697114 eV
  | Sum of eigenvalues per atom                           :      -31611.03165687 eV
  | Total energy (T->0) per atom                          :      -50867.66124233 eV  <-- do not rely on this value for anything but (periodic) metals
  | Electronic free energy per atom                       :      -50867.66124233 eV
  Evaluating new KS density using the density matrix
  Evaluating density matrix
  Time summed over all CPUs for getting density from density matrix: real work       86.197 s, elapsed       93.792 s
  Integration grid: deviation in total charge (<rho> - N_e) =   2.842171E-14

  Self-consistency convergence accuracy:
  | Change of charge density      :  0.2711E-01
  | Change of unmixed KS density  :  0.2204E-01
  | Change of sum of eigenvalues  : -0.2361E+01 eV
  | Change of total energy        :  0.1258E-01 eV


------------------------------------------------------------
  End self-consistency iteration #     9       :  max(cpu_time)    wall_clock(cpu1)
  | Time for this iteration                     :        1.603 s           1.625 s
  | Charge density update                       :        0.762 s           0.773 s
  | Density mixing                              :        0.000 s           0.000 s
  | Hartree multipole update                    :        0.001 s           0.002 s
  | Hartree multipole summation                 :        0.027 s           0.027 s
  | Integration                                 :        0.753 s           0.763 s
  | Solution of K.-S. eqns.                     :        0.059 s           0.060 s
  | Total energy evaluation                     :        0.000 s           0.000 s

  Partial memory accounting:
  | Current value for overall tracked memory usage:
  |   Minimum:       27.703 MB (on task  48)
  |   Maximum:       27.948 MB (on task   1)
  |   Average:       27.715 MB
  | Peak value for overall tracked memory usage:
  |   Minimum:       67.018 MB (on task   6 after allocating wave)
  |   Maximum:       72.073 MB (on task  54 after allocating wave)
  |   Average:       69.002 MB
  | Largest tracked array allocation so far:
  |   Minimum:       33.999 MB (hamiltonian_shell on task   6)
  |   Maximum:       38.693 MB (hamiltonian_shell on task  54)
  |   Average:       35.831 MB
  Note:  These values currently only include a subset of arrays which are explicitly tracked.
  The "true" memory usage will be greater.
------------------------------------------------------------

------------------------------------------------------------
          Begin self-consistency iteration #   10

  Date     :  20260729, Time     :  141238.700
------------------------------------------------------------
  Pulay mixing of updated and previous charge densities.
  Available memory per node after mixing [GB]:    489.05
  Renormalizing the density to the exact electron count on the 3D integration grid.
  | Formal number of electrons (from input files) :     102.0000000000
  | Integrated number of electrons on 3D grid     :     102.0000000000
  | Charge integration error                      :       0.0000000000
  | Normalization factor for density and gradient :       1.0000000000

  Evaluating partitioned Hartree potential by multipole expansion.
  | Original multipole sum: apparent total charge =  -0.124219E-13
  | Sum of charges compensated after spline to logarithmic grids =   0.272834E-06
  | Analytical far-field extrapolation by fixed multipoles:
  | Hartree multipole sum: apparent total charge =  -0.126678E-13
  Summing up the Hartree potential.
  Time summed over all CPUs for potential: real work        0.023 s, elapsed        0.025 s
  | RMS charge density error from multipole expansion :   0.100028E-01
  | Average real-space part of the electrostatic potential :      0.57275890 eV

  Integrating Hamiltonian matrix: batch-based integration.
  Time summed over all CPUs for integration: real work       85.199 s, elapsed       94.128 s

  Updating Kohn-Sham eigenvalues and eigenvectors using ELSI and the (modified) LAPACK eigensolver.
  Starting LAPACK eigensolver
  Finished Cholesky decomposition
  | Time :     0.001 s
  Finished transformation to standard eigenproblem
  | Time :     0.002 s
  Finished solving standard eigenproblem
  | Time :     0.007 s
  Finished back-transformation of eigenvectors
  | Time :     0.000 s

  Obtaining occupation numbers and electronic chemical potential using ELSI.
  | Note that, for insulating systems, the printed 'chemical potential' value is not uniquely defined.
  | It can be anywhere in the energy gap, as long as it correctly separates occupied and unoccupied states.
  | In systems with a gap, the physically relevant chemical potential is the VBM or HOMO.

  | Chemical potential (Fermi level):   -10.54344797 eV
  What follows are estimated values for band gap, HOMO, LUMO, etc.
  | They are estimated on a discrete k-point grid and not necessarily exact.
  | For converged numbers, create a DOS and/or band structure plot on a denser k-grid.

  Highest occupied state (VBM) at    -11.42324864 eV (relative to internal zero)
  | Occupation number:      2.00000000
  | K-point:     205 at    0.500000    0.500000    0.500000 (in units of recip. lattice)

  Lowest unoccupied state (CBM) at    -9.66364730 eV (relative to internal zero)
  | Occupation number:      0.00000000
  | K-point:       1 at    0.000000    0.000000    0.000000 (in units of recip. lattice)

  The gap value is above 0.2 eV. Unless you are using a very sparse k-point grid,
  this system is most likely an insulator or a semiconductor.
  ESTIMATED overall HOMO-LUMO gap:      1.75960134 eV between HOMO at k-point 205 and LUMO at k-point 1
  | This appears to be an indirect band gap.
  | Smallest direct gap :      1.82509619 eV for k_point 1 at    0.000000    0.000000    0.000000 (in units of recip. lattice)

  Total energy components:
  | Sum of eigenvalues            :       -5808.41607058 Ha     -158055.04303248 eV
  | XC energy correction          :        -257.47408971 Ha       -7006.22645392 eV
  | XC potential correction       :         341.20386512 Ha        9284.62956677 eV
  | Free-atom electrostatic energy:       -3623.98105672 Ha      -98613.54195517 eV
  | Hartree energy correction     :           1.90639737 Ha          51.87571176 eV
  | Entropy correction            :           0.00000000 Ha           0.00000000 eV
  | ---------------------------
  | Total energy                  :       -9346.76095452 Ha     -254338.30616304 eV
  | Total energy, T -> 0          :       -9346.76095452 Ha     -254338.30616304 eV  <-- do not rely on this value for anything but (periodic) metals
  | Electronic free energy        :       -9346.76095452 Ha     -254338.30616304 eV

  Derived energy quantities:
  | Kinetic energy                :        9815.52052456 Ha      267093.90306154 eV
  | Electrostatic energy          :      -18904.80738937 Ha     -514425.98277066 eV
  | Energy correction for multipole
  | error in Hartree potential    :           0.00430137 Ha           0.11704617 eV
  | Sum of eigenvalues per atom                           :      -31611.00860650 eV
  | Total energy (T->0) per atom                          :      -50867.66123261 eV  <-- do not rely on this value for anything but (periodic) metals
  | Electronic free energy per atom                       :      -50867.66123261 eV
  Evaluating new KS density using the density matrix
  Evaluating density matrix
  Time summed over all CPUs for getting density from density matrix: real work       86.250 s, elapsed       93.622 s
  Integration grid: deviation in total charge (<rho> - N_e) =   4.263256E-14

  Self-consistency convergence accuracy:
  | Change of charge density      :  0.2226E-02
  | Change of unmixed KS density  :  0.2444E-01
  | Change of sum of eigenvalues  :  0.1153E+00 eV
  | Change of total energy        :  0.4860E-04 eV


------------------------------------------------------------
  End self-consistency iteration #    10       :  max(cpu_time)    wall_clock(cpu1)
  | Time for this iteration                     :        1.610 s           1.633 s
  | Charge density update                       :        0.761 s           0.772 s
  | Density mixing                              :        0.000 s           0.000 s
  | Hartree multipole update                    :        0.001 s           0.002 s
  | Hartree multipole summation                 :        0.027 s           0.027 s
  | Integration                                 :        0.762 s           0.772 s
  | Solution of K.-S. eqns.                     :        0.059 s           0.059 s
  | Total energy evaluation                     :        0.001 s           0.001 s

  Partial memory accounting:
  | Current value for overall tracked memory usage:
  |   Minimum:       27.703 MB (on task  48)
  |   Maximum:       27.948 MB (on task   1)
  |   Average:       27.715 MB
  | Peak value for overall tracked memory usage:
  |   Minimum:       67.018 MB (on task   6 after allocating wave)
  |   Maximum:       72.073 MB (on task  54 after allocating wave)
  |   Average:       69.002 MB
  | Largest tracked array allocation so far:
  |   Minimum:       33.999 MB (hamiltonian_shell on task   6)
  |   Maximum:       38.693 MB (hamiltonian_shell on task  54)
  |   Average:       35.831 MB
  Note:  These values currently only include a subset of arrays which are explicitly tracked.
  The "true" memory usage will be greater.
------------------------------------------------------------

------------------------------------------------------------
          Begin self-consistency iteration #   11

  Date     :  20260729, Time     :  141240.333
------------------------------------------------------------
  Pulay mixing of updated and previous charge densities.
  Available memory per node after mixing [GB]:    489.05
  Renormalizing the density to the exact electron count on the 3D integration grid.
  | Formal number of electrons (from input files) :     102.0000000000
  | Integrated number of electrons on 3D grid     :     102.0000000000
  | Charge integration error                      :       0.0000000000
  | Normalization factor for density and gradient :       1.0000000000

  Evaluating partitioned Hartree potential by multipole expansion.
  | Original multipole sum: apparent total charge =   0.190878E-13
  | Sum of charges compensated after spline to logarithmic grids =   0.273576E-06
  | Analytical far-field extrapolation by fixed multipoles:
  | Hartree multipole sum: apparent total charge =   0.188419E-13
  Summing up the Hartree potential.
  Time summed over all CPUs for potential: real work        0.023 s, elapsed        0.025 s
  | RMS charge density error from multipole expansion :   0.999946E-02
  | Average real-space part of the electrostatic potential :      0.57288374 eV

  Integrating Hamiltonian matrix: batch-based integration.
  Time summed over all CPUs for integration: real work       84.801 s, elapsed       93.458 s

  Updating Kohn-Sham eigenvalues and eigenvectors using ELSI and the (modified) LAPACK eigensolver.
  Starting LAPACK eigensolver
  Finished Cholesky decomposition
  | Time :     0.001 s
  Finished transformation to standard eigenproblem
  | Time :     0.002 s
  Finished solving standard eigenproblem
  | Time :     0.007 s
  Finished back-transformation of eigenvectors
  | Time :     0.000 s

  Obtaining occupation numbers and electronic chemical potential using ELSI.
  | Note that, for insulating systems, the printed 'chemical potential' value is not uniquely defined.
  | It can be anywhere in the energy gap, as long as it correctly separates occupied and unoccupied states.
  | In systems with a gap, the physically relevant chemical potential is the VBM or HOMO.

  | Chemical potential (Fermi level):   -10.54015420 eV
  What follows are estimated values for band gap, HOMO, LUMO, etc.
  | They are estimated on a discrete k-point grid and not necessarily exact.
  | For converged numbers, create a DOS and/or band structure plot on a denser k-grid.

  Highest occupied state (VBM) at    -11.42485876 eV (relative to internal zero)
  | Occupation number:      2.00000000
  | K-point:     205 at    0.500000    0.500000    0.500000 (in units of recip. lattice)

  Lowest unoccupied state (CBM) at    -9.65544963 eV (relative to internal zero)
  | Occupation number:      0.00000000
  | K-point:       1 at    0.000000    0.000000    0.000000 (in units of recip. lattice)

  The gap value is above 0.2 eV. Unless you are using a very sparse k-point grid,
  this system is most likely an insulator or a semiconductor.
  ESTIMATED overall HOMO-LUMO gap:      1.76940913 eV between HOMO at k-point 205 and LUMO at k-point 1
  | This appears to be an indirect band gap.
  | Smallest direct gap :      1.83439801 eV for k_point 1 at    0.000000    0.000000    0.000000 (in units of recip. lattice)

  Total energy components:
  | Sum of eigenvalues            :       -5808.41075301 Ha     -158054.89833405 eV
  | XC energy correction          :        -257.47430230 Ha       -7006.23223872 eV
  | XC potential correction       :         341.20414607 Ha        9284.63721161 eV
  | Free-atom electrostatic energy:       -3623.98105672 Ha      -98613.54195517 eV
  | Hartree energy correction     :           1.90101236 Ha          51.72917825 eV
  | Entropy correction            :           0.00000000 Ha           0.00000000 eV
  | ---------------------------
  | Total energy                  :       -9346.76095360 Ha     -254338.30613808 eV
  | Total energy, T -> 0          :       -9346.76095360 Ha     -254338.30613808 eV  <-- do not rely on this value for anything but (periodic) metals
  | Electronic free energy        :       -9346.76095360 Ha     -254338.30613808 eV

  Derived energy quantities:
  | Kinetic energy                :        9815.52129263 Ha      267093.92396160 eV
  | Electrostatic energy          :      -18904.80794393 Ha     -514425.99786096 eV
  | Energy correction for multipole
  | error in Hartree potential    :           0.00430056 Ha           0.11702409 eV
  | Sum of eigenvalues per atom                           :      -31610.97966681 eV
  | Total energy (T->0) per atom                          :      -50867.66122762 eV  <-- do not rely on this value for anything but (periodic) metals
  | Electronic free energy per atom                       :      -50867.66122762 eV
  Evaluating new KS density using the density matrix
  Evaluating density matrix
  Time summed over all CPUs for getting density from density matrix: real work       86.241 s, elapsed       93.475 s
  Integration grid: deviation in total charge (<rho> - N_e) =   2.842171E-14

  Self-consistency convergence accuracy:
  | Change of charge density      :  0.1237E-02
  | Change of unmixed KS density  :  0.7378E-03
  | Change of sum of eigenvalues  :  0.1447E+00 eV
  | Change of total energy        :  0.2496E-04 eV


------------------------------------------------------------
  End self-consistency iteration #    11       :  max(cpu_time)    wall_clock(cpu1)
  | Time for this iteration                     :        1.603 s           1.625 s
  | Charge density update                       :        0.760 s           0.770 s
  | Density mixing                              :        0.000 s           0.001 s
  | Hartree multipole update                    :        0.001 s           0.001 s
  | Hartree multipole summation                 :        0.027 s           0.027 s
  | Integration                                 :        0.757 s           0.767 s
  | Solution of K.-S. eqns.                     :        0.058 s           0.058 s
  | Total energy evaluation                     :        0.000 s           0.000 s

  Partial memory accounting:
  | Current value for overall tracked memory usage:
  |   Minimum:       27.703 MB (on task  48)
  |   Maximum:       27.948 MB (on task   1)
  |   Average:       27.715 MB
  | Peak value for overall tracked memory usage:
  |   Minimum:       67.018 MB (on task   6 after allocating wave)
  |   Maximum:       72.073 MB (on task  54 after allocating wave)
  |   Average:       69.002 MB
  | Largest tracked array allocation so far:
  |   Minimum:       33.999 MB (hamiltonian_shell on task   6)
  |   Maximum:       38.693 MB (hamiltonian_shell on task  54)
  |   Average:       35.831 MB
  Note:  These values currently only include a subset of arrays which are explicitly tracked.
  The "true" memory usage will be greater.
------------------------------------------------------------

------------------------------------------------------------
          Begin self-consistency iteration #   12

  Date     :  20260729, Time     :  141241.959
------------------------------------------------------------
  Pulay mixing of updated and previous charge densities.
  Available memory per node after mixing [GB]:    489.05
  Renormalizing the density to the exact electron count on the 3D integration grid.
  | Formal number of electrons (from input files) :     102.0000000000
  | Integrated number of electrons on 3D grid     :     102.0000000000
  | Charge integration error                      :      -0.0000000000
  | Normalization factor for density and gradient :       1.0000000000

  Evaluating partitioned Hartree potential by multipole expansion.
  | Original multipole sum: apparent total charge =  -0.439562E-13
  | Sum of charges compensated after spline to logarithmic grids =   0.273448E-06
  | Analytical far-field extrapolation by fixed multipoles:
  | Hartree multipole sum: apparent total charge =  -0.435626E-13
  Summing up the Hartree potential.
  Time summed over all CPUs for potential: real work        0.023 s, elapsed        0.025 s
  | RMS charge density error from multipole expansion :   0.100004E-01
  | Average real-space part of the electrostatic potential :      0.57281373 eV

  Integrating Hamiltonian matrix: batch-based integration.
  Time summed over all CPUs for integration: real work       84.753 s, elapsed       95.402 s

  Updating Kohn-Sham eigenvalues and eigenvectors using ELSI and the (modified) LAPACK eigensolver.
  Starting LAPACK eigensolver
  Finished Cholesky decomposition
  | Time :     0.002 s
  Finished transformation to standard eigenproblem
  | Time :     0.001 s
  Finished solving standard eigenproblem
  | Time :     0.007 s
  Finished back-transformation of eigenvectors
  | Time :     0.000 s

  Obtaining occupation numbers and electronic chemical potential using ELSI.
  | Note that, for insulating systems, the printed 'chemical potential' value is not uniquely defined.
  | It can be anywhere in the energy gap, as long as it correctly separates occupied and unoccupied states.
  | In systems with a gap, the physically relevant chemical potential is the VBM or HOMO.

  | Chemical potential (Fermi level):   -10.54096679 eV
  What follows are estimated values for band gap, HOMO, LUMO, etc.
  | They are estimated on a discrete k-point grid and not necessarily exact.
  | For converged numbers, create a DOS and/or band structure plot on a denser k-grid.

  Highest occupied state (VBM) at    -11.42468728 eV (relative to internal zero)
  | Occupation number:      2.00000000
  | K-point:     205 at    0.500000    0.500000    0.500000 (in units of recip. lattice)

  Lowest unoccupied state (CBM) at    -9.65724631 eV (relative to internal zero)
  | Occupation number:      0.00000000
  | K-point:       1 at    0.000000    0.000000    0.000000 (in units of recip. lattice)

  The gap value is above 0.2 eV. Unless you are using a very sparse k-point grid,
  this system is most likely an insulator or a semiconductor.
  ESTIMATED overall HOMO-LUMO gap:      1.76744097 eV between HOMO at k-point 205 and LUMO at k-point 1
  | This appears to be an indirect band gap.
  | Smallest direct gap :      1.83253729 eV for k_point 1 at    0.000000    0.000000    0.000000 (in units of recip. lattice)

  Total energy components:
  | Sum of eigenvalues            :       -5808.41217496 Ha     -158054.93702727 eV
  | XC energy correction          :        -257.47421519 Ha       -7006.22986844 eV
  | XC potential correction       :         341.20403091 Ha        9284.63407811 eV
  | Free-atom electrostatic energy:       -3623.98105672 Ha      -98613.54195517 eV
  | Hartree energy correction     :           1.90246238 Ha          51.76863530 eV
  | Entropy correction            :           0.00000000 Ha           0.00000000 eV
  | ---------------------------
  | Total energy                  :       -9346.76095358 Ha     -254338.30613746 eV
  | Total energy, T -> 0          :       -9346.76095358 Ha     -254338.30613746 eV  <-- do not rely on this value for anything but (periodic) metals
  | Electronic free energy        :       -9346.76095358 Ha     -254338.30613746 eV

  Derived energy quantities:
  | Kinetic energy                :        9815.52082790 Ha      267093.91131583 eV
  | Electrostatic energy          :      -18904.80756629 Ha     -514425.98758486 eV
  | Energy correction for multipole
  | error in Hartree potential    :           0.00430076 Ha           0.11702961 eV
  | Sum of eigenvalues per atom                           :      -31610.98740545 eV
  | Total energy (T->0) per atom                          :      -50867.66122749 eV  <-- do not rely on this value for anything but (periodic) metals
  | Electronic free energy per atom                       :      -50867.66122749 eV
  Evaluating new KS density using the density matrix
  Evaluating density matrix
  Time summed over all CPUs for getting density from density matrix: real work       86.220 s, elapsed       93.107 s
  Integration grid: deviation in total charge (<rho> - N_e) =   2.842171E-14

  Self-consistency convergence accuracy:
  | Change of charge density      :  0.1073E-03
  | Change of unmixed KS density  :  0.1116E-02
  | Change of sum of eigenvalues  : -0.3869E-01 eV
  | Change of total energy        :  0.6162E-06 eV


------------------------------------------------------------
  End self-consistency iteration #    12       :  max(cpu_time)    wall_clock(cpu1)
  | Time for this iteration                     :        1.615 s           1.637 s
  | Charge density update                       :        0.757 s           0.767 s
  | Density mixing                              :        0.000 s           0.000 s
  | Hartree multipole update                    :        0.001 s           0.001 s
  | Hartree multipole summation                 :        0.027 s           0.027 s
  | Integration                                 :        0.772 s           0.782 s
  | Solution of K.-S. eqns.                     :        0.058 s           0.059 s
  | Total energy evaluation                     :        0.001 s           0.001 s

  Partial memory accounting:
  | Current value for overall tracked memory usage:
  |   Minimum:       27.703 MB (on task  48)
  |   Maximum:       27.948 MB (on task   1)
  |   Average:       27.715 MB
  | Peak value for overall tracked memory usage:
  |   Minimum:       67.018 MB (on task   6 after allocating wave)
  |   Maximum:       72.073 MB (on task  54 after allocating wave)
  |   Average:       69.002 MB
  | Largest tracked array allocation so far:
  |   Minimum:       33.999 MB (hamiltonian_shell on task   6)
  |   Maximum:       38.693 MB (hamiltonian_shell on task  54)
  |   Average:       35.831 MB
  Note:  These values currently only include a subset of arrays which are explicitly tracked.
  The "true" memory usage will be greater.
------------------------------------------------------------

------------------------------------------------------------
          Begin self-consistency iteration #   13

  Date     :  20260729, Time     :  141243.597
------------------------------------------------------------
  Pulay mixing of updated and previous charge densities.
  Available memory per node after mixing [GB]:    489.07
  Renormalizing the density to the exact electron count on the 3D integration grid.
  | Formal number of electrons (from input files) :     102.0000000000
  | Integrated number of electrons on 3D grid     :     102.0000000000
  | Charge integration error                      :       0.0000000000
  | Normalization factor for density and gradient :       1.0000000000

  Evaluating partitioned Hartree potential by multipole expansion.
  | Original multipole sum: apparent total charge =  -0.332561E-13
  | Sum of charges compensated after spline to logarithmic grids =   0.273517E-06
  | Analytical far-field extrapolation by fixed multipoles:
  | Hartree multipole sum: apparent total charge =  -0.327888E-13
  Summing up the Hartree potential.
  Time summed over all CPUs for potential: real work        0.023 s, elapsed        0.025 s
  | RMS charge density error from multipole expansion :   0.100001E-01
  | Average real-space part of the electrostatic potential :      0.57285564 eV

  Integrating Hamiltonian matrix: batch-based integration.
  Time summed over all CPUs for integration: real work       84.713 s, elapsed       92.154 s

  Updating Kohn-Sham eigenvalues and eigenvectors using ELSI and the (modified) LAPACK eigensolver.
  Starting LAPACK eigensolver
  Finished Cholesky decomposition
  | Time :     0.001 s
  Finished transformation to standard eigenproblem
  | Time :     0.002 s
  Finished solving standard eigenproblem
  | Time :     0.006 s
  Finished back-transformation of eigenvectors
  | Time :     0.001 s

  Obtaining occupation numbers and electronic chemical potential using ELSI.
  | Note that, for insulating systems, the printed 'chemical potential' value is not uniquely defined.
  | It can be anywhere in the energy gap, as long as it correctly separates occupied and unoccupied states.
  | In systems with a gap, the physically relevant chemical potential is the VBM or HOMO.

  | Chemical potential (Fermi level):   -10.54051345 eV
  What follows are estimated values for band gap, HOMO, LUMO, etc.
  | They are estimated on a discrete k-point grid and not necessarily exact.
  | For converged numbers, create a DOS and/or band structure plot on a denser k-grid.

  Highest occupied state (VBM) at    -11.42478321 eV (relative to internal zero)
  | Occupation number:      2.00000000
  | K-point:     205 at    0.500000    0.500000    0.500000 (in units of recip. lattice)

  Lowest unoccupied state (CBM) at    -9.65624368 eV (relative to internal zero)
  | Occupation number:      0.00000000
  | K-point:       1 at    0.000000    0.000000    0.000000 (in units of recip. lattice)

  The gap value is above 0.2 eV. Unless you are using a very sparse k-point grid,
  this system is most likely an insulator or a semiconductor.
  ESTIMATED overall HOMO-LUMO gap:      1.76853952 eV between HOMO at k-point 205 and LUMO at k-point 1
  | This appears to be an indirect band gap.
  | Smallest direct gap :      1.83357054 eV for k_point 1 at    0.000000    0.000000    0.000000 (in units of recip. lattice)

  Total energy components:
  | Sum of eigenvalues            :       -5808.41154497 Ha     -158054.91988428 eV
  | XC energy correction          :        -257.47425247 Ha       -7006.23088268 eV
  | XC potential correction       :         341.20408014 Ha        9284.63541771 eV
  | Free-atom electrostatic energy:       -3623.98105672 Ha      -98613.54195517 eV
  | Hartree energy correction     :           1.90182043 Ha          51.75116696 eV
  | Entropy correction            :           0.00000000 Ha           0.00000000 eV
  | ---------------------------
  | Total energy                  :       -9346.76095358 Ha     -254338.30613746 eV
  | Total energy, T -> 0          :       -9346.76095358 Ha     -254338.30613746 eV  <-- do not rely on this value for anything but (periodic) metals
  | Electronic free energy        :       -9346.76095358 Ha     -254338.30613746 eV

  Derived energy quantities:
  | Kinetic energy                :        9815.52096854 Ha      267093.91514270 eV
  | Electrostatic energy          :      -18904.80766965 Ha     -514425.99039748 eV
  | Energy correction for multipole
  | error in Hartree potential    :           0.00430065 Ha           0.11702671 eV
  | Sum of eigenvalues per atom                           :      -31610.98397686 eV
  | Total energy (T->0) per atom                          :      -50867.66122749 eV  <-- do not rely on this value for anything but (periodic) metals
  | Electronic free energy per atom                       :      -50867.66122749 eV
  Evaluating new KS density using the density matrix
  Evaluating density matrix
  Time summed over all CPUs for getting density from density matrix: real work       86.102 s, elapsed       93.574 s
  Integration grid: deviation in total charge (<rho> - N_e) =   2.842171E-14

  Self-consistency convergence accuracy:
  | Change of charge density      :  0.1616E-03
  | Change of unmixed KS density  :  0.2167E-03
  | Change of sum of eigenvalues  :  0.1714E-01 eV
  | Change of total energy        :  0.3613E-08 eV


------------------------------------------------------------
  End self-consistency iteration #    13       :  max(cpu_time)    wall_clock(cpu1)
  | Time for this iteration                     :        1.594 s           1.616 s
  | Charge density update                       :        0.761 s           0.771 s
  | Density mixing                              :        0.000 s           0.000 s
  | Hartree multipole update                    :        0.001 s           0.001 s
  | Hartree multipole summation                 :        0.027 s           0.028 s
  | Integration                                 :        0.747 s           0.757 s
  | Solution of K.-S. eqns.                     :        0.058 s           0.058 s
  | Total energy evaluation                     :        0.001 s           0.001 s

  Partial memory accounting:
  | Current value for overall tracked memory usage:
  |   Minimum:       27.703 MB (on task  48)
  |   Maximum:       27.948 MB (on task   1)
  |   Average:       27.715 MB
  | Peak value for overall tracked memory usage:
  |   Minimum:       67.018 MB (on task   6 after allocating wave)
  |   Maximum:       72.073 MB (on task  54 after allocating wave)
  |   Average:       69.002 MB
  | Largest tracked array allocation so far:
  |   Minimum:       33.999 MB (hamiltonian_shell on task   6)
  |   Maximum:       38.693 MB (hamiltonian_shell on task  54)
  |   Average:       35.831 MB
  Note:  These values currently only include a subset of arrays which are explicitly tracked.
  The "true" memory usage will be greater.
------------------------------------------------------------

------------------------------------------------------------
          Begin self-consistency iteration #   14

  Date     :  20260729, Time     :  141245.214
------------------------------------------------------------
  Pulay mixing of updated and previous charge densities.
  Available memory per node after mixing [GB]:    489.06
  Renormalizing the density to the exact electron count on the 3D integration grid.
  | Formal number of electrons (from input files) :     102.0000000000
  | Integrated number of electrons on 3D grid     :     102.0000000000
  | Charge integration error                      :      -0.0000000000
  | Normalization factor for density and gradient :       1.0000000000

  Evaluating partitioned Hartree potential by multipole expansion.
  | Original multipole sum: apparent total charge =  -0.668075E-13
  | Sum of charges compensated after spline to logarithmic grids =   0.273518E-06
  | Analytical far-field extrapolation by fixed multipoles:
  | Hartree multipole sum: apparent total charge =  -0.657744E-13
  Summing up the Hartree potential.
  Time summed over all CPUs for potential: real work        0.023 s, elapsed        0.025 s
  | RMS charge density error from multipole expansion :   0.100001E-01
  | Average real-space part of the electrostatic potential :      0.57285657 eV

  Integrating Hamiltonian matrix: batch-based integration.
  Time summed over all CPUs for integration: real work       84.826 s, elapsed       92.809 s

  Updating Kohn-Sham eigenvalues and eigenvectors using ELSI and the (modified) LAPACK eigensolver.
  Starting LAPACK eigensolver
  Finished Cholesky decomposition
  | Time :     0.001 s
  Finished transformation to standard eigenproblem
  | Time :     0.002 s
  Finished solving standard eigenproblem
  | Time :     0.006 s
  Finished back-transformation of eigenvectors
  | Time :     0.001 s

  Obtaining occupation numbers and electronic chemical potential using ELSI.
  | Note that, for insulating systems, the printed 'chemical potential' value is not uniquely defined.
  | It can be anywhere in the energy gap, as long as it correctly separates occupied and unoccupied states.
  | In systems with a gap, the physically relevant chemical potential is the VBM or HOMO.

  | Chemical potential (Fermi level):   -10.54050911 eV
  What follows are estimated values for band gap, HOMO, LUMO, etc.
  | They are estimated on a discrete k-point grid and not necessarily exact.
  | For converged numbers, create a DOS and/or band structure plot on a denser k-grid.

  Highest occupied state (VBM) at    -11.42478126 eV (relative to internal zero)
  | Occupation number:      2.00000000
  | K-point:     205 at    0.500000    0.500000    0.500000 (in units of recip. lattice)

  Lowest unoccupied state (CBM) at    -9.65623697 eV (relative to internal zero)
  | Occupation number:      0.00000000
  | K-point:       1 at    0.000000    0.000000    0.000000 (in units of recip. lattice)

  The gap value is above 0.2 eV. Unless you are using a very sparse k-point grid,
  this system is most likely an insulator or a semiconductor.
  ESTIMATED overall HOMO-LUMO gap:      1.76854429 eV between HOMO at k-point 205 and LUMO at k-point 1
  | This appears to be an indirect band gap.
  | Smallest direct gap :      1.83357525 eV for k_point 1 at    0.000000    0.000000    0.000000 (in units of recip. lattice)

  Total energy components:
  | Sum of eigenvalues            :       -5808.41153502 Ha     -158054.91961370 eV
  | XC energy correction          :        -257.47425348 Ha       -7006.23091025 eV
  | XC potential correction       :         341.20408148 Ha        9284.63545416 eV
  | Free-atom electrostatic energy:       -3623.98105672 Ha      -98613.54195517 eV
  | Hartree energy correction     :           1.90181016 Ha          51.75088748 eV
  | Entropy correction            :           0.00000000 Ha           0.00000000 eV
  | ---------------------------
  | Total energy                  :       -9346.76095358 Ha     -254338.30613747 eV
  | Total energy, T -> 0          :       -9346.76095358 Ha     -254338.30613747 eV  <-- do not rely on this value for anything but (periodic) metals
  | Electronic free energy        :       -9346.76095358 Ha     -254338.30613747 eV

  Derived energy quantities:
  | Kinetic energy                :        9815.52097511 Ha      267093.91532161 eV
  | Electrostatic energy          :      -18904.80767522 Ha     -514425.99054884 eV
  | Energy correction for multipole
  | error in Hartree potential    :           0.00430066 Ha           0.11702678 eV
  | Sum of eigenvalues per atom                           :      -31610.98392274 eV
  | Total energy (T->0) per atom                          :      -50867.66122749 eV  <-- do not rely on this value for anything but (periodic) metals
  | Electronic free energy per atom                       :      -50867.66122749 eV
  Evaluating new KS density using the density matrix
  Evaluating density matrix
  Time summed over all CPUs for getting density from density matrix: real work       86.130 s, elapsed       94.198 s
  Integration grid: deviation in total charge (<rho> - N_e) =   4.263256E-14

  Self-consistency convergence accuracy:
  | Change of charge density      :  0.1603E-04
  | Change of unmixed KS density  :  0.1201E-03
  | Change of sum of eigenvalues  :  0.2706E-03 eV
  | Change of total energy        : -0.1262E-07 eV


------------------------------------------------------------
  End self-consistency iteration #    14       :  max(cpu_time)    wall_clock(cpu1)
  | Time for this iteration                     :        1.604 s           1.626 s
  | Charge density update                       :        0.765 s           0.777 s
  | Density mixing                              :        0.000 s           0.000 s
  | Hartree multipole update                    :        0.001 s           0.001 s
  | Hartree multipole summation                 :        0.027 s           0.027 s
  | Integration                                 :        0.752 s           0.762 s
  | Solution of K.-S. eqns.                     :        0.058 s           0.059 s
  | Total energy evaluation                     :        0.000 s           0.000 s

  Partial memory accounting:
  | Current value for overall tracked memory usage:
  |   Minimum:       27.703 MB (on task  48)
  |   Maximum:       27.948 MB (on task   1)
  |   Average:       27.715 MB
  | Peak value for overall tracked memory usage:
  |   Minimum:       67.018 MB (on task   6 after allocating wave)
  |   Maximum:       72.073 MB (on task  54 after allocating wave)
  |   Average:       69.002 MB
  | Largest tracked array allocation so far:
  |   Minimum:       33.999 MB (hamiltonian_shell on task   6)
  |   Maximum:       38.693 MB (hamiltonian_shell on task  54)
  |   Average:       35.831 MB
  Note:  These values currently only include a subset of arrays which are explicitly tracked.
  The "true" memory usage will be greater.
------------------------------------------------------------

------------------------------------------------------------
          Begin self-consistency iteration #   15

  Date     :  20260729, Time     :  141246.840
------------------------------------------------------------
  Pulay mixing of updated and previous charge densities.
  Available memory per node after mixing [GB]:    489.07
  Renormalizing the density to the exact electron count on the 3D integration grid.
  | Formal number of electrons (from input files) :     102.0000000000
  | Integrated number of electrons on 3D grid     :     102.0000000000
  | Charge integration error                      :       0.0000000000
  | Normalization factor for density and gradient :       1.0000000000

  Evaluating partitioned Hartree potential by multipole expansion.
  | Original multipole sum: apparent total charge =  -0.623553E-13
  | Sum of charges compensated after spline to logarithmic grids =   0.273527E-06
  | Analytical far-field extrapolation by fixed multipoles:
  | Hartree multipole sum: apparent total charge =  -0.623799E-13
  Summing up the Hartree potential.
  Time summed over all CPUs for potential: real work        0.023 s, elapsed        0.025 s
  | RMS charge density error from multipole expansion :   0.100001E-01
  | Average real-space part of the electrostatic potential :      0.57286088 eV

  Integrating Hamiltonian matrix: batch-based integration.
  Time summed over all CPUs for integration: real work       84.922 s, elapsed       92.408 s

  Updating Kohn-Sham eigenvalues and eigenvectors using ELSI and the (modified) LAPACK eigensolver.
  Starting LAPACK eigensolver
  Finished Cholesky decomposition
  | Time :     0.002 s
  Finished transformation to standard eigenproblem
  | Time :     0.001 s
  Finished solving standard eigenproblem
  | Time :     0.007 s
  Finished back-transformation of eigenvectors
  | Time :     0.000 s

  Obtaining occupation numbers and electronic chemical potential using ELSI.
  | Note that, for insulating systems, the printed 'chemical potential' value is not uniquely defined.
  | It can be anywhere in the energy gap, as long as it correctly separates occupied and unoccupied states.
  | In systems with a gap, the physically relevant chemical potential is the VBM or HOMO.

  | Chemical potential (Fermi level):   -10.54046441 eV
  What follows are estimated values for band gap, HOMO, LUMO, etc.
  | They are estimated on a discrete k-point grid and not necessarily exact.
  | For converged numbers, create a DOS and/or band structure plot on a denser k-grid.

  Highest occupied state (VBM) at    -11.42479581 eV (relative to internal zero)
  | Occupation number:      2.00000000
  | K-point:     205 at    0.500000    0.500000    0.500000 (in units of recip. lattice)

  Lowest unoccupied state (CBM) at    -9.65613302 eV (relative to internal zero)
  | Occupation number:      0.00000000
  | K-point:       1 at    0.000000    0.000000    0.000000 (in units of recip. lattice)

  The gap value is above 0.2 eV. Unless you are using a very sparse k-point grid,
  this system is most likely an insulator or a semiconductor.
  ESTIMATED overall HOMO-LUMO gap:      1.76866279 eV between HOMO at k-point 205 and LUMO at k-point 1
  | This appears to be an indirect band gap.
  | Smallest direct gap :      1.83368785 eV for k_point 1 at    0.000000    0.000000    0.000000 (in units of recip. lattice)

  Total energy components:
  | Sum of eigenvalues            :       -5808.41145234 Ha     -158054.91736377 eV
  | XC energy correction          :        -257.47425794 Ha       -7006.23103158 eV
  | XC potential correction       :         341.20408737 Ha        9284.63561445 eV
  | Free-atom electrostatic energy:       -3623.98105672 Ha      -98613.54195517 eV
  | Hartree energy correction     :           1.90172604 Ha          51.74859856 eV
  | Entropy correction            :           0.00000000 Ha           0.00000000 eV
  | ---------------------------
  | Total energy                  :       -9346.76095358 Ha     -254338.30613751 eV
  | Total energy, T -> 0          :       -9346.76095358 Ha     -254338.30613751 eV  <-- do not rely on this value for anything but (periodic) metals
  | Electronic free energy        :       -9346.76095358 Ha     -254338.30613751 eV

  Derived energy quantities:
  | Kinetic energy                :        9815.52099143 Ha      267093.91576574 eV
  | Electrostatic energy          :      -18904.80768708 Ha     -514425.99087166 eV
  | Energy correction for multipole
  | error in Hartree potential    :           0.00430066 Ha           0.11702684 eV
  | Sum of eigenvalues per atom                           :      -31610.98347275 eV
  | Total energy (T->0) per atom                          :      -50867.66122750 eV  <-- do not rely on this value for anything but (periodic) metals
  | Electronic free energy per atom                       :      -50867.66122750 eV
  Evaluating new KS density using the density matrix
  Evaluating density matrix
  Time summed over all CPUs for getting density from density matrix: real work       86.172 s, elapsed       93.907 s
  Integration grid: deviation in total charge (<rho> - N_e) =   4.263256E-14

  Self-consistency convergence accuracy:
  | Change of charge density      :  0.1541E-04
  | Change of unmixed KS density  :  0.5754E-06
  | Change of sum of eigenvalues  :  0.2250E-02 eV
  | Change of total energy        : -0.3782E-07 eV


------------------------------------------------------------
  End self-consistency iteration #    15       :  max(cpu_time)    wall_clock(cpu1)
  | Time for this iteration                     :        1.598 s           1.620 s
  | Charge density update                       :        0.763 s           0.773 s
  | Density mixing                              :        0.000 s           0.001 s
  | Hartree multipole update                    :        0.001 s           0.001 s
  | Hartree multipole summation                 :        0.027 s           0.027 s
  | Integration                                 :        0.748 s           0.758 s
  | Solution of K.-S. eqns.                     :        0.058 s           0.059 s
  | Total energy evaluation                     :        0.001 s           0.001 s

  Partial memory accounting:
  | Current value for overall tracked memory usage:
  |   Minimum:       27.703 MB (on task  48)
  |   Maximum:       27.948 MB (on task   1)
  |   Average:       27.715 MB
  | Peak value for overall tracked memory usage:
  |   Minimum:       67.018 MB (on task   6 after allocating wave)
  |   Maximum:       72.073 MB (on task  54 after allocating wave)
  |   Average:       69.002 MB
  | Largest tracked array allocation so far:
  |   Minimum:       33.999 MB (hamiltonian_shell on task   6)
  |   Maximum:       38.693 MB (hamiltonian_shell on task  54)
  |   Average:       35.831 MB
  Note:  These values currently only include a subset of arrays which are explicitly tracked.
  The "true" memory usage will be greater.
------------------------------------------------------------

------------------------------------------------------------
          Begin self-consistency iteration #   16

  Date     :  20260729, Time     :  141248.461
------------------------------------------------------------
  Pulay mixing of updated and previous charge densities.
  Available memory per node after mixing [GB]:    489.08
  Renormalizing the density to the exact electron count on the 3D integration grid.
  | Formal number of electrons (from input files) :     102.0000000000
  | Integrated number of electrons on 3D grid     :     102.0000000000
  | Charge integration error                      :       0.0000000000
  | Normalization factor for density and gradient :       1.0000000000

  Evaluating partitioned Hartree potential by multipole expansion.
  | Original multipole sum: apparent total charge =  -0.648150E-13
  | Sum of charges compensated after spline to logarithmic grids =   0.273527E-06
  | Analytical far-field extrapolation by fixed multipoles:
  | Hartree multipole sum: apparent total charge =  -0.641263E-13
  Summing up the Hartree potential.
  Time summed over all CPUs for potential: real work        0.023 s, elapsed        0.025 s
  | RMS charge density error from multipole expansion :   0.100001E-01
  | Average real-space part of the electrostatic potential :      0.57286073 eV

  Integrating Hamiltonian matrix: batch-based integration.
  Time summed over all CPUs for integration: real work       85.038 s, elapsed       92.927 s

  Updating Kohn-Sham eigenvalues and eigenvectors using ELSI and the (modified) LAPACK eigensolver.
  Starting LAPACK eigensolver
  Finished Cholesky decomposition
  | Time :     0.001 s
  Finished transformation to standard eigenproblem
  | Time :     0.002 s
  Finished solving standard eigenproblem
  | Time :     0.007 s
  Finished back-transformation of eigenvectors
  | Time :     0.000 s

  Obtaining occupation numbers and electronic chemical potential using ELSI.
  | Note that, for insulating systems, the printed 'chemical potential' value is not uniquely defined.
  | It can be anywhere in the energy gap, as long as it correctly separates occupied and unoccupied states.
  | In systems with a gap, the physically relevant chemical potential is the VBM or HOMO.

  | Chemical potential (Fermi level):   -10.54046645 eV
  What follows are estimated values for band gap, HOMO, LUMO, etc.
  | They are estimated on a discrete k-point grid and not necessarily exact.
  | For converged numbers, create a DOS and/or band structure plot on a denser k-grid.

  Highest occupied state (VBM) at    -11.42479513 eV (relative to internal zero)
  | Occupation number:      2.00000000
  | K-point:     205 at    0.500000    0.500000    0.500000 (in units of recip. lattice)

  Lowest unoccupied state (CBM) at    -9.65613778 eV (relative to internal zero)
  | Occupation number:      0.00000000
  | K-point:       1 at    0.000000    0.000000    0.000000 (in units of recip. lattice)

  The gap value is above 0.2 eV. Unless you are using a very sparse k-point grid,
  this system is most likely an insulator or a semiconductor.
  ESTIMATED overall HOMO-LUMO gap:      1.76865735 eV between HOMO at k-point 205 and LUMO at k-point 1
  | This appears to be an indirect band gap.
  | Smallest direct gap :      1.83368269 eV for k_point 1 at    0.000000    0.000000    0.000000 (in units of recip. lattice)

  Total energy components:
  | Sum of eigenvalues            :       -5808.41145561 Ha     -158054.91745285 eV
  | XC energy correction          :        -257.47425776 Ha       -7006.23102677 eV
  | XC potential correction       :         341.20408714 Ha        9284.63560808 eV
  | Free-atom electrostatic energy:       -3623.98105672 Ha      -98613.54195517 eV
  | Hartree energy correction     :           1.90172937 Ha          51.74868920 eV
  | Entropy correction            :           0.00000000 Ha           0.00000000 eV
  | ---------------------------
  | Total energy                  :       -9346.76095358 Ha     -254338.30613751 eV
  | Total energy, T -> 0          :       -9346.76095358 Ha     -254338.30613751 eV  <-- do not rely on this value for anything but (periodic) metals
  | Electronic free energy        :       -9346.76095358 Ha     -254338.30613751 eV

  Derived energy quantities:
  | Kinetic energy                :        9815.52099084 Ha      267093.91574947 eV
  | Electrostatic energy          :      -18904.80768666 Ha     -514425.99086021 eV
  | Energy correction for multipole
  | error in Hartree potential    :           0.00430066 Ha           0.11702686 eV
  | Sum of eigenvalues per atom                           :      -31610.98349057 eV
  | Total energy (T->0) per atom                          :      -50867.66122750 eV  <-- do not rely on this value for anything but (periodic) metals
  | Electronic free energy per atom                       :      -50867.66122750 eV
  Evaluating new KS density using the density matrix
  Evaluating density matrix
  Time summed over all CPUs for getting density from density matrix: real work       86.366 s, elapsed       93.742 s
  Integration grid: deviation in total charge (<rho> - N_e) =   2.842171E-14

  Self-consistency convergence accuracy:
  | Change of charge density      :  0.8880E-06
  | Change of unmixed KS density  :  0.1332E-04
  | Change of sum of eigenvalues  : -0.8908E-04 eV
  | Change of total energy        :  0.1782E-08 eV


------------------------------------------------------------
  End self-consistency iteration #    16       :  max(cpu_time)    wall_clock(cpu1)
  | Time for this iteration                     :        1.602 s           1.624 s
  | Charge density update                       :        0.762 s           0.772 s
  | Density mixing                              :        0.000 s           0.000 s
  | Hartree multipole update                    :        0.001 s           0.001 s
  | Hartree multipole summation                 :        0.027 s           0.027 s
  | Integration                                 :        0.752 s           0.763 s
  | Solution of K.-S. eqns.                     :        0.059 s           0.060 s
  | Total energy evaluation                     :        0.001 s           0.001 s

  Partial memory accounting:
  | Current value for overall tracked memory usage:
  |   Minimum:       27.703 MB (on task  48)
  |   Maximum:       27.948 MB (on task   1)
  |   Average:       27.715 MB
  | Peak value for overall tracked memory usage:
  |   Minimum:       67.018 MB (on task   6 after allocating wave)
  |   Maximum:       72.073 MB (on task  54 after allocating wave)
  |   Average:       69.002 MB
  | Largest tracked array allocation so far:
  |   Minimum:       33.999 MB (hamiltonian_shell on task   6)
  |   Maximum:       38.693 MB (hamiltonian_shell on task  54)
  |   Average:       35.831 MB
  Note:  These values currently only include a subset of arrays which are explicitly tracked.
  The "true" memory usage will be greater.
------------------------------------------------------------

------------------------------------------------------------
          Begin self-consistency iteration #   17

  Date     :  20260729, Time     :  141250.085
------------------------------------------------------------
  Pulay mixing of updated and previous charge densities.
  Available memory per node after mixing [GB]:    489.08
  Renormalizing the density to the exact electron count on the 3D integration grid.
  | Formal number of electrons (from input files) :     102.0000000000
  | Integrated number of electrons on 3D grid     :     102.0000000000
  | Charge integration error                      :       0.0000000000
  | Normalization factor for density and gradient :       1.0000000000

  Evaluating partitioned Hartree potential by multipole expansion.
  | Original multipole sum: apparent total charge =   0.211295E-13
  | Sum of charges compensated after spline to logarithmic grids =   0.273527E-06
  | Analytical far-field extrapolation by fixed multipoles:
  | Hartree multipole sum: apparent total charge =   0.210803E-13
  Summing up the Hartree potential.
  Time summed over all CPUs for potential: real work        0.023 s, elapsed        0.025 s
  | RMS charge density error from multipole expansion :   0.100001E-01
  | Average real-space part of the electrostatic potential :      0.57286071 eV

  Integrating Hamiltonian matrix: batch-based integration.
  Time summed over all CPUs for integration: real work       84.896 s, elapsed       93.774 s

  Updating Kohn-Sham eigenvalues and eigenvectors using ELSI and the (modified) LAPACK eigensolver.
  Starting LAPACK eigensolver
  Finished Cholesky decomposition
  | Time :     0.001 s
  Finished transformation to standard eigenproblem
  | Time :     0.002 s
  Finished solving standard eigenproblem
  | Time :     0.006 s
  Finished back-transformation of eigenvectors
  | Time :     0.001 s

  Obtaining occupation numbers and electronic chemical potential using ELSI.
  | Note that, for insulating systems, the printed 'chemical potential' value is not uniquely defined.
  | It can be anywhere in the energy gap, as long as it correctly separates occupied and unoccupied states.
  | In systems with a gap, the physically relevant chemical potential is the VBM or HOMO.

  | Chemical potential (Fermi level):   -10.54046684 eV
  What follows are estimated values for band gap, HOMO, LUMO, etc.
  | They are estimated on a discrete k-point grid and not necessarily exact.
  | For converged numbers, create a DOS and/or band structure plot on a denser k-grid.

  Highest occupied state (VBM) at    -11.42479498 eV (relative to internal zero)
  | Occupation number:      2.00000000
  | K-point:     205 at    0.500000    0.500000    0.500000 (in units of recip. lattice)

  Lowest unoccupied state (CBM) at    -9.65613870 eV (relative to internal zero)
  | Occupation number:      0.00000000
  | K-point:       1 at    0.000000    0.000000    0.000000 (in units of recip. lattice)

  The gap value is above 0.2 eV. Unless you are using a very sparse k-point grid,
  this system is most likely an insulator or a semiconductor.
  ESTIMATED overall HOMO-LUMO gap:      1.76865628 eV between HOMO at k-point 205 and LUMO at k-point 1
  | This appears to be an indirect band gap.
  | Smallest direct gap :      1.83368167 eV for k_point 1 at    0.000000    0.000000    0.000000 (in units of recip. lattice)

  Total energy components:
  | Sum of eigenvalues            :       -5808.41145610 Ha     -158054.91746620 eV
  | XC energy correction          :        -257.47425774 Ha       -7006.23102611 eV
  | XC potential correction       :         341.20408711 Ha        9284.63560722 eV
  | Free-atom electrostatic energy:       -3623.98105672 Ha      -98613.54195517 eV
  | Hartree energy correction     :           1.90172987 Ha          51.74870275 eV
  | Entropy correction            :           0.00000000 Ha           0.00000000 eV
  | ---------------------------
  | Total energy                  :       -9346.76095358 Ha     -254338.30613751 eV
  | Total energy, T -> 0          :       -9346.76095358 Ha     -254338.30613751 eV  <-- do not rely on this value for anything but (periodic) metals
  | Electronic free energy        :       -9346.76095358 Ha     -254338.30613751 eV

  Derived energy quantities:
  | Kinetic energy                :        9815.52099107 Ha      267093.91575580 eV
  | Electrostatic energy          :      -18904.80768692 Ha     -514425.99086720 eV
  | Energy correction for multipole
  | error in Hartree potential    :           0.00430066 Ha           0.11702687 eV
  | Sum of eigenvalues per atom                           :      -31610.98349324 eV
  | Total energy (T->0) per atom                          :      -50867.66122750 eV  <-- do not rely on this value for anything but (periodic) metals
  | Electronic free energy per atom                       :      -50867.66122750 eV
  Evaluating new KS density using the density matrix
  Evaluating density matrix
  Time summed over all CPUs for getting density from density matrix: real work       86.351 s, elapsed       93.593 s
  Integration grid: deviation in total charge (<rho> - N_e) =   5.684342E-14

  Self-consistency convergence accuracy:
  | Change of charge density      :  0.1477E-06
  | Change of unmixed KS density  :  0.6102E-06
  | Change of sum of eigenvalues  : -0.1334E-04 eV
  | Change of total energy        :  0.6930E-09 eV


------------------------------------------------------------
  End self-consistency iteration #    17       :  max(cpu_time)    wall_clock(cpu1)
  | Time for this iteration                     :        1.606 s           1.627 s
  | Charge density update                       :        0.760 s           0.771 s
  | Density mixing                              :        0.000 s           0.000 s
  | Hartree multipole update                    :        0.001 s           0.001 s
  | Hartree multipole summation                 :        0.027 s           0.027 s
  | Integration                                 :        0.759 s           0.769 s
  | Solution of K.-S. eqns.                     :        0.058 s           0.059 s
  | Total energy evaluation                     :        0.000 s           0.000 s

  Partial memory accounting:
  | Current value for overall tracked memory usage:
  |   Minimum:       27.703 MB (on task  48)
  |   Maximum:       27.948 MB (on task   1)
  |   Average:       27.715 MB
  | Peak value for overall tracked memory usage:
  |   Minimum:       67.018 MB (on task   6 after allocating wave)
  |   Maximum:       72.073 MB (on task  54 after allocating wave)
  |   Average:       69.002 MB
  | Largest tracked array allocation so far:
  |   Minimum:       33.999 MB (hamiltonian_shell on task   6)
  |   Maximum:       38.693 MB (hamiltonian_shell on task  54)
  |   Average:       35.831 MB
  Note:  These values currently only include a subset of arrays which are explicitly tracked.
  The "true" memory usage will be greater.
------------------------------------------------------------

------------------------------------------------------------
          Begin self-consistency iteration #   18

  Date     :  20260729, Time     :  141251.714
------------------------------------------------------------
  Pulay mixing of updated and previous charge densities.
  Available memory per node after mixing [GB]:    489.09
  Renormalizing the density to the exact electron count on the 3D integration grid.
  | Formal number of electrons (from input files) :     102.0000000000
  | Integrated number of electrons on 3D grid     :     102.0000000000
  | Charge integration error                      :       0.0000000000
  | Normalization factor for density and gradient :       1.0000000000

  Evaluating partitioned Hartree potential by multipole expansion.
  | Original multipole sum: apparent total charge =  -0.414964E-13
  | Sum of charges compensated after spline to logarithmic grids =   0.273527E-06
  | Analytical far-field extrapolation by fixed multipoles:
  | Hartree multipole sum: apparent total charge =  -0.409306E-13
  Summing up the Hartree potential.
  Time summed over all CPUs for potential: real work        0.023 s, elapsed        0.025 s
  | RMS charge density error from multipole expansion :   0.100001E-01
  | Average real-space part of the electrostatic potential :      0.57286068 eV

  Integrating Hamiltonian matrix: batch-based integration.
  Time summed over all CPUs for integration: real work       84.978 s, elapsed       92.319 s

  Updating Kohn-Sham eigenvalues and eigenvectors using ELSI and the (modified) LAPACK eigensolver.
  Starting LAPACK eigensolver
  Finished Cholesky decomposition
  | Time :     0.001 s
  Finished transformation to standard eigenproblem
  | Time :     0.002 s
  Finished solving standard eigenproblem
  | Time :     0.007 s
  Finished back-transformation of eigenvectors
  | Time :     0.000 s

  Obtaining occupation numbers and electronic chemical potential using ELSI.
  | Note that, for insulating systems, the printed 'chemical potential' value is not uniquely defined.
  | It can be anywhere in the energy gap, as long as it correctly separates occupied and unoccupied states.
  | In systems with a gap, the physically relevant chemical potential is the VBM or HOMO.

  | Chemical potential (Fermi level):   -10.54046684 eV
  What follows are estimated values for band gap, HOMO, LUMO, etc.
  | They are estimated on a discrete k-point grid and not necessarily exact.
  | For converged numbers, create a DOS and/or band structure plot on a denser k-grid.

  Highest occupied state (VBM) at    -11.42479499 eV (relative to internal zero)
  | Occupation number:      2.00000000
  | K-point:     205 at    0.500000    0.500000    0.500000 (in units of recip. lattice)

  Lowest unoccupied state (CBM) at    -9.65613869 eV (relative to internal zero)
  | Occupation number:      0.00000000
  | K-point:       1 at    0.000000    0.000000    0.000000 (in units of recip. lattice)

  The gap value is above 0.2 eV. Unless you are using a very sparse k-point grid,
  this system is most likely an insulator or a semiconductor.
  ESTIMATED overall HOMO-LUMO gap:      1.76865631 eV between HOMO at k-point 205 and LUMO at k-point 1
  | This appears to be an indirect band gap.
  | Smallest direct gap :      1.83368170 eV for k_point 1 at    0.000000    0.000000    0.000000 (in units of recip. lattice)

  Total energy components:
  | Sum of eigenvalues            :       -5808.41145617 Ha     -158054.91746804 eV
  | XC energy correction          :        -257.47425774 Ha       -7006.23102626 eV
  | XC potential correction       :         341.20408711 Ha        9284.63560743 eV
  | Free-atom electrostatic energy:       -3623.98105672 Ha      -98613.54195517 eV
  | Hartree energy correction     :           1.90172994 Ha          51.74870454 eV
  | Entropy correction            :           0.00000000 Ha           0.00000000 eV
  | ---------------------------
  | Total energy                  :       -9346.76095358 Ha     -254338.30613751 eV
  | Total energy, T -> 0          :       -9346.76095358 Ha     -254338.30613751 eV  <-- do not rely on this value for anything but (periodic) metals
  | Electronic free energy        :       -9346.76095358 Ha     -254338.30613751 eV

  Derived energy quantities:
  | Kinetic energy                :        9815.52099151 Ha      267093.91576782 eV
  | Electrostatic energy          :      -18904.80768735 Ha     -514425.99087907 eV
  | Energy correction for multipole
  | error in Hartree potential    :           0.00430066 Ha           0.11702687 eV
  | Sum of eigenvalues per atom                           :      -31610.98349361 eV
  | Total energy (T->0) per atom                          :      -50867.66122750 eV  <-- do not rely on this value for anything but (periodic) metals
  | Electronic free energy per atom                       :      -50867.66122750 eV
  Evaluating new KS density using the density matrix
  Evaluating density matrix
  Time summed over all CPUs for getting density from density matrix: real work       86.173 s, elapsed       93.329 s
  Integration grid: deviation in total charge (<rho> - N_e) =   5.684342E-14

  Self-consistency convergence accuracy:
  | Change of charge density      :  0.1784E-07
  | Change of unmixed KS density  :  0.1208E-06
  | Change of sum of eigenvalues  : -0.1841E-05 eV
  | Change of total energy        : -0.4950E-09 eV


------------------------------------------------------------
  End self-consistency iteration #    18       :  max(cpu_time)    wall_clock(cpu1)
  | Time for this iteration                     :        1.594 s           1.615 s
  | Charge density update                       :        0.759 s           0.769 s
  | Density mixing                              :        0.000 s           0.000 s
  | Hartree multipole update                    :        0.001 s           0.001 s
  | Hartree multipole summation                 :        0.027 s           0.028 s
  | Integration                                 :        0.748 s           0.758 s
  | Solution of K.-S. eqns.                     :        0.057 s           0.058 s
  | Total energy evaluation                     :        0.001 s           0.001 s

  Partial memory accounting:
  | Current value for overall tracked memory usage:
  |   Minimum:       27.703 MB (on task  48)
  |   Maximum:       27.948 MB (on task   1)
  |   Average:       27.715 MB
  | Peak value for overall tracked memory usage:
  |   Minimum:       67.018 MB (on task   6 after allocating wave)
  |   Maximum:       72.073 MB (on task  54 after allocating wave)
  |   Average:       69.002 MB
  | Largest tracked array allocation so far:
  |   Minimum:       33.999 MB (hamiltonian_shell on task   6)
  |   Maximum:       38.693 MB (hamiltonian_shell on task  54)
  |   Average:       35.831 MB
  Note:  These values currently only include a subset of arrays which are explicitly tracked.
  The "true" memory usage will be greater.
------------------------------------------------------------

------------------------------------------------------------
          Begin self-consistency iteration #   19

  Date     :  20260729, Time     :  141253.330
------------------------------------------------------------
  Pulay mixing of updated and previous charge densities.
  Available memory per node after mixing [GB]:    489.09
  Renormalizing the density to the exact electron count on the 3D integration grid.
  | Formal number of electrons (from input files) :     102.0000000000
  | Integrated number of electrons on 3D grid     :     102.0000000000
  | Charge integration error                      :       0.0000000000
  | Normalization factor for density and gradient :       1.0000000000

  Evaluating partitioned Hartree potential by multipole expansion.
  | Original multipole sum: apparent total charge =   0.126186E-13
  | Sum of charges compensated after spline to logarithmic grids =   0.273527E-06
  | Analytical far-field extrapolation by fixed multipoles:
  | Hartree multipole sum: apparent total charge =   0.102327E-13
  Summing up the Hartree potential.
  Time summed over all CPUs for potential: real work        0.023 s, elapsed        0.025 s
  | RMS charge density error from multipole expansion :   0.100001E-01
  | Average real-space part of the electrostatic potential :      0.57286068 eV

  Integrating Hamiltonian matrix: batch-based integration.
  Time summed over all CPUs for integration: real work       84.907 s, elapsed       92.352 s

  Updating Kohn-Sham eigenvalues and eigenvectors using ELSI and the (modified) LAPACK eigensolver.
  Starting LAPACK eigensolver
  Finished Cholesky decomposition
  | Time :     0.001 s
  Finished transformation to standard eigenproblem
  | Time :     0.002 s
  Finished solving standard eigenproblem
  | Time :     0.006 s
  Finished back-transformation of eigenvectors
  | Time :     0.001 s

  Obtaining occupation numbers and electronic chemical potential using ELSI.
  | Note that, for insulating systems, the printed 'chemical potential' value is not uniquely defined.
  | It can be anywhere in the energy gap, as long as it correctly separates occupied and unoccupied states.
  | In systems with a gap, the physically relevant chemical potential is the VBM or HOMO.

  | Chemical potential (Fermi level):   -10.54046685 eV
  What follows are estimated values for band gap, HOMO, LUMO, etc.
  | They are estimated on a discrete k-point grid and not necessarily exact.
  | For converged numbers, create a DOS and/or band structure plot on a denser k-grid.

  Highest occupied state (VBM) at    -11.42479500 eV (relative to internal zero)
  | Occupation number:      2.00000000
  | K-point:     205 at    0.500000    0.500000    0.500000 (in units of recip. lattice)

  Lowest unoccupied state (CBM) at    -9.65613871 eV (relative to internal zero)
  | Occupation number:      0.00000000
  | K-point:       1 at    0.000000    0.000000    0.000000 (in units of recip. lattice)

  The gap value is above 0.2 eV. Unless you are using a very sparse k-point grid,
  this system is most likely an insulator or a semiconductor.
  ESTIMATED overall HOMO-LUMO gap:      1.76865629 eV between HOMO at k-point 205 and LUMO at k-point 1
  | This appears to be an indirect band gap.
  | Smallest direct gap :      1.83368169 eV for k_point 1 at    0.000000    0.000000    0.000000 (in units of recip. lattice)

  Total energy components:
  | Sum of eigenvalues            :       -5808.41145626 Ha     -158054.91747043 eV
  | XC energy correction          :        -257.47425774 Ha       -7006.23102616 eV
  | XC potential correction       :         341.20408711 Ha        9284.63560729 eV
  | Free-atom electrostatic energy:       -3623.98105672 Ha      -98613.54195517 eV
  | Hartree energy correction     :           1.90173003 Ha          51.74870697 eV
  | Entropy correction            :           0.00000000 Ha           0.00000000 eV
  | ---------------------------
  | Total energy                  :       -9346.76095358 Ha     -254338.30613751 eV
  | Total energy, T -> 0          :       -9346.76095358 Ha     -254338.30613751 eV  <-- do not rely on this value for anything but (periodic) metals
  | Electronic free energy        :       -9346.76095358 Ha     -254338.30613751 eV

  Derived energy quantities:
  | Kinetic energy                :        9815.52099149 Ha      267093.91576716 eV
  | Electrostatic energy          :      -18904.80768733 Ha     -514425.99087851 eV
  | Energy correction for multipole
  | error in Hartree potential    :           0.00430066 Ha           0.11702687 eV
  | Sum of eigenvalues per atom                           :      -31610.98349409 eV
  | Total energy (T->0) per atom                          :      -50867.66122750 eV  <-- do not rely on this value for anything but (periodic) metals
  | Electronic free energy per atom                       :      -50867.66122750 eV

  Self-consistency convergence accuracy:
  | Change of charge density      :  0.6297E-08
  | Change of unmixed KS density  :  0.4626E-08
  | Change of sum of eigenvalues  : -0.2397E-05 eV
  | Change of total energy        :  0.1980E-09 eV

  Writing Kohn-Sham eigenvalues.
  K-point:       1 at    0.000000    0.000000    0.000000 (in units of recip. lattice)

  State    Occupation    Eigenvalue [Ha]    Eigenvalue [eV]
      1       2.00000       -1427.217304       -38836.55883
      2       2.00000        -218.015401        -5932.50091
      3       2.00000        -195.495101        -5319.69236
      4       2.00000        -195.495101        -5319.69236
      5       2.00000        -195.495101        -5319.69236
      6       2.00000        -179.680515        -4889.35558
      7       2.00000         -45.756846        -1245.10714
      8       2.00000         -38.603916        -1050.46601
      9       2.00000         -38.603916        -1050.46601
     10       2.00000         -38.603916        -1050.46601
     11       2.00000         -28.209374         -767.61613
     12       2.00000         -28.209374         -767.61613
     13       2.00000         -28.209327         -767.61486
     14       2.00000         -28.209327         -767.61486
     15       2.00000         -28.209327         -767.61486
     16       2.00000         -19.898451         -541.46440
     17       2.00000         -18.807983         -511.79125
     18       2.00000         -18.807983         -511.79125
     19       2.00000         -18.807983         -511.79125
     20       2.00000         -16.529264         -449.78415
     21       2.00000         -16.529264         -449.78415
     22       2.00000         -16.529264         -449.78415
     23       2.00000          -8.995778         -244.78756
     24       2.00000          -6.692570         -182.11410
     25       2.00000          -6.692570         -182.11410
     26       2.00000          -6.692570         -182.11410
     27       2.00000          -3.352388          -91.22311
     28       2.00000          -3.352388          -91.22311
     29       2.00000          -3.352290          -91.22044
     30       2.00000          -3.352290          -91.22044
     31       2.00000          -3.352290          -91.22044
     32       2.00000          -2.470629          -67.22924
     33       2.00000          -1.609247          -43.78983
     34       2.00000          -1.609247          -43.78983
     35       2.00000          -1.609247          -43.78983
     36       2.00000          -1.320116          -35.92219
     37       2.00000          -1.030808          -28.04972
     38       2.00000          -1.005408          -27.35854
     39       2.00000          -1.005408          -27.35854
     40       2.00000          -0.775250          -21.09563
     41       2.00000          -0.775250          -21.09563
     42       2.00000          -0.775250          -21.09563
     43       2.00000          -0.502455          -13.67250
     44       2.00000          -0.502455          -13.67250
     45       2.00000          -0.502455          -13.67250
     46       2.00000          -0.463548          -12.61380
     47       2.00000          -0.463548          -12.61380
     48       2.00000          -0.463548          -12.61380
     49       2.00000          -0.422243          -11.48982
     50       2.00000          -0.422243          -11.48982
     51       2.00000          -0.422243          -11.48982
     52       0.00000          -0.354857           -9.65614
     53       0.00000          -0.354857           -9.65614
     54       0.00000          -0.354857           -9.65614
     55       0.00000          -0.264826           -7.20628
     56       0.00000          -0.264826           -7.20628
     57       0.00000          -0.233595           -6.35644
     58       0.00000          -0.233595           -6.35644
     59       0.00000          -0.138301           -3.76338
     60       0.00000          -0.094750           -2.57828
     61       0.00000          -0.094750           -2.57828
     62       0.00000          -0.094750           -2.57828
     63       0.00000          -0.005994           -0.16312
     64       0.00000           0.007313            0.19900
     65       0.00000           0.007313            0.19900
     66       0.00000           0.007313            0.19900
     67       0.00000           0.012385            0.33701
     68       0.00000           0.012385            0.33701
     69       0.00000           0.012385            0.33701
     70       0.00000           0.144683            3.93702
     71       0.00000           0.247125            6.72462

  What follows are estimated values for band gap, HOMO, LUMO, etc.
  | They are estimated on a discrete k-point grid and not necessarily exact.
  | For converged numbers, create a DOS and/or band structure plot on a denser k-grid.

  Highest occupied state (VBM) at    -11.42479500 eV (relative to internal zero)
  | Occupation number:      2.00000000
  | K-point:     205 at    0.500000    0.500000    0.500000 (in units of recip. lattice)

  Lowest unoccupied state (CBM) at    -9.65613871 eV (relative to internal zero)
  | Occupation number:      0.00000000
  | K-point:       1 at    0.000000    0.000000    0.000000 (in units of recip. lattice)

  The gap value is above 0.2 eV. Unless you are using a very sparse k-point grid,
  this system is most likely an insulator or a semiconductor.
  ESTIMATED overall HOMO-LUMO gap:      1.76865629 eV between HOMO at k-point 205 and LUMO at k-point 1
  | This appears to be an indirect band gap.
  | Smallest direct gap :      1.83368169 eV for k_point 1 at    0.000000    0.000000    0.000000 (in units of recip. lattice)

  | Chemical Potential                          :   -10.54046685 eV
  | Note that, for insulating systems, the printed 'chemical potential' value is not uniquely defined.
  | It can be anywhere in the energy gap, as long as it correctly separates occupied and unoccupied states.
  | In systems with a gap, the physically relevant chemical potential is the VBM or HOMO.

  Self-consistency cycle converged.


------------------------------------------------------------
  End self-consistency iteration #    19       :  max(cpu_time)    wall_clock(cpu1)
  | Time for this iteration                     :        0.836 s           0.847 s
  | Charge density update                       :        0.000 s           0.000 s
  | Density mixing                              :        0.000 s           0.000 s
  | Hartree multipole update                    :        0.001 s           0.001 s
  | Hartree multipole summation                 :        0.027 s           0.027 s
  | Integration                                 :        0.748 s           0.758 s
  | Solution of K.-S. eqns.                     :        0.058 s           0.059 s
  | Total energy evaluation                     :        0.000 s           0.000 s

  Partial memory accounting:
  | Current value for overall tracked memory usage:
  |   Minimum:       27.703 MB (on task  48)
  |   Maximum:       27.948 MB (on task   1)
  |   Average:       27.715 MB
  | Peak value for overall tracked memory usage:
  |   Minimum:       67.018 MB (on task   6 after allocating wave)
  |   Maximum:       72.073 MB (on task  54 after allocating wave)
  |   Average:       69.002 MB
  | Largest tracked array allocation so far:
  |   Minimum:       33.999 MB (hamiltonian_shell on task   6)
  |   Maximum:       38.693 MB (hamiltonian_shell on task  54)
  |   Average:       35.831 MB
  Note:  These values currently only include a subset of arrays which are explicitly tracked.
  The "true" memory usage will be greater.
------------------------------------------------------------

  Energy and forces in a compact form:
  | Total energy uncorrected      :         -0.254338306137509E+06 eV
  | Total energy corrected        :         -0.254338306137509E+06 eV  <-- do not rely on this value for anything but (periodic) metals
  | Electronic free energy        :         -0.254338306137509E+06 eV

  ------------------------------------ 
  Start decomposition of the XC Energy 
  ------------------------------------ 
  X and C from original XC functional choice 
  Hartree-Fock Energy :          0.000000000 Ha              0.000000000 eV
  X Energy            :       -248.548161689 Ha          -6763.339594491 eV
  C Energy            :         -8.926096049 Ha           -242.891431670 eV
  XC Energy w/o HF    :       -257.474257738 Ha          -7006.231026160 eV
  Total XC Energy     :       -257.474257738 Ha          -7006.231026160 eV
  ------------------------------------ 
  LDA X and C from self-consistent density 
  X Energy LDA        :       -248.548161689 Ha          -6763.339594491 eV
  C Energy LDA        :         -8.926096049 Ha           -242.891431670 eV
  ------------------------------------ 
  End decomposition of the XC Energy 
  ------------------------------------ 

------------------------------------------------------------

  Starting with the calculation of the polarization (LAPACK version):
   |-> Using LAPACK for polarization directive   1 of   3 directives

  -------------------------------------------------------------------
  Computing Wannier centers of charge         (LAPACK version):
  -------------------------------------------------------------------


  Integrating Hamiltonian matrix: batch-based integration.
  Time summed over all CPUs for integration: real work       84.640 s, elapsed       94.568 s

  Number of k-points for which the Wannier centers of charge are calculated for:    64
  Number of k-points used at each of this k-points to obtain the Wannier center of charge:    80
  Wannier center evolution is sampled along the reciprocal lattice vector  1 in    64 steps.
  - The Wannier center evoulution is computed along the following     64 strings in k_space:
    Band     1 from k_start =  0.500 -0.500 -0.500 to k_end = -0.500 -0.500 -0.500
    Band     2 from k_start =  0.500 -0.500 -0.357 to k_end = -0.500 -0.500 -0.357
    Band     3 from k_start =  0.500 -0.500 -0.214 to k_end = -0.500 -0.500 -0.214
    Band     4 from k_start =  0.500 -0.500 -0.071 to k_end = -0.500 -0.500 -0.071
    Band     5 from k_start =  0.500 -0.500  0.071 to k_end = -0.500 -0.500  0.071
    Band     6 from k_start =  0.500 -0.500  0.214 to k_end = -0.500 -0.500  0.214
    Band     7 from k_start =  0.500 -0.500  0.357 to k_end = -0.500 -0.500  0.357
    Band     8 from k_start =  0.500 -0.500  0.500 to k_end = -0.500 -0.500  0.500
    Band     9 from k_start =  0.500 -0.357 -0.500 to k_end = -0.500 -0.357 -0.500
    Band    10 from k_start =  0.500 -0.357 -0.357 to k_end = -0.500 -0.357 -0.357
    Band    11 from k_start =  0.500 -0.357 -0.214 to k_end = -0.500 -0.357 -0.214
    Band    12 from k_start =  0.500 -0.357 -0.071 to k_end = -0.500 -0.357 -0.071
    Band    13 from k_start =  0.500 -0.357  0.071 to k_end = -0.500 -0.357  0.071
    Band    14 from k_start =  0.500 -0.357  0.214 to k_end = -0.500 -0.357  0.214
    Band    15 from k_start =  0.500 -0.357  0.357 to k_end = -0.500 -0.357  0.357
    Band    16 from k_start =  0.500 -0.357  0.500 to k_end = -0.500 -0.357  0.500
    Band    17 from k_start =  0.500 -0.214 -0.500 to k_end = -0.500 -0.214 -0.500
    Band    18 from k_start =  0.500 -0.214 -0.357 to k_end = -0.500 -0.214 -0.357
    Band    19 from k_start =  0.500 -0.214 -0.214 to k_end = -0.500 -0.214 -0.214
    Band    20 from k_start =  0.500 -0.214 -0.071 to k_end = -0.500 -0.214 -0.071
    Band    21 from k_start =  0.500 -0.214  0.071 to k_end = -0.500 -0.214  0.071
    Band    22 from k_start =  0.500 -0.214  0.214 to k_end = -0.500 -0.214  0.214
    Band    23 from k_start =  0.500 -0.214  0.357 to k_end = -0.500 -0.214  0.357
    Band    24 from k_start =  0.500 -0.214  0.500 to k_end = -0.500 -0.214  0.500
    Band    25 from k_start =  0.500 -0.071 -0.500 to k_end = -0.500 -0.071 -0.500
    Band    26 from k_start =  0.500 -0.071 -0.357 to k_end = -0.500 -0.071 -0.357
    Band    27 from k_start =  0.500 -0.071 -0.214 to k_end = -0.500 -0.071 -0.214
    Band    28 from k_start =  0.500 -0.071 -0.071 to k_end = -0.500 -0.071 -0.071
    Band    29 from k_start =  0.500 -0.071  0.071 to k_end = -0.500 -0.071  0.071
    Band    30 from k_start =  0.500 -0.071  0.214 to k_end = -0.500 -0.071  0.214
    Band    31 from k_start =  0.500 -0.071  0.357 to k_end = -0.500 -0.071  0.357
    Band    32 from k_start =  0.500 -0.071  0.500 to k_end = -0.500 -0.071  0.500
    Band    33 from k_start =  0.500  0.071 -0.500 to k_end = -0.500  0.071 -0.500
    Band    34 from k_start =  0.500  0.071 -0.357 to k_end = -0.500  0.071 -0.357
    Band    35 from k_start =  0.500  0.071 -0.214 to k_end = -0.500  0.071 -0.214
    Band    36 from k_start =  0.500  0.071 -0.071 to k_end = -0.500  0.071 -0.071
    Band    37 from k_start =  0.500  0.071  0.071 to k_end = -0.500  0.071  0.071
    Band    38 from k_start =  0.500  0.071  0.214 to k_end = -0.500  0.071  0.214
    Band    39 from k_start =  0.500  0.071  0.357 to k_end = -0.500  0.071  0.357
    Band    40 from k_start =  0.500  0.071  0.500 to k_end = -0.500  0.071  0.500
    Band    41 from k_start =  0.500  0.214 -0.500 to k_end = -0.500  0.214 -0.500
    Band    42 from k_start =  0.500  0.214 -0.357 to k_end = -0.500  0.214 -0.357
    Band    43 from k_start =  0.500  0.214 -0.214 to k_end = -0.500  0.214 -0.214
    Band    44 from k_start =  0.500  0.214 -0.071 to k_end = -0.500  0.214 -0.071
    Band    45 from k_start =  0.500  0.214  0.071 to k_end = -0.500  0.214  0.071
    Band    46 from k_start =  0.500  0.214  0.214 to k_end = -0.500  0.214  0.214
    Band    47 from k_start =  0.500  0.214  0.357 to k_end = -0.500  0.214  0.357
    Band    48 from k_start =  0.500  0.214  0.500 to k_end = -0.500  0.214  0.500
    Band    49 from k_start =  0.500  0.357 -0.500 to k_end = -0.500  0.357 -0.500
    Band    50 from k_start =  0.500  0.357 -0.357 to k_end = -0.500  0.357 -0.357
    Band    51 from k_start =  0.500  0.357 -0.214 to k_end = -0.500  0.357 -0.214
    Band    52 from k_start =  0.500  0.357 -0.071 to k_end = -0.500  0.357 -0.071
    Band    53 from k_start =  0.500  0.357  0.071 to k_end = -0.500  0.357  0.071
    Band    54 from k_start =  0.500  0.357  0.214 to k_end = -0.500  0.357  0.214
    Band    55 from k_start =  0.500  0.357  0.357 to k_end = -0.500  0.357  0.357
    Band    56 from k_start =  0.500  0.357  0.500 to k_end = -0.500  0.357  0.500
    Band    57 from k_start =  0.500  0.500 -0.500 to k_end = -0.500  0.500 -0.500
    Band    58 from k_start =  0.500  0.500 -0.357 to k_end = -0.500  0.500 -0.357
    Band    59 from k_start =  0.500  0.500 -0.214 to k_end = -0.500  0.500 -0.214
    Band    60 from k_start =  0.500  0.500 -0.071 to k_end = -0.500  0.500 -0.071
    Band    61 from k_start =  0.500  0.500  0.071 to k_end = -0.500  0.500  0.071
    Band    62 from k_start =  0.500  0.500  0.214 to k_end = -0.500  0.500  0.214
    Band    63 from k_start =  0.500  0.500  0.357 to k_end = -0.500  0.500  0.357
    Band    64 from k_start =  0.500  0.500  0.500 to k_end = -0.500  0.500  0.500


  Treating all   80 k-points in band plot segment #   1:
   Sampling over :
   - k =   0.500 -0.500 -0.500
   - k =   0.487 -0.500 -0.500
   - k =   0.475 -0.500 -0.500
   - k =   0.462 -0.500 -0.500
   - k =   0.449 -0.500 -0.500
   - k =   0.437 -0.500 -0.500
   - k =   0.424 -0.500 -0.500
   - k =   0.411 -0.500 -0.500
   - k =   0.399 -0.500 -0.500
   - k =   0.386 -0.500 -0.500
   - k =   0.373 -0.500 -0.500
   - k =   0.361 -0.500 -0.500
   - k =   0.348 -0.500 -0.500
   - k =   0.335 -0.500 -0.500
   - k =   0.323 -0.500 -0.500
   - k =   0.310 -0.500 -0.500
   - k =   0.297 -0.500 -0.500
   - k =   0.285 -0.500 -0.500
   - k =   0.272 -0.500 -0.500
   - k =   0.259 -0.500 -0.500
   - k =   0.247 -0.500 -0.500
   - k =   0.234 -0.500 -0.500
   - k =   0.222 -0.500 -0.500
   - k =   0.209 -0.500 -0.500
   - k =   0.196 -0.500 -0.500
   - k =   0.184 -0.500 -0.500
   - k =   0.171 -0.500 -0.500
   - k =   0.158 -0.500 -0.500
   - k =   0.146 -0.500 -0.500
   - k =   0.133 -0.500 -0.500
   - k =   0.120 -0.500 -0.500
   - k =   0.108 -0.500 -0.500
   - k =   0.095 -0.500 -0.500
   - k =   0.082 -0.500 -0.500
   - k =   0.070 -0.500 -0.500
   - k =   0.057 -0.500 -0.500
   - k =   0.044 -0.500 -0.500
   - k =   0.032 -0.500 -0.500
   - k =   0.019 -0.500 -0.500
   - k =   0.006 -0.500 -0.500
   - k =  -0.006 -0.500 -0.500
   - k =  -0.019 -0.500 -0.500
   - k =  -0.032 -0.500 -0.500
   - k =  -0.044 -0.500 -0.500
   - k =  -0.057 -0.500 -0.500
   - k =  -0.070 -0.500 -0.500
   - k =  -0.082 -0.500 -0.500
   - k =  -0.095 -0.500 -0.500
   - k =  -0.108 -0.500 -0.500
   - k =  -0.120 -0.500 -0.500
   - k =  -0.133 -0.500 -0.500
   - k =  -0.146 -0.500 -0.500
   - k =  -0.158 -0.500 -0.500
   - k =  -0.171 -0.500 -0.500
   - k =  -0.184 -0.500 -0.500
   - k =  -0.196 -0.500 -0.500
   - k =  -0.209 -0.500 -0.500
   - k =  -0.222 -0.500 -0.500
   - k =  -0.234 -0.500 -0.500
   - k =  -0.247 -0.500 -0.500
   - k =  -0.259 -0.500 -0.500
   - k =  -0.272 -0.500 -0.500
   - k =  -0.285 -0.500 -0.500
   - k =  -0.297 -0.500 -0.500
   - k =  -0.310 -0.500 -0.500
   - k =  -0.323 -0.500 -0.500
   - k =  -0.335 -0.500 -0.500
   - k =  -0.348 -0.500 -0.500
   - k =  -0.361 -0.500 -0.500
   - k =  -0.373 -0.500 -0.500
   - k =  -0.386 -0.500 -0.500
   - k =  -0.399 -0.500 -0.500
   - k =  -0.411 -0.500 -0.500
   - k =  -0.424 -0.500 -0.500
   - k =  -0.437 -0.500 -0.500
   - k =  -0.449 -0.500 -0.500
   - k =  -0.462 -0.500 -0.500
   - k =  -0.475 -0.500 -0.500
   - k =  -0.487 -0.500 -0.500
   - k =  -0.500 -0.500 -0.500

  |-> Computing Wannier center evolution at k-point number:      1
 Using pol_lapack_version = 2
 Calculating dipole matrix along reciprocal lattice vector 1:     0.840     0.000     0.000
  Integrating dipole matrix.
  Time summed over all CPUs for integration: real work      147.965 s, elapsed      160.971 s
 Calculating Berry  term along reciprocal lattice vector 1:     0.840     0.000     0.000
 Calculating dipole term along reciprocal lattice vector 1:     0.840     0.000     0.000

  Treating all   80 k-points in band plot segment #   2:
   Sampling over :
   - k =   0.500 -0.500 -0.357
   - k =   0.487 -0.500 -0.357
   - k =   0.475 -0.500 -0.357
   - k =   0.462 -0.500 -0.357
   - k =   0.449 -0.500 -0.357
   - k =   0.437 -0.500 -0.357
   - k =   0.424 -0.500 -0.357
   - k =   0.411 -0.500 -0.357
   - k =   0.399 -0.500 -0.357
   - k =   0.386 -0.500 -0.357
   - k =   0.373 -0.500 -0.357
   - k =   0.361 -0.500 -0.357
   - k =   0.348 -0.500 -0.357
   - k =   0.335 -0.500 -0.357
   - k =   0.323 -0.500 -0.357
   - k =   0.310 -0.500 -0.357
   - k =   0.297 -0.500 -0.357
   - k =   0.285 -0.500 -0.357
   - k =   0.272 -0.500 -0.357
   - k =   0.259 -0.500 -0.357
   - k =   0.247 -0.500 -0.357
   - k =   0.234 -0.500 -0.357
   - k =   0.222 -0.500 -0.357
   - k =   0.209 -0.500 -0.357
   - k =   0.196 -0.500 -0.357
   - k =   0.184 -0.500 -0.357
   - k =   0.171 -0.500 -0.357
   - k =   0.158 -0.500 -0.357
   - k =   0.146 -0.500 -0.357
   - k =   0.133 -0.500 -0.357
   - k =   0.120 -0.500 -0.357
   - k =   0.108 -0.500 -0.357
   - k =   0.095 -0.500 -0.357
   - k =   0.082 -0.500 -0.357
   - k =   0.070 -0.500 -0.357
   - k =   0.057 -0.500 -0.357
   - k =   0.044 -0.500 -0.357
   - k =   0.032 -0.500 -0.357
   - k =   0.019 -0.500 -0.357
   - k =   0.006 -0.500 -0.357
   - k =  -0.006 -0.500 -0.357
   - k =  -0.019 -0.500 -0.357
   - k =  -0.032 -0.500 -0.357
   - k =  -0.044 -0.500 -0.357
   - k =  -0.057 -0.500 -0.357
   - k =  -0.070 -0.500 -0.357
   - k =  -0.082 -0.500 -0.357
   - k =  -0.095 -0.500 -0.357
   - k =  -0.108 -0.500 -0.357
   - k =  -0.120 -0.500 -0.357
   - k =  -0.133 -0.500 -0.357
   - k =  -0.146 -0.500 -0.357
   - k =  -0.158 -0.500 -0.357
   - k =  -0.171 -0.500 -0.357
   - k =  -0.184 -0.500 -0.357
   - k =  -0.196 -0.500 -0.357
   - k =  -0.209 -0.500 -0.357
   - k =  -0.222 -0.500 -0.357
   - k =  -0.234 -0.500 -0.357
   - k =  -0.247 -0.500 -0.357
   - k =  -0.259 -0.500 -0.357
   - k =  -0.272 -0.500 -0.357
   - k =  -0.285 -0.500 -0.357
   - k =  -0.297 -0.500 -0.357
   - k =  -0.310 -0.500 -0.357
   - k =  -0.323 -0.500 -0.357
   - k =  -0.335 -0.500 -0.357
   - k =  -0.348 -0.500 -0.357
   - k =  -0.361 -0.500 -0.357
   - k =  -0.373 -0.500 -0.357
   - k =  -0.386 -0.500 -0.357
   - k =  -0.399 -0.500 -0.357
   - k =  -0.411 -0.500 -0.357
   - k =  -0.424 -0.500 -0.357
   - k =  -0.437 -0.500 -0.357
   - k =  -0.449 -0.500 -0.357
   - k =  -0.462 -0.500 -0.357
   - k =  -0.475 -0.500 -0.357
   - k =  -0.487 -0.500 -0.357
   - k =  -0.500 -0.500 -0.357

  |-> Computing Wannier center evolution at k-point number:      2
 Using pol_lapack_version = 2
 Calculating Berry  term along reciprocal lattice vector 1:     0.840     0.000     0.000
 Calculating dipole term along reciprocal lattice vector 1:     0.840     0.000     0.000

  Treating all   80 k-points in band plot segment #   3:
   Sampling over :
   - k =   0.500 -0.500 -0.214
   - k =   0.487 -0.500 -0.214
   - k =   0.475 -0.500 -0.214
   - k =   0.462 -0.500 -0.214
   - k =   0.449 -0.500 -0.214
   - k =   0.437 -0.500 -0.214
   - k =   0.424 -0.500 -0.214
   - k =   0.411 -0.500 -0.214
   - k =   0.399 -0.500 -0.214
   - k =   0.386 -0.500 -0.214
   - k =   0.373 -0.500 -0.214
   - k =   0.361 -0.500 -0.214
   - k =   0.348 -0.500 -0.214
   - k =   0.335 -0.500 -0.214
   - k =   0.323 -0.500 -0.214
   - k =   0.310 -0.500 -0.214
   - k =   0.297 -0.500 -0.214
   - k =   0.285 -0.500 -0.214
   - k =   0.272 -0.500 -0.214
   - k =   0.259 -0.500 -0.214
   - k =   0.247 -0.500 -0.214
   - k =   0.234 -0.500 -0.214
   - k =   0.222 -0.500 -0.214
   - k =   0.209 -0.500 -0.214
   - k =   0.196 -0.500 -0.214
   - k =   0.184 -0.500 -0.214
   - k =   0.171 -0.500 -0.214
   - k =   0.158 -0.500 -0.214
   - k =   0.146 -0.500 -0.214
   - k =   0.133 -0.500 -0.214
   - k =   0.120 -0.500 -0.214
   - k =   0.108 -0.500 -0.214
   - k =   0.095 -0.500 -0.214
   - k =   0.082 -0.500 -0.214
   - k =   0.070 -0.500 -0.214
   - k =   0.057 -0.500 -0.214
   - k =   0.044 -0.500 -0.214
   - k =   0.032 -0.500 -0.214
   - k =   0.019 -0.500 -0.214
   - k =   0.006 -0.500 -0.214
   - k =  -0.006 -0.500 -0.214
   - k =  -0.019 -0.500 -0.214
   - k =  -0.032 -0.500 -0.214
   - k =  -0.044 -0.500 -0.214
   - k =  -0.057 -0.500 -0.214
   - k =  -0.070 -0.500 -0.214
   - k =  -0.082 -0.500 -0.214
   - k =  -0.095 -0.500 -0.214
   - k =  -0.108 -0.500 -0.214
   - k =  -0.120 -0.500 -0.214
   - k =  -0.133 -0.500 -0.214
   - k =  -0.146 -0.500 -0.214
   - k =  -0.158 -0.500 -0.214
   - k =  -0.171 -0.500 -0.214
   - k =  -0.184 -0.500 -0.214
   - k =  -0.196 -0.500 -0.214
   - k =  -0.209 -0.500 -0.214
   - k =  -0.222 -0.500 -0.214
   - k =  -0.234 -0.500 -0.214
   - k =  -0.247 -0.500 -0.214
   - k =  -0.259 -0.500 -0.214
   - k =  -0.272 -0.500 -0.214
   - k =  -0.285 -0.500 -0.214
   - k =  -0.297 -0.500 -0.214
   - k =  -0.310 -0.500 -0.214
   - k =  -0.323 -0.500 -0.214
   - k =  -0.335 -0.500 -0.214
   - k =  -0.348 -0.500 -0.214
   - k =  -0.361 -0.500 -0.214
   - k =  -0.373 -0.500 -0.214
   - k =  -0.386 -0.500 -0.214
   - k =  -0.399 -0.500 -0.214
   - k =  -0.411 -0.500 -0.214
   - k =  -0.424 -0.500 -0.214
   - k =  -0.437 -0.500 -0.214
   - k =  -0.449 -0.500 -0.214
   - k =  -0.462 -0.500 -0.214
   - k =  -0.475 -0.500 -0.214
   - k =  -0.487 -0.500 -0.214
   - k =  -0.500 -0.500 -0.214

  |-> Computing Wannier center evolution at k-point number:      3
 Using pol_lapack_version = 2
 Calculating Berry  term along reciprocal lattice vector 1:     0.840     0.000     0.000
 Calculating dipole term along reciprocal lattice vector 1:     0.840     0.000     0.000

  Treating all   80 k-points in band plot segment #   4:
   Sampling over :
   - k =   0.500 -0.500 -0.071
   - k =   0.487 -0.500 -0.071
   - k =   0.475 -0.500 -0.071
   - k =   0.462 -0.500 -0.071
   - k =   0.449 -0.500 -0.071
   - k =   0.437 -0.500 -0.071
   - k =   0.424 -0.500 -0.071
   - k =   0.411 -0.500 -0.071
   - k =   0.399 -0.500 -0.071
   - k =   0.386 -0.500 -0.071
   - k =   0.373 -0.500 -0.071
   - k =   0.361 -0.500 -0.071
   - k =   0.348 -0.500 -0.071
   - k =   0.335 -0.500 -0.071
   - k =   0.323 -0.500 -0.071
   - k =   0.310 -0.500 -0.071
   - k =   0.297 -0.500 -0.071
   - k =   0.285 -0.500 -0.071
   - k =   0.272 -0.500 -0.071
   - k =   0.259 -0.500 -0.071
   - k =   0.247 -0.500 -0.071
   - k =   0.234 -0.500 -0.071
   - k =   0.222 -0.500 -0.071
   - k =   0.209 -0.500 -0.071
   - k =   0.196 -0.500 -0.071
   - k =   0.184 -0.500 -0.071
   - k =   0.171 -0.500 -0.071
   - k =   0.158 -0.500 -0.071
   - k =   0.146 -0.500 -0.071
   - k =   0.133 -0.500 -0.071
   - k =   0.120 -0.500 -0.071
   - k =   0.108 -0.500 -0.071
   - k =   0.095 -0.500 -0.071
   - k =   0.082 -0.500 -0.071
   - k =   0.070 -0.500 -0.071
   - k =   0.057 -0.500 -0.071
   - k =   0.044 -0.500 -0.071
   - k =   0.032 -0.500 -0.071
   - k =   0.019 -0.500 -0.071
   - k =   0.006 -0.500 -0.071
   - k =  -0.006 -0.500 -0.071
   - k =  -0.019 -0.500 -0.071
   - k =  -0.032 -0.500 -0.071
   - k =  -0.044 -0.500 -0.071
   - k =  -0.057 -0.500 -0.071
   - k =  -0.070 -0.500 -0.071
   - k =  -0.082 -0.500 -0.071
   - k =  -0.095 -0.500 -0.071
   - k =  -0.108 -0.500 -0.071
   - k =  -0.120 -0.500 -0.071
   - k =  -0.133 -0.500 -0.071
   - k =  -0.146 -0.500 -0.071
   - k =  -0.158 -0.500 -0.071
   - k =  -0.171 -0.500 -0.071
   - k =  -0.184 -0.500 -0.071
   - k =  -0.196 -0.500 -0.071
   - k =  -0.209 -0.500 -0.071
   - k =  -0.222 -0.500 -0.071
   - k =  -0.234 -0.500 -0.071
   - k =  -0.247 -0.500 -0.071
   - k =  -0.259 -0.500 -0.071
   - k =  -0.272 -0.500 -0.071
   - k =  -0.285 -0.500 -0.071
   - k =  -0.297 -0.500 -0.071
   - k =  -0.310 -0.500 -0.071
   - k =  -0.323 -0.500 -0.071
   - k =  -0.335 -0.500 -0.071
   - k =  -0.348 -0.500 -0.071
   - k =  -0.361 -0.500 -0.071
   - k =  -0.373 -0.500 -0.071
   - k =  -0.386 -0.500 -0.071
   - k =  -0.399 -0.500 -0.071
   - k =  -0.411 -0.500 -0.071
   - k =  -0.424 -0.500 -0.071
   - k =  -0.437 -0.500 -0.071
   - k =  -0.449 -0.500 -0.071
   - k =  -0.462 -0.500 -0.071
   - k =  -0.475 -0.500 -0.071
   - k =  -0.487 -0.500 -0.071
   - k =  -0.500 -0.500 -0.071

  |-> Computing Wannier center evolution at k-point number:      4
 Using pol_lapack_version = 2
 Calculating Berry  term along reciprocal lattice vector 1:     0.840     0.000     0.000
 Calculating dipole term along reciprocal lattice vector 1:     0.840     0.000     0.000

  Treating all   80 k-points in band plot segment #   5:
   Sampling over :
   - k =   0.500 -0.500  0.071
   - k =   0.487 -0.500  0.071
   - k =   0.475 -0.500  0.071
   - k =   0.462 -0.500  0.071
   - k =   0.449 -0.500  0.071
   - k =   0.437 -0.500  0.071
   - k =   0.424 -0.500  0.071
   - k =   0.411 -0.500  0.071
   - k =   0.399 -0.500  0.071
   - k =   0.386 -0.500  0.071
   - k =   0.373 -0.500  0.071
   - k =   0.361 -0.500  0.071
   - k =   0.348 -0.500  0.071
   - k =   0.335 -0.500  0.071
   - k =   0.323 -0.500  0.071
   - k =   0.310 -0.500  0.071
   - k =   0.297 -0.500  0.071
   - k =   0.285 -0.500  0.071
   - k =   0.272 -0.500  0.071
   - k =   0.259 -0.500  0.071
   - k =   0.247 -0.500  0.071
   - k =   0.234 -0.500  0.071
   - k =   0.222 -0.500  0.071
   - k =   0.209 -0.500  0.071
   - k =   0.196 -0.500  0.071
   - k =   0.184 -0.500  0.071
   - k =   0.171 -0.500  0.071
   - k =   0.158 -0.500  0.071
   - k =   0.146 -0.500  0.071
   - k =   0.133 -0.500  0.071
   - k =   0.120 -0.500  0.071
   - k =   0.108 -0.500  0.071
   - k =   0.095 -0.500  0.071
   - k =   0.082 -0.500  0.071
   - k =   0.070 -0.500  0.071
   - k =   0.057 -0.500  0.071
   - k =   0.044 -0.500  0.071
   - k =   0.032 -0.500  0.071
   - k =   0.019 -0.500  0.071
   - k =   0.006 -0.500  0.071
   - k =  -0.006 -0.500  0.071
   - k =  -0.019 -0.500  0.071
   - k =  -0.032 -0.500  0.071
   - k =  -0.044 -0.500  0.071
   - k =  -0.057 -0.500  0.071
   - k =  -0.070 -0.500  0.071
   - k =  -0.082 -0.500  0.071
   - k =  -0.095 -0.500  0.071
   - k =  -0.108 -0.500  0.071
   - k =  -0.120 -0.500  0.071
   - k =  -0.133 -0.500  0.071
   - k =  -0.146 -0.500  0.071
   - k =  -0.158 -0.500  0.071
   - k =  -0.171 -0.500  0.071
   - k =  -0.184 -0.500  0.071
   - k =  -0.196 -0.500  0.071
   - k =  -0.209 -0.500  0.071
   - k =  -0.222 -0.500  0.071
   - k =  -0.234 -0.500  0.071
   - k =  -0.247 -0.500  0.071
   - k =  -0.259 -0.500  0.071
   - k =  -0.272 -0.500  0.071
   - k =  -0.285 -0.500  0.071
   - k =  -0.297 -0.500  0.071
   - k =  -0.310 -0.500  0.071
   - k =  -0.323 -0.500  0.071
   - k =  -0.335 -0.500  0.071
   - k =  -0.348 -0.500  0.071
   - k =  -0.361 -0.500  0.071
   - k =  -0.373 -0.500  0.071
   - k =  -0.386 -0.500  0.071
   - k =  -0.399 -0.500  0.071
   - k =  -0.411 -0.500  0.071
   - k =  -0.424 -0.500  0.071
   - k =  -0.437 -0.500  0.071
   - k =  -0.449 -0.500  0.071
   - k =  -0.462 -0.500  0.071
   - k =  -0.475 -0.500  0.071
   - k =  -0.487 -0.500  0.071
   - k =  -0.500 -0.500  0.071

  |-> Computing Wannier center evolution at k-point number:      5
 Using pol_lapack_version = 2
 Calculating Berry  term along reciprocal lattice vector 1:     0.840     0.000     0.000
 Calculating dipole term along reciprocal lattice vector 1:     0.840     0.000     0.000

  Treating all   80 k-points in band plot segment #   6:
   Sampling over :
   - k =   0.500 -0.500  0.214
   - k =   0.487 -0.500  0.214
   - k =   0.475 -0.500  0.214
   - k =   0.462 -0.500  0.214
   - k =   0.449 -0.500  0.214
   - k =   0.437 -0.500  0.214
   - k =   0.424 -0.500  0.214
   - k =   0.411 -0.500  0.214
   - k =   0.399 -0.500  0.214
   - k =   0.386 -0.500  0.214
   - k =   0.373 -0.500  0.214
   - k =   0.361 -0.500  0.214
   - k =   0.348 -0.500  0.214
   - k =   0.335 -0.500  0.214
   - k =   0.323 -0.500  0.214
   - k =   0.310 -0.500  0.214
   - k =   0.297 -0.500  0.214
   - k =   0.285 -0.500  0.214
   - k =   0.272 -0.500  0.214
   - k =   0.259 -0.500  0.214
   - k =   0.247 -0.500  0.214
   - k =   0.234 -0.500  0.214
   - k =   0.222 -0.500  0.214
   - k =   0.209 -0.500  0.214
   - k =   0.196 -0.500  0.214
   - k =   0.184 -0.500  0.214
   - k =   0.171 -0.500  0.214
   - k =   0.158 -0.500  0.214
   - k =   0.146 -0.500  0.214
   - k =   0.133 -0.500  0.214
   - k =   0.120 -0.500  0.214
   - k =   0.108 -0.500  0.214
   - k =   0.095 -0.500  0.214
   - k =   0.082 -0.500  0.214
   - k =   0.070 -0.500  0.214
   - k =   0.057 -0.500  0.214
   - k =   0.044 -0.500  0.214
   - k =   0.032 -0.500  0.214
   - k =   0.019 -0.500  0.214
   - k =   0.006 -0.500  0.214
   - k =  -0.006 -0.500  0.214
   - k =  -0.019 -0.500  0.214
   - k =  -0.032 -0.500  0.214
   - k =  -0.044 -0.500  0.214
   - k =  -0.057 -0.500  0.214
   - k =  -0.070 -0.500  0.214
   - k =  -0.082 -0.500  0.214
   - k =  -0.095 -0.500  0.214
   - k =  -0.108 -0.500  0.214
   - k =  -0.120 -0.500  0.214
   - k =  -0.133 -0.500  0.214
   - k =  -0.146 -0.500  0.214
   - k =  -0.158 -0.500  0.214
   - k =  -0.171 -0.500  0.214
   - k =  -0.184 -0.500  0.214
   - k =  -0.196 -0.500  0.214
   - k =  -0.209 -0.500  0.214
   - k =  -0.222 -0.500  0.214
   - k =  -0.234 -0.500  0.214
   - k =  -0.247 -0.500  0.214
   - k =  -0.259 -0.500  0.214
   - k =  -0.272 -0.500  0.214
   - k =  -0.285 -0.500  0.214
   - k =  -0.297 -0.500  0.214
   - k =  -0.310 -0.500  0.214
   - k =  -0.323 -0.500  0.214
   - k =  -0.335 -0.500  0.214
   - k =  -0.348 -0.500  0.214
   - k =  -0.361 -0.500  0.214
   - k =  -0.373 -0.500  0.214
   - k =  -0.386 -0.500  0.214
   - k =  -0.399 -0.500  0.214
   - k =  -0.411 -0.500  0.214
   - k =  -0.424 -0.500  0.214
   - k =  -0.437 -0.500  0.214
   - k =  -0.449 -0.500  0.214
   - k =  -0.462 -0.500  0.214
   - k =  -0.475 -0.500  0.214
   - k =  -0.487 -0.500  0.214
   - k =  -0.500 -0.500  0.214

  |-> Computing Wannier center evolution at k-point number:      6
 Using pol_lapack_version = 2
 Calculating Berry  term along reciprocal lattice vector 1:     0.840     0.000     0.000
 Calculating dipole term along reciprocal lattice vector 1:     0.840     0.000     0.000

  Treating all   80 k-points in band plot segment #   7:
   Sampling over :
   - k =   0.500 -0.500  0.357
   - k =   0.487 -0.500  0.357
   - k =   0.475 -0.500  0.357
   - k =   0.462 -0.500  0.357
   - k =   0.449 -0.500  0.357
   - k =   0.437 -0.500  0.357
   - k =   0.424 -0.500  0.357
   - k =   0.411 -0.500  0.357
   - k =   0.399 -0.500  0.357
   - k =   0.386 -0.500  0.357
   - k =   0.373 -0.500  0.357
   - k =   0.361 -0.500  0.357
   - k =   0.348 -0.500  0.357
   - k =   0.335 -0.500  0.357
   - k =   0.323 -0.500  0.357
   - k =   0.310 -0.500  0.357
   - k =   0.297 -0.500  0.357
   - k =   0.285 -0.500  0.357
   - k =   0.272 -0.500  0.357
   - k =   0.259 -0.500  0.357
   - k =   0.247 -0.500  0.357
   - k =   0.234 -0.500  0.357
   - k =   0.222 -0.500  0.357
   - k =   0.209 -0.500  0.357
   - k =   0.196 -0.500  0.357
   - k =   0.184 -0.500  0.357
   - k =   0.171 -0.500  0.357
   - k =   0.158 -0.500  0.357
   - k =   0.146 -0.500  0.357
   - k =   0.133 -0.500  0.357
   - k =   0.120 -0.500  0.357
   - k =   0.108 -0.500  0.357
   - k =   0.095 -0.500  0.357
   - k =   0.082 -0.500  0.357
   - k =   0.070 -0.500  0.357
   - k =   0.057 -0.500  0.357
   - k =   0.044 -0.500  0.357
   - k =   0.032 -0.500  0.357
   - k =   0.019 -0.500  0.357
   - k =   0.006 -0.500  0.357
   - k =  -0.006 -0.500  0.357
   - k =  -0.019 -0.500  0.357
   - k =  -0.032 -0.500  0.357
   - k =  -0.044 -0.500  0.357
   - k =  -0.057 -0.500  0.357
   - k =  -0.070 -0.500  0.357
   - k =  -0.082 -0.500  0.357
   - k =  -0.095 -0.500  0.357
   - k =  -0.108 -0.500  0.357
   - k =  -0.120 -0.500  0.357
   - k =  -0.133 -0.500  0.357
   - k =  -0.146 -0.500  0.357
   - k =  -0.158 -0.500  0.357
   - k =  -0.171 -0.500  0.357
   - k =  -0.184 -0.500  0.357
   - k =  -0.196 -0.500  0.357
   - k =  -0.209 -0.500  0.357
   - k =  -0.222 -0.500  0.357
   - k =  -0.234 -0.500  0.357
   - k =  -0.247 -0.500  0.357
   - k =  -0.259 -0.500  0.357
   - k =  -0.272 -0.500  0.357
   - k =  -0.285 -0.500  0.357
   - k =  -0.297 -0.500  0.357
   - k =  -0.310 -0.500  0.357
   - k =  -0.323 -0.500  0.357
   - k =  -0.335 -0.500  0.357
   - k =  -0.348 -0.500  0.357
   - k =  -0.361 -0.500  0.357
   - k =  -0.373 -0.500  0.357
   - k =  -0.386 -0.500  0.357
   - k =  -0.399 -0.500  0.357
   - k =  -0.411 -0.500  0.357
   - k =  -0.424 -0.500  0.357
   - k =  -0.437 -0.500  0.357
   - k =  -0.449 -0.500  0.357
   - k =  -0.462 -0.500  0.357
   - k =  -0.475 -0.500  0.357
   - k =  -0.487 -0.500  0.357
   - k =  -0.500 -0.500  0.357

  |-> Computing Wannier center evolution at k-point number:      7
 Using pol_lapack_version = 2
 Calculating Berry  term along reciprocal lattice vector 1:     0.840     0.000     0.000
 Calculating dipole term along reciprocal lattice vector 1:     0.840     0.000     0.000

  Treating all   80 k-points in band plot segment #   8:
   Sampling over :
   - k =   0.500 -0.500  0.500
   - k =   0.487 -0.500  0.500
   - k =   0.475 -0.500  0.500
   - k =   0.462 -0.500  0.500
   - k =   0.449 -0.500  0.500
   - k =   0.437 -0.500  0.500
   - k =   0.424 -0.500  0.500
   - k =   0.411 -0.500  0.500
   - k =   0.399 -0.500  0.500
   - k =   0.386 -0.500  0.500
   - k =   0.373 -0.500  0.500
   - k =   0.361 -0.500  0.500
   - k =   0.348 -0.500  0.500
   - k =   0.335 -0.500  0.500
   - k =   0.323 -0.500  0.500
   - k =   0.310 -0.500  0.500
   - k =   0.297 -0.500  0.500
   - k =   0.285 -0.500  0.500
   - k =   0.272 -0.500  0.500
   - k =   0.259 -0.500  0.500
   - k =   0.247 -0.500  0.500
   - k =   0.234 -0.500  0.500
   - k =   0.222 -0.500  0.500
   - k =   0.209 -0.500  0.500
   - k =   0.196 -0.500  0.500
   - k =   0.184 -0.500  0.500
   - k =   0.171 -0.500  0.500
   - k =   0.158 -0.500  0.500
   - k =   0.146 -0.500  0.500
   - k =   0.133 -0.500  0.500
   - k =   0.120 -0.500  0.500
   - k =   0.108 -0.500  0.500
   - k =   0.095 -0.500  0.500
   - k =   0.082 -0.500  0.500
   - k =   0.070 -0.500  0.500
   - k =   0.057 -0.500  0.500
   - k =   0.044 -0.500  0.500
   - k =   0.032 -0.500  0.500
   - k =   0.019 -0.500  0.500
   - k =   0.006 -0.500  0.500
   - k =  -0.006 -0.500  0.500
   - k =  -0.019 -0.500  0.500
   - k =  -0.032 -0.500  0.500
   - k =  -0.044 -0.500  0.500
   - k =  -0.057 -0.500  0.500
   - k =  -0.070 -0.500  0.500
   - k =  -0.082 -0.500  0.500
   - k =  -0.095 -0.500  0.500
   - k =  -0.108 -0.500  0.500
   - k =  -0.120 -0.500  0.500
   - k =  -0.133 -0.500  0.500
   - k =  -0.146 -0.500  0.500
   - k =  -0.158 -0.500  0.500
   - k =  -0.171 -0.500  0.500
   - k =  -0.184 -0.500  0.500
   - k =  -0.196 -0.500  0.500
   - k =  -0.209 -0.500  0.500
   - k =  -0.222 -0.500  0.500
   - k =  -0.234 -0.500  0.500
   - k =  -0.247 -0.500  0.500
   - k =  -0.259 -0.500  0.500
   - k =  -0.272 -0.500  0.500
   - k =  -0.285 -0.500  0.500
   - k =  -0.297 -0.500  0.500
   - k =  -0.310 -0.500  0.500
   - k =  -0.323 -0.500  0.500
   - k =  -0.335 -0.500  0.500
   - k =  -0.348 -0.500  0.500
   - k =  -0.361 -0.500  0.500
   - k =  -0.373 -0.500  0.500
   - k =  -0.386 -0.500  0.500
   - k =  -0.399 -0.500  0.500
   - k =  -0.411 -0.500  0.500
   - k =  -0.424 -0.500  0.500
   - k =  -0.437 -0.500  0.500
   - k =  -0.449 -0.500  0.500
   - k =  -0.462 -0.500  0.500
   - k =  -0.475 -0.500  0.500
   - k =  -0.487 -0.500  0.500
   - k =  -0.500 -0.500  0.500

  |-> Computing Wannier center evolution at k-point number:      8
 Using pol_lapack_version = 2
 Calculating Berry  term along reciprocal lattice vector 1:     0.840     0.000     0.000
 Calculating dipole term along reciprocal lattice vector 1:     0.840     0.000     0.000

  Treating all   80 k-points in band plot segment #   9:
   Sampling over :
   - k =   0.500 -0.357 -0.500
   - k =   0.487 -0.357 -0.500
   - k =   0.475 -0.357 -0.500
   - k =   0.462 -0.357 -0.500
   - k =   0.449 -0.357 -0.500
   - k =   0.437 -0.357 -0.500
   - k =   0.424 -0.357 -0.500
   - k =   0.411 -0.357 -0.500
   - k =   0.399 -0.357 -0.500
   - k =   0.386 -0.357 -0.500
   - k =   0.373 -0.357 -0.500
   - k =   0.361 -0.357 -0.500
   - k =   0.348 -0.357 -0.500
   - k =   0.335 -0.357 -0.500
   - k =   0.323 -0.357 -0.500
   - k =   0.310 -0.357 -0.500
   - k =   0.297 -0.357 -0.500
   - k =   0.285 -0.357 -0.500
   - k =   0.272 -0.357 -0.500
   - k =   0.259 -0.357 -0.500
   - k =   0.247 -0.357 -0.500
   - k =   0.234 -0.357 -0.500
   - k =   0.222 -0.357 -0.500
   - k =   0.209 -0.357 -0.500
   - k =   0.196 -0.357 -0.500
   - k =   0.184 -0.357 -0.500
   - k =   0.171 -0.357 -0.500
   - k =   0.158 -0.357 -0.500
   - k =   0.146 -0.357 -0.500
   - k =   0.133 -0.357 -0.500
   - k =   0.120 -0.357 -0.500
   - k =   0.108 -0.357 -0.500
   - k =   0.095 -0.357 -0.500
   - k =   0.082 -0.357 -0.500
   - k =   0.070 -0.357 -0.500
   - k =   0.057 -0.357 -0.500
   - k =   0.044 -0.357 -0.500
   - k =   0.032 -0.357 -0.500
   - k =   0.019 -0.357 -0.500
   - k =   0.006 -0.357 -0.500
   - k =  -0.006 -0.357 -0.500
   - k =  -0.019 -0.357 -0.500
   - k =  -0.032 -0.357 -0.500
   - k =  -0.044 -0.357 -0.500
   - k =  -0.057 -0.357 -0.500
   - k =  -0.070 -0.357 -0.500
   - k =  -0.082 -0.357 -0.500
   - k =  -0.095 -0.357 -0.500
   - k =  -0.108 -0.357 -0.500
   - k =  -0.120 -0.357 -0.500
   - k =  -0.133 -0.357 -0.500
   - k =  -0.146 -0.357 -0.500
   - k =  -0.158 -0.357 -0.500
   - k =  -0.171 -0.357 -0.500
   - k =  -0.184 -0.357 -0.500
   - k =  -0.196 -0.357 -0.500
   - k =  -0.209 -0.357 -0.500
   - k =  -0.222 -0.357 -0.500
   - k =  -0.234 -0.357 -0.500
   - k =  -0.247 -0.357 -0.500
   - k =  -0.259 -0.357 -0.500
   - k =  -0.272 -0.357 -0.500
   - k =  -0.285 -0.357 -0.500
   - k =  -0.297 -0.357 -0.500
   - k =  -0.310 -0.357 -0.500
   - k =  -0.323 -0.357 -0.500
   - k =  -0.335 -0.357 -0.500
   - k =  -0.348 -0.357 -0.500
   - k =  -0.361 -0.357 -0.500
   - k =  -0.373 -0.357 -0.500
   - k =  -0.386 -0.357 -0.500
   - k =  -0.399 -0.357 -0.500
   - k =  -0.411 -0.357 -0.500
   - k =  -0.424 -0.357 -0.500
   - k =  -0.437 -0.357 -0.500
   - k =  -0.449 -0.357 -0.500
   - k =  -0.462 -0.357 -0.500
   - k =  -0.475 -0.357 -0.500
   - k =  -0.487 -0.357 -0.500
   - k =  -0.500 -0.357 -0.500

  |-> Computing Wannier center evolution at k-point number:      9
 Using pol_lapack_version = 2
 Calculating Berry  term along reciprocal lattice vector 1:     0.840     0.000     0.000
 Calculating dipole term along reciprocal lattice vector 1:     0.840     0.000     0.000

  Treating all   80 k-points in band plot segment #  10:
   Sampling over :
   - k =   0.500 -0.357 -0.357
   - k =   0.487 -0.357 -0.357
   - k =   0.475 -0.357 -0.357
   - k =   0.462 -0.357 -0.357
   - k =   0.449 -0.357 -0.357
   - k =   0.437 -0.357 -0.357
   - k =   0.424 -0.357 -0.357
   - k =   0.411 -0.357 -0.357
   - k =   0.399 -0.357 -0.357
   - k =   0.386 -0.357 -0.357
   - k =   0.373 -0.357 -0.357
   - k =   0.361 -0.357 -0.357
   - k =   0.348 -0.357 -0.357
   - k =   0.335 -0.357 -0.357
   - k =   0.323 -0.357 -0.357
   - k =   0.310 -0.357 -0.357
   - k =   0.297 -0.357 -0.357
   - k =   0.285 -0.357 -0.357
   - k =   0.272 -0.357 -0.357
   - k =   0.259 -0.357 -0.357
   - k =   0.247 -0.357 -0.357
   - k =   0.234 -0.357 -0.357
   - k =   0.222 -0.357 -0.357
   - k =   0.209 -0.357 -0.357
   - k =   0.196 -0.357 -0.357
   - k =   0.184 -0.357 -0.357
   - k =   0.171 -0.357 -0.357
   - k =   0.158 -0.357 -0.357
   - k =   0.146 -0.357 -0.357
   - k =   0.133 -0.357 -0.357
   - k =   0.120 -0.357 -0.357
   - k =   0.108 -0.357 -0.357
   - k =   0.095 -0.357 -0.357
   - k =   0.082 -0.357 -0.357
   - k =   0.070 -0.357 -0.357
   - k =   0.057 -0.357 -0.357
   - k =   0.044 -0.357 -0.357
   - k =   0.032 -0.357 -0.357
   - k =   0.019 -0.357 -0.357
   - k =   0.006 -0.357 -0.357
   - k =  -0.006 -0.357 -0.357
   - k =  -0.019 -0.357 -0.357
   - k =  -0.032 -0.357 -0.357
   - k =  -0.044 -0.357 -0.357
   - k =  -0.057 -0.357 -0.357
   - k =  -0.070 -0.357 -0.357
   - k =  -0.082 -0.357 -0.357
   - k =  -0.095 -0.357 -0.357
   - k =  -0.108 -0.357 -0.357
   - k =  -0.120 -0.357 -0.357
   - k =  -0.133 -0.357 -0.357
   - k =  -0.146 -0.357 -0.357
   - k =  -0.158 -0.357 -0.357
   - k =  -0.171 -0.357 -0.357
   - k =  -0.184 -0.357 -0.357
   - k =  -0.196 -0.357 -0.357
   - k =  -0.209 -0.357 -0.357
   - k =  -0.222 -0.357 -0.357
   - k =  -0.234 -0.357 -0.357
   - k =  -0.247 -0.357 -0.357
   - k =  -0.259 -0.357 -0.357
   - k =  -0.272 -0.357 -0.357
   - k =  -0.285 -0.357 -0.357
   - k =  -0.297 -0.357 -0.357
   - k =  -0.310 -0.357 -0.357
   - k =  -0.323 -0.357 -0.357
   - k =  -0.335 -0.357 -0.357
   - k =  -0.348 -0.357 -0.357
   - k =  -0.361 -0.357 -0.357
   - k =  -0.373 -0.357 -0.357
   - k =  -0.386 -0.357 -0.357
   - k =  -0.399 -0.357 -0.357
   - k =  -0.411 -0.357 -0.357
   - k =  -0.424 -0.357 -0.357
   - k =  -0.437 -0.357 -0.357
   - k =  -0.449 -0.357 -0.357
   - k =  -0.462 -0.357 -0.357
   - k =  -0.475 -0.357 -0.357
   - k =  -0.487 -0.357 -0.357
   - k =  -0.500 -0.357 -0.357

  |-> Computing Wannier center evolution at k-point number:     10
 Using pol_lapack_version = 2
 Calculating Berry  term along reciprocal lattice vector 1:     0.840     0.000     0.000
 Calculating dipole term along reciprocal lattice vector 1:     0.840     0.000     0.000

  Treating all   80 k-points in band plot segment #  11:
   Sampling over :
   - k =   0.500 -0.357 -0.214
   - k =   0.487 -0.357 -0.214
   - k =   0.475 -0.357 -0.214
   - k =   0.462 -0.357 -0.214
   - k =   0.449 -0.357 -0.214
   - k =   0.437 -0.357 -0.214
   - k =   0.424 -0.357 -0.214
   - k =   0.411 -0.357 -0.214
   - k =   0.399 -0.357 -0.214
   - k =   0.386 -0.357 -0.214
   - k =   0.373 -0.357 -0.214
   - k =   0.361 -0.357 -0.214
   - k =   0.348 -0.357 -0.214
   - k =   0.335 -0.357 -0.214
   - k =   0.323 -0.357 -0.214
   - k =   0.310 -0.357 -0.214
   - k =   0.297 -0.357 -0.214
   - k =   0.285 -0.357 -0.214
   - k =   0.272 -0.357 -0.214
   - k =   0.259 -0.357 -0.214
   - k =   0.247 -0.357 -0.214
   - k =   0.234 -0.357 -0.214
   - k =   0.222 -0.357 -0.214
   - k =   0.209 -0.357 -0.214
   - k =   0.196 -0.357 -0.214
   - k =   0.184 -0.357 -0.214
   - k =   0.171 -0.357 -0.214
   - k =   0.158 -0.357 -0.214
   - k =   0.146 -0.357 -0.214
   - k =   0.133 -0.357 -0.214
   - k =   0.120 -0.357 -0.214
   - k =   0.108 -0.357 -0.214
   - k =   0.095 -0.357 -0.214
   - k =   0.082 -0.357 -0.214
   - k =   0.070 -0.357 -0.214
   - k =   0.057 -0.357 -0.214
   - k =   0.044 -0.357 -0.214
   - k =   0.032 -0.357 -0.214
   - k =   0.019 -0.357 -0.214
   - k =   0.006 -0.357 -0.214
   - k =  -0.006 -0.357 -0.214
   - k =  -0.019 -0.357 -0.214
   - k =  -0.032 -0.357 -0.214
   - k =  -0.044 -0.357 -0.214
   - k =  -0.057 -0.357 -0.214
   - k =  -0.070 -0.357 -0.214
   - k =  -0.082 -0.357 -0.214
   - k =  -0.095 -0.357 -0.214
   - k =  -0.108 -0.357 -0.214
   - k =  -0.120 -0.357 -0.214
   - k =  -0.133 -0.357 -0.214
   - k =  -0.146 -0.357 -0.214
   - k =  -0.158 -0.357 -0.214
   - k =  -0.171 -0.357 -0.214
   - k =  -0.184 -0.357 -0.214
   - k =  -0.196 -0.357 -0.214
   - k =  -0.209 -0.357 -0.214
   - k =  -0.222 -0.357 -0.214
   - k =  -0.234 -0.357 -0.214
   - k =  -0.247 -0.357 -0.214
   - k =  -0.259 -0.357 -0.214
   - k =  -0.272 -0.357 -0.214
   - k =  -0.285 -0.357 -0.214
   - k =  -0.297 -0.357 -0.214
   - k =  -0.310 -0.357 -0.214
   - k =  -0.323 -0.357 -0.214
   - k =  -0.335 -0.357 -0.214
   - k =  -0.348 -0.357 -0.214
   - k =  -0.361 -0.357 -0.214
   - k =  -0.373 -0.357 -0.214
   - k =  -0.386 -0.357 -0.214
   - k =  -0.399 -0.357 -0.214
   - k =  -0.411 -0.357 -0.214
   - k =  -0.424 -0.357 -0.214
   - k =  -0.437 -0.357 -0.214
   - k =  -0.449 -0.357 -0.214
   - k =  -0.462 -0.357 -0.214
   - k =  -0.475 -0.357 -0.214
   - k =  -0.487 -0.357 -0.214
   - k =  -0.500 -0.357 -0.214

  |-> Computing Wannier center evolution at k-point number:     11
 Using pol_lapack_version = 2
 Calculating Berry  term along reciprocal lattice vector 1:     0.840     0.000     0.000
 Calculating dipole term along reciprocal lattice vector 1:     0.840     0.000     0.000

  Treating all   80 k-points in band plot segment #  12:
   Sampling over :
   - k =   0.500 -0.357 -0.071
   - k =   0.487 -0.357 -0.071
   - k =   0.475 -0.357 -0.071
   - k =   0.462 -0.357 -0.071
   - k =   0.449 -0.357 -0.071
   - k =   0.437 -0.357 -0.071
   - k =   0.424 -0.357 -0.071
   - k =   0.411 -0.357 -0.071
   - k =   0.399 -0.357 -0.071
   - k =   0.386 -0.357 -0.071
   - k =   0.373 -0.357 -0.071
   - k =   0.361 -0.357 -0.071
   - k =   0.348 -0.357 -0.071
   - k =   0.335 -0.357 -0.071
   - k =   0.323 -0.357 -0.071
   - k =   0.310 -0.357 -0.071
   - k =   0.297 -0.357 -0.071
   - k =   0.285 -0.357 -0.071
   - k =   0.272 -0.357 -0.071
   - k =   0.259 -0.357 -0.071
   - k =   0.247 -0.357 -0.071
   - k =   0.234 -0.357 -0.071
   - k =   0.222 -0.357 -0.071
   - k =   0.209 -0.357 -0.071
   - k =   0.196 -0.357 -0.071
   - k =   0.184 -0.357 -0.071
   - k =   0.171 -0.357 -0.071
   - k =   0.158 -0.357 -0.071
   - k =   0.146 -0.357 -0.071
   - k =   0.133 -0.357 -0.071
   - k =   0.120 -0.357 -0.071
   - k =   0.108 -0.357 -0.071
   - k =   0.095 -0.357 -0.071
   - k =   0.082 -0.357 -0.071
   - k =   0.070 -0.357 -0.071
   - k =   0.057 -0.357 -0.071
   - k =   0.044 -0.357 -0.071
   - k =   0.032 -0.357 -0.071
   - k =   0.019 -0.357 -0.071
   - k =   0.006 -0.357 -0.071
   - k =  -0.006 -0.357 -0.071
   - k =  -0.019 -0.357 -0.071
   - k =  -0.032 -0.357 -0.071
   - k =  -0.044 -0.357 -0.071
   - k =  -0.057 -0.357 -0.071
   - k =  -0.070 -0.357 -0.071
   - k =  -0.082 -0.357 -0.071
   - k =  -0.095 -0.357 -0.071
   - k =  -0.108 -0.357 -0.071
   - k =  -0.120 -0.357 -0.071
   - k =  -0.133 -0.357 -0.071
   - k =  -0.146 -0.357 -0.071
   - k =  -0.158 -0.357 -0.071
   - k =  -0.171 -0.357 -0.071
   - k =  -0.184 -0.357 -0.071
   - k =  -0.196 -0.357 -0.071
   - k =  -0.209 -0.357 -0.071
   - k =  -0.222 -0.357 -0.071
   - k =  -0.234 -0.357 -0.071
   - k =  -0.247 -0.357 -0.071
   - k =  -0.259 -0.357 -0.071
   - k =  -0.272 -0.357 -0.071
   - k =  -0.285 -0.357 -0.071
   - k =  -0.297 -0.357 -0.071
   - k =  -0.310 -0.357 -0.071
   - k =  -0.323 -0.357 -0.071
   - k =  -0.335 -0.357 -0.071
   - k =  -0.348 -0.357 -0.071
   - k =  -0.361 -0.357 -0.071
   - k =  -0.373 -0.357 -0.071
   - k =  -0.386 -0.357 -0.071
   - k =  -0.399 -0.357 -0.071
   - k =  -0.411 -0.357 -0.071
   - k =  -0.424 -0.357 -0.071
   - k =  -0.437 -0.357 -0.071
   - k =  -0.449 -0.357 -0.071
   - k =  -0.462 -0.357 -0.071
   - k =  -0.475 -0.357 -0.071
   - k =  -0.487 -0.357 -0.071
   - k =  -0.500 -0.357 -0.071

  |-> Computing Wannier center evolution at k-point number:     12
 Using pol_lapack_version = 2
 Calculating Berry  term along reciprocal lattice vector 1:     0.840     0.000     0.000
 Calculating dipole term along reciprocal lattice vector 1:     0.840     0.000     0.000

  Treating all   80 k-points in band plot segment #  13:
   Sampling over :
   - k =   0.500 -0.357  0.071
   - k =   0.487 -0.357  0.071
   - k =   0.475 -0.357  0.071
   - k =   0.462 -0.357  0.071
   - k =   0.449 -0.357  0.071
   - k =   0.437 -0.357  0.071
   - k =   0.424 -0.357  0.071
   - k =   0.411 -0.357  0.071
   - k =   0.399 -0.357  0.071
   - k =   0.386 -0.357  0.071
   - k =   0.373 -0.357  0.071
   - k =   0.361 -0.357  0.071
   - k =   0.348 -0.357  0.071
   - k =   0.335 -0.357  0.071
   - k =   0.323 -0.357  0.071
   - k =   0.310 -0.357  0.071
   - k =   0.297 -0.357  0.071
   - k =   0.285 -0.357  0.071
   - k =   0.272 -0.357  0.071
   - k =   0.259 -0.357  0.071
   - k =   0.247 -0.357  0.071
   - k =   0.234 -0.357  0.071
   - k =   0.222 -0.357  0.071
   - k =   0.209 -0.357  0.071
   - k =   0.196 -0.357  0.071
   - k =   0.184 -0.357  0.071
   - k =   0.171 -0.357  0.071
   - k =   0.158 -0.357  0.071
   - k =   0.146 -0.357  0.071
   - k =   0.133 -0.357  0.071
   - k =   0.120 -0.357  0.071
   - k =   0.108 -0.357  0.071
   - k =   0.095 -0.357  0.071
   - k =   0.082 -0.357  0.071
   - k =   0.070 -0.357  0.071
   - k =   0.057 -0.357  0.071
   - k =   0.044 -0.357  0.071
   - k =   0.032 -0.357  0.071
   - k =   0.019 -0.357  0.071
   - k =   0.006 -0.357  0.071
   - k =  -0.006 -0.357  0.071
   - k =  -0.019 -0.357  0.071
   - k =  -0.032 -0.357  0.071
   - k =  -0.044 -0.357  0.071
   - k =  -0.057 -0.357  0.071
   - k =  -0.070 -0.357  0.071
   - k =  -0.082 -0.357  0.071
   - k =  -0.095 -0.357  0.071
   - k =  -0.108 -0.357  0.071
   - k =  -0.120 -0.357  0.071
   - k =  -0.133 -0.357  0.071
   - k =  -0.146 -0.357  0.071
   - k =  -0.158 -0.357  0.071
   - k =  -0.171 -0.357  0.071
   - k =  -0.184 -0.357  0.071
   - k =  -0.196 -0.357  0.071
   - k =  -0.209 -0.357  0.071
   - k =  -0.222 -0.357  0.071
   - k =  -0.234 -0.357  0.071
   - k =  -0.247 -0.357  0.071
   - k =  -0.259 -0.357  0.071
   - k =  -0.272 -0.357  0.071
   - k =  -0.285 -0.357  0.071
   - k =  -0.297 -0.357  0.071
   - k =  -0.310 -0.357  0.071
   - k =  -0.323 -0.357  0.071
   - k =  -0.335 -0.357  0.071
   - k =  -0.348 -0.357  0.071
   - k =  -0.361 -0.357  0.071
   - k =  -0.373 -0.357  0.071
   - k =  -0.386 -0.357  0.071
   - k =  -0.399 -0.357  0.071
   - k =  -0.411 -0.357  0.071
   - k =  -0.424 -0.357  0.071
   - k =  -0.437 -0.357  0.071
   - k =  -0.449 -0.357  0.071
   - k =  -0.462 -0.357  0.071
   - k =  -0.475 -0.357  0.071
   - k =  -0.487 -0.357  0.071
   - k =  -0.500 -0.357  0.071

  |-> Computing Wannier center evolution at k-point number:     13
 Using pol_lapack_version = 2
 Calculating Berry  term along reciprocal lattice vector 1:     0.840     0.000     0.000
 Calculating dipole term along reciprocal lattice vector 1:     0.840     0.000     0.000

  Treating all   80 k-points in band plot segment #  14:
   Sampling over :
   - k =   0.500 -0.357  0.214
   - k =   0.487 -0.357  0.214
   - k =   0.475 -0.357  0.214
   - k =   0.462 -0.357  0.214
   - k =   0.449 -0.357  0.214
   - k =   0.437 -0.357  0.214
   - k =   0.424 -0.357  0.214
   - k =   0.411 -0.357  0.214
   - k =   0.399 -0.357  0.214
   - k =   0.386 -0.357  0.214
   - k =   0.373 -0.357  0.214
   - k =   0.361 -0.357  0.214
   - k =   0.348 -0.357  0.214
   - k =   0.335 -0.357  0.214
   - k =   0.323 -0.357  0.214
   - k =   0.310 -0.357  0.214
   - k =   0.297 -0.357  0.214
   - k =   0.285 -0.357  0.214
   - k =   0.272 -0.357  0.214
   - k =   0.259 -0.357  0.214
   - k =   0.247 -0.357  0.214
   - k =   0.234 -0.357  0.214
   - k =   0.222 -0.357  0.214
   - k =   0.209 -0.357  0.214
   - k =   0.196 -0.357  0.214
   - k =   0.184 -0.357  0.214
   - k =   0.171 -0.357  0.214
   - k =   0.158 -0.357  0.214
   - k =   0.146 -0.357  0.214
   - k =   0.133 -0.357  0.214
   - k =   0.120 -0.357  0.214
   - k =   0.108 -0.357  0.214
   - k =   0.095 -0.357  0.214
   - k =   0.082 -0.357  0.214
   - k =   0.070 -0.357  0.214
   - k =   0.057 -0.357  0.214
   - k =   0.044 -0.357  0.214
   - k =   0.032 -0.357  0.214
   - k =   0.019 -0.357  0.214
   - k =   0.006 -0.357  0.214
   - k =  -0.006 -0.357  0.214
   - k =  -0.019 -0.357  0.214
   - k =  -0.032 -0.357  0.214
   - k =  -0.044 -0.357  0.214
   - k =  -0.057 -0.357  0.214
   - k =  -0.070 -0.357  0.214
   - k =  -0.082 -0.357  0.214
   - k =  -0.095 -0.357  0.214
   - k =  -0.108 -0.357  0.214
   - k =  -0.120 -0.357  0.214
   - k =  -0.133 -0.357  0.214
   - k =  -0.146 -0.357  0.214
   - k =  -0.158 -0.357  0.214
   - k =  -0.171 -0.357  0.214
   - k =  -0.184 -0.357  0.214
   - k =  -0.196 -0.357  0.214
   - k =  -0.209 -0.357  0.214
   - k =  -0.222 -0.357  0.214
   - k =  -0.234 -0.357  0.214
   - k =  -0.247 -0.357  0.214
   - k =  -0.259 -0.357  0.214
   - k =  -0.272 -0.357  0.214
   - k =  -0.285 -0.357  0.214
   - k =  -0.297 -0.357  0.214
   - k =  -0.310 -0.357  0.214
   - k =  -0.323 -0.357  0.214
   - k =  -0.335 -0.357  0.214
   - k =  -0.348 -0.357  0.214
   - k =  -0.361 -0.357  0.214
   - k =  -0.373 -0.357  0.214
   - k =  -0.386 -0.357  0.214
   - k =  -0.399 -0.357  0.214
   - k =  -0.411 -0.357  0.214
   - k =  -0.424 -0.357  0.214
   - k =  -0.437 -0.357  0.214
   - k =  -0.449 -0.357  0.214
   - k =  -0.462 -0.357  0.214
   - k =  -0.475 -0.357  0.214
   - k =  -0.487 -0.357  0.214
   - k =  -0.500 -0.357  0.214

  |-> Computing Wannier center evolution at k-point number:     14
 Using pol_lapack_version = 2
 Calculating Berry  term along reciprocal lattice vector 1:     0.840     0.000     0.000
 Calculating dipole term along reciprocal lattice vector 1:     0.840     0.000     0.000

  Treating all   80 k-points in band plot segment #  15:
   Sampling over :
   - k =   0.500 -0.357  0.357
   - k =   0.487 -0.357  0.357
   - k =   0.475 -0.357  0.357
   - k =   0.462 -0.357  0.357
   - k =   0.449 -0.357  0.357
   - k =   0.437 -0.357  0.357
   - k =   0.424 -0.357  0.357
   - k =   0.411 -0.357  0.357
   - k =   0.399 -0.357  0.357
   - k =   0.386 -0.357  0.357
   - k =   0.373 -0.357  0.357
   - k =   0.361 -0.357  0.357
   - k =   0.348 -0.357  0.357
   - k =   0.335 -0.357  0.357
   - k =   0.323 -0.357  0.357
   - k =   0.310 -0.357  0.357
   - k =   0.297 -0.357  0.357
   - k =   0.285 -0.357  0.357
   - k =   0.272 -0.357  0.357
   - k =   0.259 -0.357  0.357
   - k =   0.247 -0.357  0.357
   - k =   0.234 -0.357  0.357
   - k =   0.222 -0.357  0.357
   - k =   0.209 -0.357  0.357
   - k =   0.196 -0.357  0.357
   - k =   0.184 -0.357  0.357
   - k =   0.171 -0.357  0.357
   - k =   0.158 -0.357  0.357
   - k =   0.146 -0.357  0.357
   - k =   0.133 -0.357  0.357
   - k =   0.120 -0.357  0.357
   - k =   0.108 -0.357  0.357
   - k =   0.095 -0.357  0.357
   - k =   0.082 -0.357  0.357
   - k =   0.070 -0.357  0.357
   - k =   0.057 -0.357  0.357
   - k =   0.044 -0.357  0.357
   - k =   0.032 -0.357  0.357
   - k =   0.019 -0.357  0.357
   - k =   0.006 -0.357  0.357
   - k =  -0.006 -0.357  0.357
   - k =  -0.019 -0.357  0.357
   - k =  -0.032 -0.357  0.357
   - k =  -0.044 -0.357  0.357
   - k =  -0.057 -0.357  0.357
   - k =  -0.070 -0.357  0.357
   - k =  -0.082 -0.357  0.357
   - k =  -0.095 -0.357  0.357
   - k =  -0.108 -0.357  0.357
   - k =  -0.120 -0.357  0.357
   - k =  -0.133 -0.357  0.357
   - k =  -0.146 -0.357  0.357
   - k =  -0.158 -0.357  0.357
   - k =  -0.171 -0.357  0.357
   - k =  -0.184 -0.357  0.357
   - k =  -0.196 -0.357  0.357
   - k =  -0.209 -0.357  0.357
   - k =  -0.222 -0.357  0.357
   - k =  -0.234 -0.357  0.357
   - k =  -0.247 -0.357  0.357
   - k =  -0.259 -0.357  0.357
   - k =  -0.272 -0.357  0.357
   - k =  -0.285 -0.357  0.357
   - k =  -0.297 -0.357  0.357
   - k =  -0.310 -0.357  0.357
   - k =  -0.323 -0.357  0.357
   - k =  -0.335 -0.357  0.357
   - k =  -0.348 -0.357  0.357
   - k =  -0.361 -0.357  0.357
   - k =  -0.373 -0.357  0.357
   - k =  -0.386 -0.357  0.357
   - k =  -0.399 -0.357  0.357
   - k =  -0.411 -0.357  0.357
   - k =  -0.424 -0.357  0.357
   - k =  -0.437 -0.357  0.357
   - k =  -0.449 -0.357  0.357
   - k =  -0.462 -0.357  0.357
   - k =  -0.475 -0.357  0.357
   - k =  -0.487 -0.357  0.357
   - k =  -0.500 -0.357  0.357

  |-> Computing Wannier center evolution at k-point number:     15
 Using pol_lapack_version = 2
 Calculating Berry  term along reciprocal lattice vector 1:     0.840     0.000     0.000
 Calculating dipole term along reciprocal lattice vector 1:     0.840     0.000     0.000

  Treating all   80 k-points in band plot segment #  16:
   Sampling over :
   - k =   0.500 -0.357  0.500
   - k =   0.487 -0.357  0.500
   - k =   0.475 -0.357  0.500
   - k =   0.462 -0.357  0.500
   - k =   0.449 -0.357  0.500
   - k =   0.437 -0.357  0.500
   - k =   0.424 -0.357  0.500
   - k =   0.411 -0.357  0.500
   - k =   0.399 -0.357  0.500
   - k =   0.386 -0.357  0.500
   - k =   0.373 -0.357  0.500
   - k =   0.361 -0.357  0.500
   - k =   0.348 -0.357  0.500
   - k =   0.335 -0.357  0.500
   - k =   0.323 -0.357  0.500
   - k =   0.310 -0.357  0.500
   - k =   0.297 -0.357  0.500
   - k =   0.285 -0.357  0.500
   - k =   0.272 -0.357  0.500
   - k =   0.259 -0.357  0.500
   - k =   0.247 -0.357  0.500
   - k =   0.234 -0.357  0.500
   - k =   0.222 -0.357  0.500
   - k =   0.209 -0.357  0.500
   - k =   0.196 -0.357  0.500
   - k =   0.184 -0.357  0.500
   - k =   0.171 -0.357  0.500
   - k =   0.158 -0.357  0.500
   - k =   0.146 -0.357  0.500
   - k =   0.133 -0.357  0.500
   - k =   0.120 -0.357  0.500
   - k =   0.108 -0.357  0.500
   - k =   0.095 -0.357  0.500
   - k =   0.082 -0.357  0.500
   - k =   0.070 -0.357  0.500
   - k =   0.057 -0.357  0.500
   - k =   0.044 -0.357  0.500
   - k =   0.032 -0.357  0.500
   - k =   0.019 -0.357  0.500
   - k =   0.006 -0.357  0.500
   - k =  -0.006 -0.357  0.500
   - k =  -0.019 -0.357  0.500
   - k =  -0.032 -0.357  0.500
   - k =  -0.044 -0.357  0.500
   - k =  -0.057 -0.357  0.500
   - k =  -0.070 -0.357  0.500
   - k =  -0.082 -0.357  0.500
   - k =  -0.095 -0.357  0.500
   - k =  -0.108 -0.357  0.500
   - k =  -0.120 -0.357  0.500
   - k =  -0.133 -0.357  0.500
   - k =  -0.146 -0.357  0.500
   - k =  -0.158 -0.357  0.500
   - k =  -0.171 -0.357  0.500
   - k =  -0.184 -0.357  0.500
   - k =  -0.196 -0.357  0.500
   - k =  -0.209 -0.357  0.500
   - k =  -0.222 -0.357  0.500
   - k =  -0.234 -0.357  0.500
   - k =  -0.247 -0.357  0.500
   - k =  -0.259 -0.357  0.500
   - k =  -0.272 -0.357  0.500
   - k =  -0.285 -0.357  0.500
   - k =  -0.297 -0.357  0.500
   - k =  -0.310 -0.357  0.500
   - k =  -0.323 -0.357  0.500
   - k =  -0.335 -0.357  0.500
   - k =  -0.348 -0.357  0.500
   - k =  -0.361 -0.357  0.500
   - k =  -0.373 -0.357  0.500
   - k =  -0.386 -0.357  0.500
   - k =  -0.399 -0.357  0.500
   - k =  -0.411 -0.357  0.500
   - k =  -0.424 -0.357  0.500
   - k =  -0.437 -0.357  0.500
   - k =  -0.449 -0.357  0.500
   - k =  -0.462 -0.357  0.500
   - k =  -0.475 -0.357  0.500
   - k =  -0.487 -0.357  0.500
   - k =  -0.500 -0.357  0.500

  |-> Computing Wannier center evolution at k-point number:     16
 Using pol_lapack_version = 2
 Calculating Berry  term along reciprocal lattice vector 1:     0.840     0.000     0.000
 Calculating dipole term along reciprocal lattice vector 1:     0.840     0.000     0.000

  Treating all   80 k-points in band plot segment #  17:
   Sampling over :
   - k =   0.500 -0.214 -0.500
   - k =   0.487 -0.214 -0.500
   - k =   0.475 -0.214 -0.500
   - k =   0.462 -0.214 -0.500
   - k =   0.449 -0.214 -0.500
   - k =   0.437 -0.214 -0.500
   - k =   0.424 -0.214 -0.500
   - k =   0.411 -0.214 -0.500
   - k =   0.399 -0.214 -0.500
   - k =   0.386 -0.214 -0.500
   - k =   0.373 -0.214 -0.500
   - k =   0.361 -0.214 -0.500
   - k =   0.348 -0.214 -0.500
   - k =   0.335 -0.214 -0.500
   - k =   0.323 -0.214 -0.500
   - k =   0.310 -0.214 -0.500
   - k =   0.297 -0.214 -0.500
   - k =   0.285 -0.214 -0.500
   - k =   0.272 -0.214 -0.500
   - k =   0.259 -0.214 -0.500
   - k =   0.247 -0.214 -0.500
   - k =   0.234 -0.214 -0.500
   - k =   0.222 -0.214 -0.500
   - k =   0.209 -0.214 -0.500
   - k =   0.196 -0.214 -0.500
   - k =   0.184 -0.214 -0.500
   - k =   0.171 -0.214 -0.500
   - k =   0.158 -0.214 -0.500
   - k =   0.146 -0.214 -0.500
   - k =   0.133 -0.214 -0.500
   - k =   0.120 -0.214 -0.500
   - k =   0.108 -0.214 -0.500
   - k =   0.095 -0.214 -0.500
   - k =   0.082 -0.214 -0.500
   - k =   0.070 -0.214 -0.500
   - k =   0.057 -0.214 -0.500
   - k =   0.044 -0.214 -0.500
   - k =   0.032 -0.214 -0.500
   - k =   0.019 -0.214 -0.500
   - k =   0.006 -0.214 -0.500
   - k =  -0.006 -0.214 -0.500
   - k =  -0.019 -0.214 -0.500
   - k =  -0.032 -0.214 -0.500
   - k =  -0.044 -0.214 -0.500
   - k =  -0.057 -0.214 -0.500
   - k =  -0.070 -0.214 -0.500
   - k =  -0.082 -0.214 -0.500
   - k =  -0.095 -0.214 -0.500
   - k =  -0.108 -0.214 -0.500
   - k =  -0.120 -0.214 -0.500
   - k =  -0.133 -0.214 -0.500
   - k =  -0.146 -0.214 -0.500
   - k =  -0.158 -0.214 -0.500
   - k =  -0.171 -0.214 -0.500
   - k =  -0.184 -0.214 -0.500
   - k =  -0.196 -0.214 -0.500
   - k =  -0.209 -0.214 -0.500
   - k =  -0.222 -0.214 -0.500
   - k =  -0.234 -0.214 -0.500
   - k =  -0.247 -0.214 -0.500
   - k =  -0.259 -0.214 -0.500
   - k =  -0.272 -0.214 -0.500
   - k =  -0.285 -0.214 -0.500
   - k =  -0.297 -0.214 -0.500
   - k =  -0.310 -0.214 -0.500
   - k =  -0.323 -0.214 -0.500
   - k =  -0.335 -0.214 -0.500
   - k =  -0.348 -0.214 -0.500
   - k =  -0.361 -0.214 -0.500
   - k =  -0.373 -0.214 -0.500
   - k =  -0.386 -0.214 -0.500
   - k =  -0.399 -0.214 -0.500
   - k =  -0.411 -0.214 -0.500
   - k =  -0.424 -0.214 -0.500
   - k =  -0.437 -0.214 -0.500
   - k =  -0.449 -0.214 -0.500
   - k =  -0.462 -0.214 -0.500
   - k =  -0.475 -0.214 -0.500
   - k =  -0.487 -0.214 -0.500
   - k =  -0.500 -0.214 -0.500

  |-> Computing Wannier center evolution at k-point number:     17
 Using pol_lapack_version = 2
 Calculating Berry  term along reciprocal lattice vector 1:     0.840     0.000     0.000
 Calculating dipole term along reciprocal lattice vector 1:     0.840     0.000     0.000

  Treating all   80 k-points in band plot segment #  18:
   Sampling over :
   - k =   0.500 -0.214 -0.357
   - k =   0.487 -0.214 -0.357
   - k =   0.475 -0.214 -0.357
   - k =   0.462 -0.214 -0.357
   - k =   0.449 -0.214 -0.357
   - k =   0.437 -0.214 -0.357
   - k =   0.424 -0.214 -0.357
   - k =   0.411 -0.214 -0.357
   - k =   0.399 -0.214 -0.357
   - k =   0.386 -0.214 -0.357
   - k =   0.373 -0.214 -0.357
   - k =   0.361 -0.214 -0.357
   - k =   0.348 -0.214 -0.357
   - k =   0.335 -0.214 -0.357
   - k =   0.323 -0.214 -0.357
   - k =   0.310 -0.214 -0.357
   - k =   0.297 -0.214 -0.357
   - k =   0.285 -0.214 -0.357
   - k =   0.272 -0.214 -0.357
   - k =   0.259 -0.214 -0.357
   - k =   0.247 -0.214 -0.357
   - k =   0.234 -0.214 -0.357
   - k =   0.222 -0.214 -0.357
   - k =   0.209 -0.214 -0.357
   - k =   0.196 -0.214 -0.357
   - k =   0.184 -0.214 -0.357
   - k =   0.171 -0.214 -0.357
   - k =   0.158 -0.214 -0.357
   - k =   0.146 -0.214 -0.357
   - k =   0.133 -0.214 -0.357
   - k =   0.120 -0.214 -0.357
   - k =   0.108 -0.214 -0.357
   - k =   0.095 -0.214 -0.357
   - k =   0.082 -0.214 -0.357
   - k =   0.070 -0.214 -0.357
   - k =   0.057 -0.214 -0.357
   - k =   0.044 -0.214 -0.357
   - k =   0.032 -0.214 -0.357
   - k =   0.019 -0.214 -0.357
   - k =   0.006 -0.214 -0.357
   - k =  -0.006 -0.214 -0.357
   - k =  -0.019 -0.214 -0.357
   - k =  -0.032 -0.214 -0.357
   - k =  -0.044 -0.214 -0.357
   - k =  -0.057 -0.214 -0.357
   - k =  -0.070 -0.214 -0.357
   - k =  -0.082 -0.214 -0.357
   - k =  -0.095 -0.214 -0.357
   - k =  -0.108 -0.214 -0.357
   - k =  -0.120 -0.214 -0.357
   - k =  -0.133 -0.214 -0.357
   - k =  -0.146 -0.214 -0.357
   - k =  -0.158 -0.214 -0.357
   - k =  -0.171 -0.214 -0.357
   - k =  -0.184 -0.214 -0.357
   - k =  -0.196 -0.214 -0.357
   - k =  -0.209 -0.214 -0.357
   - k =  -0.222 -0.214 -0.357
   - k =  -0.234 -0.214 -0.357
   - k =  -0.247 -0.214 -0.357
   - k =  -0.259 -0.214 -0.357
   - k =  -0.272 -0.214 -0.357
   - k =  -0.285 -0.214 -0.357
   - k =  -0.297 -0.214 -0.357
   - k =  -0.310 -0.214 -0.357
   - k =  -0.323 -0.214 -0.357
   - k =  -0.335 -0.214 -0.357
   - k =  -0.348 -0.214 -0.357
   - k =  -0.361 -0.214 -0.357
   - k =  -0.373 -0.214 -0.357
   - k =  -0.386 -0.214 -0.357
   - k =  -0.399 -0.214 -0.357
   - k =  -0.411 -0.214 -0.357
   - k =  -0.424 -0.214 -0.357
   - k =  -0.437 -0.214 -0.357
   - k =  -0.449 -0.214 -0.357
   - k =  -0.462 -0.214 -0.357
   - k =  -0.475 -0.214 -0.357
   - k =  -0.487 -0.214 -0.357
   - k =  -0.500 -0.214 -0.357

  |-> Computing Wannier center evolution at k-point number:     18
 Using pol_lapack_version = 2
 Calculating Berry  term along reciprocal lattice vector 1:     0.840     0.000     0.000
 Calculating dipole term along reciprocal lattice vector 1:     0.840     0.000     0.000

  Treating all   80 k-points in band plot segment #  19:
   Sampling over :
   - k =   0.500 -0.214 -0.214
   - k =   0.487 -0.214 -0.214
   - k =   0.475 -0.214 -0.214
   - k =   0.462 -0.214 -0.214
   - k =   0.449 -0.214 -0.214
   - k =   0.437 -0.214 -0.214
   - k =   0.424 -0.214 -0.214
   - k =   0.411 -0.214 -0.214
   - k =   0.399 -0.214 -0.214
   - k =   0.386 -0.214 -0.214
   - k =   0.373 -0.214 -0.214
   - k =   0.361 -0.214 -0.214
   - k =   0.348 -0.214 -0.214
   - k =   0.335 -0.214 -0.214
   - k =   0.323 -0.214 -0.214
   - k =   0.310 -0.214 -0.214
   - k =   0.297 -0.214 -0.214
   - k =   0.285 -0.214 -0.214
   - k =   0.272 -0.214 -0.214
   - k =   0.259 -0.214 -0.214
   - k =   0.247 -0.214 -0.214
   - k =   0.234 -0.214 -0.214
   - k =   0.222 -0.214 -0.214
   - k =   0.209 -0.214 -0.214
   - k =   0.196 -0.214 -0.214
   - k =   0.184 -0.214 -0.214
   - k =   0.171 -0.214 -0.214
   - k =   0.158 -0.214 -0.214
   - k =   0.146 -0.214 -0.214
   - k =   0.133 -0.214 -0.214
   - k =   0.120 -0.214 -0.214
   - k =   0.108 -0.214 -0.214
   - k =   0.095 -0.214 -0.214
   - k =   0.082 -0.214 -0.214
   - k =   0.070 -0.214 -0.214
   - k =   0.057 -0.214 -0.214
   - k =   0.044 -0.214 -0.214
   - k =   0.032 -0.214 -0.214
   - k =   0.019 -0.214 -0.214
   - k =   0.006 -0.214 -0.214
   - k =  -0.006 -0.214 -0.214
   - k =  -0.019 -0.214 -0.214
   - k =  -0.032 -0.214 -0.214
   - k =  -0.044 -0.214 -0.214
   - k =  -0.057 -0.214 -0.214
   - k =  -0.070 -0.214 -0.214
   - k =  -0.082 -0.214 -0.214
   - k =  -0.095 -0.214 -0.214
   - k =  -0.108 -0.214 -0.214
   - k =  -0.120 -0.214 -0.214
   - k =  -0.133 -0.214 -0.214
   - k =  -0.146 -0.214 -0.214
   - k =  -0.158 -0.214 -0.214
   - k =  -0.171 -0.214 -0.214
   - k =  -0.184 -0.214 -0.214
   - k =  -0.196 -0.214 -0.214
   - k =  -0.209 -0.214 -0.214
   - k =  -0.222 -0.214 -0.214
   - k =  -0.234 -0.214 -0.214
   - k =  -0.247 -0.214 -0.214
   - k =  -0.259 -0.214 -0.214
   - k =  -0.272 -0.214 -0.214
   - k =  -0.285 -0.214 -0.214
   - k =  -0.297 -0.214 -0.214
   - k =  -0.310 -0.214 -0.214
   - k =  -0.323 -0.214 -0.214
   - k =  -0.335 -0.214 -0.214
   - k =  -0.348 -0.214 -0.214
   - k =  -0.361 -0.214 -0.214
   - k =  -0.373 -0.214 -0.214
   - k =  -0.386 -0.214 -0.214
   - k =  -0.399 -0.214 -0.214
   - k =  -0.411 -0.214 -0.214
   - k =  -0.424 -0.214 -0.214
   - k =  -0.437 -0.214 -0.214
   - k =  -0.449 -0.214 -0.214
   - k =  -0.462 -0.214 -0.214
   - k =  -0.475 -0.214 -0.214
   - k =  -0.487 -0.214 -0.214
   - k =  -0.500 -0.214 -0.214

  |-> Computing Wannier center evolution at k-point number:     19
 Using pol_lapack_version = 2
 Calculating Berry  term along reciprocal lattice vector 1:     0.840     0.000     0.000
 Calculating dipole term along reciprocal lattice vector 1:     0.840     0.000     0.000

  Treating all   80 k-points in band plot segment #  20:
   Sampling over :
   - k =   0.500 -0.214 -0.071
   - k =   0.487 -0.214 -0.071
   - k =   0.475 -0.214 -0.071
   - k =   0.462 -0.214 -0.071
   - k =   0.449 -0.214 -0.071
   - k =   0.437 -0.214 -0.071
   - k =   0.424 -0.214 -0.071
   - k =   0.411 -0.214 -0.071
   - k =   0.399 -0.214 -0.071
   - k =   0.386 -0.214 -0.071
   - k =   0.373 -0.214 -0.071
   - k =   0.361 -0.214 -0.071
   - k =   0.348 -0.214 -0.071
   - k =   0.335 -0.214 -0.071
   - k =   0.323 -0.214 -0.071
   - k =   0.310 -0.214 -0.071
   - k =   0.297 -0.214 -0.071
   - k =   0.285 -0.214 -0.071
   - k =   0.272 -0.214 -0.071
   - k =   0.259 -0.214 -0.071
   - k =   0.247 -0.214 -0.071
   - k =   0.234 -0.214 -0.071
   - k =   0.222 -0.214 -0.071
   - k =   0.209 -0.214 -0.071
   - k =   0.196 -0.214 -0.071
   - k =   0.184 -0.214 -0.071
   - k =   0.171 -0.214 -0.071
   - k =   0.158 -0.214 -0.071
   - k =   0.146 -0.214 -0.071
   - k =   0.133 -0.214 -0.071
   - k =   0.120 -0.214 -0.071
   - k =   0.108 -0.214 -0.071
   - k =   0.095 -0.214 -0.071
   - k =   0.082 -0.214 -0.071
   - k =   0.070 -0.214 -0.071
   - k =   0.057 -0.214 -0.071
   - k =   0.044 -0.214 -0.071
   - k =   0.032 -0.214 -0.071
   - k =   0.019 -0.214 -0.071
   - k =   0.006 -0.214 -0.071
   - k =  -0.006 -0.214 -0.071
   - k =  -0.019 -0.214 -0.071
   - k =  -0.032 -0.214 -0.071
   - k =  -0.044 -0.214 -0.071
   - k =  -0.057 -0.214 -0.071
   - k =  -0.070 -0.214 -0.071
   - k =  -0.082 -0.214 -0.071
   - k =  -0.095 -0.214 -0.071
   - k =  -0.108 -0.214 -0.071
   - k =  -0.120 -0.214 -0.071
   - k =  -0.133 -0.214 -0.071
   - k =  -0.146 -0.214 -0.071
   - k =  -0.158 -0.214 -0.071
   - k =  -0.171 -0.214 -0.071
   - k =  -0.184 -0.214 -0.071
   - k =  -0.196 -0.214 -0.071
   - k =  -0.209 -0.214 -0.071
   - k =  -0.222 -0.214 -0.071
   - k =  -0.234 -0.214 -0.071
   - k =  -0.247 -0.214 -0.071
   - k =  -0.259 -0.214 -0.071
   - k =  -0.272 -0.214 -0.071
   - k =  -0.285 -0.214 -0.071
   - k =  -0.297 -0.214 -0.071
   - k =  -0.310 -0.214 -0.071
   - k =  -0.323 -0.214 -0.071
   - k =  -0.335 -0.214 -0.071
   - k =  -0.348 -0.214 -0.071
   - k =  -0.361 -0.214 -0.071
   - k =  -0.373 -0.214 -0.071
   - k =  -0.386 -0.214 -0.071
   - k =  -0.399 -0.214 -0.071
   - k =  -0.411 -0.214 -0.071
   - k =  -0.424 -0.214 -0.071
   - k =  -0.437 -0.214 -0.071
   - k =  -0.449 -0.214 -0.071
   - k =  -0.462 -0.214 -0.071
   - k =  -0.475 -0.214 -0.071
   - k =  -0.487 -0.214 -0.071
   - k =  -0.500 -0.214 -0.071

  |-> Computing Wannier center evolution at k-point number:     20
 Using pol_lapack_version = 2
 Calculating Berry  term along reciprocal lattice vector 1:     0.840     0.000     0.000
 Calculating dipole term along reciprocal lattice vector 1:     0.840     0.000     0.000

  Treating all   80 k-points in band plot segment #  21:
   Sampling over :
   - k =   0.500 -0.214  0.071
   - k =   0.487 -0.214  0.071
   - k =   0.475 -0.214  0.071
   - k =   0.462 -0.214  0.071
   - k =   0.449 -0.214  0.071
   - k =   0.437 -0.214  0.071
   - k =   0.424 -0.214  0.071
   - k =   0.411 -0.214  0.071
   - k =   0.399 -0.214  0.071
   - k =   0.386 -0.214  0.071
   - k =   0.373 -0.214  0.071
   - k =   0.361 -0.214  0.071
   - k =   0.348 -0.214  0.071
   - k =   0.335 -0.214  0.071
   - k =   0.323 -0.214  0.071
   - k =   0.310 -0.214  0.071
   - k =   0.297 -0.214  0.071
   - k =   0.285 -0.214  0.071
   - k =   0.272 -0.214  0.071
   - k =   0.259 -0.214  0.071
   - k =   0.247 -0.214  0.071
   - k =   0.234 -0.214  0.071
   - k =   0.222 -0.214  0.071
   - k =   0.209 -0.214  0.071
   - k =   0.196 -0.214  0.071
   - k =   0.184 -0.214  0.071
   - k =   0.171 -0.214  0.071
   - k =   0.158 -0.214  0.071
   - k =   0.146 -0.214  0.071
   - k =   0.133 -0.214  0.071
   - k =   0.120 -0.214  0.071
   - k =   0.108 -0.214  0.071
   - k =   0.095 -0.214  0.071
   - k =   0.082 -0.214  0.071
   - k =   0.070 -0.214  0.071
   - k =   0.057 -0.214  0.071
   - k =   0.044 -0.214  0.071
   - k =   0.032 -0.214  0.071
   - k =   0.019 -0.214  0.071
   - k =   0.006 -0.214  0.071
   - k =  -0.006 -0.214  0.071
   - k =  -0.019 -0.214  0.071
   - k =  -0.032 -0.214  0.071
   - k =  -0.044 -0.214  0.071
   - k =  -0.057 -0.214  0.071
   - k =  -0.070 -0.214  0.071
   - k =  -0.082 -0.214  0.071
   - k =  -0.095 -0.214  0.071
   - k =  -0.108 -0.214  0.071
   - k =  -0.120 -0.214  0.071
   - k =  -0.133 -0.214  0.071
   - k =  -0.146 -0.214  0.071
   - k =  -0.158 -0.214  0.071
   - k =  -0.171 -0.214  0.071
   - k =  -0.184 -0.214  0.071
   - k =  -0.196 -0.214  0.071
   - k =  -0.209 -0.214  0.071
   - k =  -0.222 -0.214  0.071
   - k =  -0.234 -0.214  0.071
   - k =  -0.247 -0.214  0.071
   - k =  -0.259 -0.214  0.071
   - k =  -0.272 -0.214  0.071
   - k =  -0.285 -0.214  0.071
   - k =  -0.297 -0.214  0.071
   - k =  -0.310 -0.214  0.071
   - k =  -0.323 -0.214  0.071
   - k =  -0.335 -0.214  0.071
   - k =  -0.348 -0.214  0.071
   - k =  -0.361 -0.214  0.071
   - k =  -0.373 -0.214  0.071
   - k =  -0.386 -0.214  0.071
   - k =  -0.399 -0.214  0.071
   - k =  -0.411 -0.214  0.071
   - k =  -0.424 -0.214  0.071
   - k =  -0.437 -0.214  0.071
   - k =  -0.449 -0.214  0.071
   - k =  -0.462 -0.214  0.071
   - k =  -0.475 -0.214  0.071
   - k =  -0.487 -0.214  0.071
   - k =  -0.500 -0.214  0.071

  |-> Computing Wannier center evolution at k-point number:     21
 Using pol_lapack_version = 2
 Calculating Berry  term along reciprocal lattice vector 1:     0.840     0.000     0.000
 Calculating dipole term along reciprocal lattice vector 1:     0.840     0.000     0.000

  Treating all   80 k-points in band plot segment #  22:
   Sampling over :
   - k =   0.500 -0.214  0.214
   - k =   0.487 -0.214  0.214
   - k =   0.475 -0.214  0.214
   - k =   0.462 -0.214  0.214
   - k =   0.449 -0.214  0.214
   - k =   0.437 -0.214  0.214
   - k =   0.424 -0.214  0.214
   - k =   0.411 -0.214  0.214
   - k =   0.399 -0.214  0.214
   - k =   0.386 -0.214  0.214
   - k =   0.373 -0.214  0.214
   - k =   0.361 -0.214  0.214
   - k =   0.348 -0.214  0.214
   - k =   0.335 -0.214  0.214
   - k =   0.323 -0.214  0.214
   - k =   0.310 -0.214  0.214
   - k =   0.297 -0.214  0.214
   - k =   0.285 -0.214  0.214
   - k =   0.272 -0.214  0.214
   - k =   0.259 -0.214  0.214
   - k =   0.247 -0.214  0.214
   - k =   0.234 -0.214  0.214
   - k =   0.222 -0.214  0.214
   - k =   0.209 -0.214  0.214
   - k =   0.196 -0.214  0.214
   - k =   0.184 -0.214  0.214
   - k =   0.171 -0.214  0.214
   - k =   0.158 -0.214  0.214
   - k =   0.146 -0.214  0.214
   - k =   0.133 -0.214  0.214
   - k =   0.120 -0.214  0.214
   - k =   0.108 -0.214  0.214
   - k =   0.095 -0.214  0.214
   - k =   0.082 -0.214  0.214
   - k =   0.070 -0.214  0.214
   - k =   0.057 -0.214  0.214
   - k =   0.044 -0.214  0.214
   - k =   0.032 -0.214  0.214
   - k =   0.019 -0.214  0.214
   - k =   0.006 -0.214  0.214
   - k =  -0.006 -0.214  0.214
   - k =  -0.019 -0.214  0.214
   - k =  -0.032 -0.214  0.214
   - k =  -0.044 -0.214  0.214
   - k =  -0.057 -0.214  0.214
   - k =  -0.070 -0.214  0.214
   - k =  -0.082 -0.214  0.214
   - k =  -0.095 -0.214  0.214
   - k =  -0.108 -0.214  0.214
   - k =  -0.120 -0.214  0.214
   - k =  -0.133 -0.214  0.214
   - k =  -0.146 -0.214  0.214
   - k =  -0.158 -0.214  0.214
   - k =  -0.171 -0.214  0.214
   - k =  -0.184 -0.214  0.214
   - k =  -0.196 -0.214  0.214
   - k =  -0.209 -0.214  0.214
   - k =  -0.222 -0.214  0.214
   - k =  -0.234 -0.214  0.214
   - k =  -0.247 -0.214  0.214
   - k =  -0.259 -0.214  0.214
   - k =  -0.272 -0.214  0.214
   - k =  -0.285 -0.214  0.214
   - k =  -0.297 -0.214  0.214
   - k =  -0.310 -0.214  0.214
   - k =  -0.323 -0.214  0.214
   - k =  -0.335 -0.214  0.214
   - k =  -0.348 -0.214  0.214
   - k =  -0.361 -0.214  0.214
   - k =  -0.373 -0.214  0.214
   - k =  -0.386 -0.214  0.214
   - k =  -0.399 -0.214  0.214
   - k =  -0.411 -0.214  0.214
   - k =  -0.424 -0.214  0.214
   - k =  -0.437 -0.214  0.214
   - k =  -0.449 -0.214  0.214
   - k =  -0.462 -0.214  0.214
   - k =  -0.475 -0.214  0.214
   - k =  -0.487 -0.214  0.214
   - k =  -0.500 -0.214  0.214

  |-> Computing Wannier center evolution at k-point number:     22
 Using pol_lapack_version = 2
 Calculating Berry  term along reciprocal lattice vector 1:     0.840     0.000     0.000
 Calculating dipole term along reciprocal lattice vector 1:     0.840     0.000     0.000

  Treating all   80 k-points in band plot segment #  23:
   Sampling over :
   - k =   0.500 -0.214  0.357
   - k =   0.487 -0.214  0.357
   - k =   0.475 -0.214  0.357
   - k =   0.462 -0.214  0.357
   - k =   0.449 -0.214  0.357
   - k =   0.437 -0.214  0.357
   - k =   0.424 -0.214  0.357
   - k =   0.411 -0.214  0.357
   - k =   0.399 -0.214  0.357
   - k =   0.386 -0.214  0.357
   - k =   0.373 -0.214  0.357
   - k =   0.361 -0.214  0.357
   - k =   0.348 -0.214  0.357
   - k =   0.335 -0.214  0.357
   - k =   0.323 -0.214  0.357
   - k =   0.310 -0.214  0.357
   - k =   0.297 -0.214  0.357
   - k =   0.285 -0.214  0.357
   - k =   0.272 -0.214  0.357
   - k =   0.259 -0.214  0.357
   - k =   0.247 -0.214  0.357
   - k =   0.234 -0.214  0.357
   - k =   0.222 -0.214  0.357
   - k =   0.209 -0.214  0.357
   - k =   0.196 -0.214  0.357
   - k =   0.184 -0.214  0.357
   - k =   0.171 -0.214  0.357
   - k =   0.158 -0.214  0.357
   - k =   0.146 -0.214  0.357
   - k =   0.133 -0.214  0.357
   - k =   0.120 -0.214  0.357
   - k =   0.108 -0.214  0.357
   - k =   0.095 -0.214  0.357
   - k =   0.082 -0.214  0.357
   - k =   0.070 -0.214  0.357
   - k =   0.057 -0.214  0.357
   - k =   0.044 -0.214  0.357
   - k =   0.032 -0.214  0.357
   - k =   0.019 -0.214  0.357
   - k =   0.006 -0.214  0.357
   - k =  -0.006 -0.214  0.357
   - k =  -0.019 -0.214  0.357
   - k =  -0.032 -0.214  0.357
   - k =  -0.044 -0.214  0.357
   - k =  -0.057 -0.214  0.357
   - k =  -0.070 -0.214  0.357
   - k =  -0.082 -0.214  0.357
   - k =  -0.095 -0.214  0.357
   - k =  -0.108 -0.214  0.357
   - k =  -0.120 -0.214  0.357
   - k =  -0.133 -0.214  0.357
   - k =  -0.146 -0.214  0.357
   - k =  -0.158 -0.214  0.357
   - k =  -0.171 -0.214  0.357
   - k =  -0.184 -0.214  0.357
   - k =  -0.196 -0.214  0.357
   - k =  -0.209 -0.214  0.357
   - k =  -0.222 -0.214  0.357
   - k =  -0.234 -0.214  0.357
   - k =  -0.247 -0.214  0.357
   - k =  -0.259 -0.214  0.357
   - k =  -0.272 -0.214  0.357
   - k =  -0.285 -0.214  0.357
   - k =  -0.297 -0.214  0.357
   - k =  -0.310 -0.214  0.357
   - k =  -0.323 -0.214  0.357
   - k =  -0.335 -0.214  0.357
   - k =  -0.348 -0.214  0.357
   - k =  -0.361 -0.214  0.357
   - k =  -0.373 -0.214  0.357
   - k =  -0.386 -0.214  0.357
   - k =  -0.399 -0.214  0.357
   - k =  -0.411 -0.214  0.357
   - k =  -0.424 -0.214  0.357
   - k =  -0.437 -0.214  0.357
   - k =  -0.449 -0.214  0.357
   - k =  -0.462 -0.214  0.357
   - k =  -0.475 -0.214  0.357
   - k =  -0.487 -0.214  0.357
   - k =  -0.500 -0.214  0.357

  |-> Computing Wannier center evolution at k-point number:     23
 Using pol_lapack_version = 2
 Calculating Berry  term along reciprocal lattice vector 1:     0.840     0.000     0.000
 Calculating dipole term along reciprocal lattice vector 1:     0.840     0.000     0.000

  Treating all   80 k-points in band plot segment #  24:
   Sampling over :
   - k =   0.500 -0.214  0.500
   - k =   0.487 -0.214  0.500
   - k =   0.475 -0.214  0.500
   - k =   0.462 -0.214  0.500
   - k =   0.449 -0.214  0.500
   - k =   0.437 -0.214  0.500
   - k =   0.424 -0.214  0.500
   - k =   0.411 -0.214  0.500
   - k =   0.399 -0.214  0.500
   - k =   0.386 -0.214  0.500
   - k =   0.373 -0.214  0.500
   - k =   0.361 -0.214  0.500
   - k =   0.348 -0.214  0.500
   - k =   0.335 -0.214  0.500
   - k =   0.323 -0.214  0.500
   - k =   0.310 -0.214  0.500
   - k =   0.297 -0.214  0.500
   - k =   0.285 -0.214  0.500
   - k =   0.272 -0.214  0.500
   - k =   0.259 -0.214  0.500
   - k =   0.247 -0.214  0.500
   - k =   0.234 -0.214  0.500
   - k =   0.222 -0.214  0.500
   - k =   0.209 -0.214  0.500
   - k =   0.196 -0.214  0.500
   - k =   0.184 -0.214  0.500
   - k =   0.171 -0.214  0.500
   - k =   0.158 -0.214  0.500
   - k =   0.146 -0.214  0.500
   - k =   0.133 -0.214  0.500
   - k =   0.120 -0.214  0.500
   - k =   0.108 -0.214  0.500
   - k =   0.095 -0.214  0.500
   - k =   0.082 -0.214  0.500
   - k =   0.070 -0.214  0.500
   - k =   0.057 -0.214  0.500
   - k =   0.044 -0.214  0.500
   - k =   0.032 -0.214  0.500
   - k =   0.019 -0.214  0.500
   - k =   0.006 -0.214  0.500
   - k =  -0.006 -0.214  0.500
   - k =  -0.019 -0.214  0.500
   - k =  -0.032 -0.214  0.500
   - k =  -0.044 -0.214  0.500
   - k =  -0.057 -0.214  0.500
   - k =  -0.070 -0.214  0.500
   - k =  -0.082 -0.214  0.500
   - k =  -0.095 -0.214  0.500
   - k =  -0.108 -0.214  0.500
   - k =  -0.120 -0.214  0.500
   - k =  -0.133 -0.214  0.500
   - k =  -0.146 -0.214  0.500
   - k =  -0.158 -0.214  0.500
   - k =  -0.171 -0.214  0.500
   - k =  -0.184 -0.214  0.500
   - k =  -0.196 -0.214  0.500
   - k =  -0.209 -0.214  0.500
   - k =  -0.222 -0.214  0.500
   - k =  -0.234 -0.214  0.500
   - k =  -0.247 -0.214  0.500
   - k =  -0.259 -0.214  0.500
   - k =  -0.272 -0.214  0.500
   - k =  -0.285 -0.214  0.500
   - k =  -0.297 -0.214  0.500
   - k =  -0.310 -0.214  0.500
   - k =  -0.323 -0.214  0.500
   - k =  -0.335 -0.214  0.500
   - k =  -0.348 -0.214  0.500
   - k =  -0.361 -0.214  0.500
   - k =  -0.373 -0.214  0.500
   - k =  -0.386 -0.214  0.500
   - k =  -0.399 -0.214  0.500
   - k =  -0.411 -0.214  0.500
   - k =  -0.424 -0.214  0.500
   - k =  -0.437 -0.214  0.500
   - k =  -0.449 -0.214  0.500
   - k =  -0.462 -0.214  0.500
   - k =  -0.475 -0.214  0.500
   - k =  -0.487 -0.214  0.500
   - k =  -0.500 -0.214  0.500

  |-> Computing Wannier center evolution at k-point number:     24
 Using pol_lapack_version = 2
 Calculating Berry  term along reciprocal lattice vector 1:     0.840     0.000     0.000
 Calculating dipole term along reciprocal lattice vector 1:     0.840     0.000     0.000

  Treating all   80 k-points in band plot segment #  25:
   Sampling over :
   - k =   0.500 -0.071 -0.500
   - k =   0.487 -0.071 -0.500
   - k =   0.475 -0.071 -0.500
   - k =   0.462 -0.071 -0.500
   - k =   0.449 -0.071 -0.500
   - k =   0.437 -0.071 -0.500
   - k =   0.424 -0.071 -0.500
   - k =   0.411 -0.071 -0.500
   - k =   0.399 -0.071 -0.500
   - k =   0.386 -0.071 -0.500
   - k =   0.373 -0.071 -0.500
   - k =   0.361 -0.071 -0.500
   - k =   0.348 -0.071 -0.500
   - k =   0.335 -0.071 -0.500
   - k =   0.323 -0.071 -0.500
   - k =   0.310 -0.071 -0.500
   - k =   0.297 -0.071 -0.500
   - k =   0.285 -0.071 -0.500
   - k =   0.272 -0.071 -0.500
   - k =   0.259 -0.071 -0.500
   - k =   0.247 -0.071 -0.500
   - k =   0.234 -0.071 -0.500
   - k =   0.222 -0.071 -0.500
   - k =   0.209 -0.071 -0.500
   - k =   0.196 -0.071 -0.500
   - k =   0.184 -0.071 -0.500
   - k =   0.171 -0.071 -0.500
   - k =   0.158 -0.071 -0.500
   - k =   0.146 -0.071 -0.500
   - k =   0.133 -0.071 -0.500
   - k =   0.120 -0.071 -0.500
   - k =   0.108 -0.071 -0.500
   - k =   0.095 -0.071 -0.500
   - k =   0.082 -0.071 -0.500
   - k =   0.070 -0.071 -0.500
   - k =   0.057 -0.071 -0.500
   - k =   0.044 -0.071 -0.500
   - k =   0.032 -0.071 -0.500
   - k =   0.019 -0.071 -0.500
   - k =   0.006 -0.071 -0.500
   - k =  -0.006 -0.071 -0.500
   - k =  -0.019 -0.071 -0.500
   - k =  -0.032 -0.071 -0.500
   - k =  -0.044 -0.071 -0.500
   - k =  -0.057 -0.071 -0.500
   - k =  -0.070 -0.071 -0.500
   - k =  -0.082 -0.071 -0.500
   - k =  -0.095 -0.071 -0.500
   - k =  -0.108 -0.071 -0.500
   - k =  -0.120 -0.071 -0.500
   - k =  -0.133 -0.071 -0.500
   - k =  -0.146 -0.071 -0.500
   - k =  -0.158 -0.071 -0.500
   - k =  -0.171 -0.071 -0.500
   - k =  -0.184 -0.071 -0.500
   - k =  -0.196 -0.071 -0.500
   - k =  -0.209 -0.071 -0.500
   - k =  -0.222 -0.071 -0.500
   - k =  -0.234 -0.071 -0.500
   - k =  -0.247 -0.071 -0.500
   - k =  -0.259 -0.071 -0.500
   - k =  -0.272 -0.071 -0.500
   - k =  -0.285 -0.071 -0.500
   - k =  -0.297 -0.071 -0.500
   - k =  -0.310 -0.071 -0.500
   - k =  -0.323 -0.071 -0.500
   - k =  -0.335 -0.071 -0.500
   - k =  -0.348 -0.071 -0.500
   - k =  -0.361 -0.071 -0.500
   - k =  -0.373 -0.071 -0.500
   - k =  -0.386 -0.071 -0.500
   - k =  -0.399 -0.071 -0.500
   - k =  -0.411 -0.071 -0.500
   - k =  -0.424 -0.071 -0.500
   - k =  -0.437 -0.071 -0.500
   - k =  -0.449 -0.071 -0.500
   - k =  -0.462 -0.071 -0.500
   - k =  -0.475 -0.071 -0.500
   - k =  -0.487 -0.071 -0.500
   - k =  -0.500 -0.071 -0.500

  |-> Computing Wannier center evolution at k-point number:     25
 Using pol_lapack_version = 2
 Calculating Berry  term along reciprocal lattice vector 1:     0.840     0.000     0.000
 Calculating dipole term along reciprocal lattice vector 1:     0.840     0.000     0.000

  Treating all   80 k-points in band plot segment #  26:
   Sampling over :
   - k =   0.500 -0.071 -0.357
   - k =   0.487 -0.071 -0.357
   - k =   0.475 -0.071 -0.357
   - k =   0.462 -0.071 -0.357
   - k =   0.449 -0.071 -0.357
   - k =   0.437 -0.071 -0.357
   - k =   0.424 -0.071 -0.357
   - k =   0.411 -0.071 -0.357
   - k =   0.399 -0.071 -0.357
   - k =   0.386 -0.071 -0.357
   - k =   0.373 -0.071 -0.357
   - k =   0.361 -0.071 -0.357
   - k =   0.348 -0.071 -0.357
   - k =   0.335 -0.071 -0.357
   - k =   0.323 -0.071 -0.357
   - k =   0.310 -0.071 -0.357
   - k =   0.297 -0.071 -0.357
   - k =   0.285 -0.071 -0.357
   - k =   0.272 -0.071 -0.357
   - k =   0.259 -0.071 -0.357
   - k =   0.247 -0.071 -0.357
   - k =   0.234 -0.071 -0.357
   - k =   0.222 -0.071 -0.357
   - k =   0.209 -0.071 -0.357
   - k =   0.196 -0.071 -0.357
   - k =   0.184 -0.071 -0.357
   - k =   0.171 -0.071 -0.357
   - k =   0.158 -0.071 -0.357
   - k =   0.146 -0.071 -0.357
   - k =   0.133 -0.071 -0.357
   - k =   0.120 -0.071 -0.357
   - k =   0.108 -0.071 -0.357
   - k =   0.095 -0.071 -0.357
   - k =   0.082 -0.071 -0.357
   - k =   0.070 -0.071 -0.357
   - k =   0.057 -0.071 -0.357
   - k =   0.044 -0.071 -0.357
   - k =   0.032 -0.071 -0.357
   - k =   0.019 -0.071 -0.357
   - k =   0.006 -0.071 -0.357
   - k =  -0.006 -0.071 -0.357
   - k =  -0.019 -0.071 -0.357
   - k =  -0.032 -0.071 -0.357
   - k =  -0.044 -0.071 -0.357
   - k =  -0.057 -0.071 -0.357
   - k =  -0.070 -0.071 -0.357
   - k =  -0.082 -0.071 -0.357
   - k =  -0.095 -0.071 -0.357
   - k =  -0.108 -0.071 -0.357
   - k =  -0.120 -0.071 -0.357
   - k =  -0.133 -0.071 -0.357
   - k =  -0.146 -0.071 -0.357
   - k =  -0.158 -0.071 -0.357
   - k =  -0.171 -0.071 -0.357
   - k =  -0.184 -0.071 -0.357
   - k =  -0.196 -0.071 -0.357
   - k =  -0.209 -0.071 -0.357
   - k =  -0.222 -0.071 -0.357
   - k =  -0.234 -0.071 -0.357
   - k =  -0.247 -0.071 -0.357
   - k =  -0.259 -0.071 -0.357
   - k =  -0.272 -0.071 -0.357
   - k =  -0.285 -0.071 -0.357
   - k =  -0.297 -0.071 -0.357
   - k =  -0.310 -0.071 -0.357
   - k =  -0.323 -0.071 -0.357
   - k =  -0.335 -0.071 -0.357
   - k =  -0.348 -0.071 -0.357
   - k =  -0.361 -0.071 -0.357
   - k =  -0.373 -0.071 -0.357
   - k =  -0.386 -0.071 -0.357
   - k =  -0.399 -0.071 -0.357
   - k =  -0.411 -0.071 -0.357
   - k =  -0.424 -0.071 -0.357
   - k =  -0.437 -0.071 -0.357
   - k =  -0.449 -0.071 -0.357
   - k =  -0.462 -0.071 -0.357
   - k =  -0.475 -0.071 -0.357
   - k =  -0.487 -0.071 -0.357
   - k =  -0.500 -0.071 -0.357

  |-> Computing Wannier center evolution at k-point number:     26
 Using pol_lapack_version = 2
 Calculating Berry  term along reciprocal lattice vector 1:     0.840     0.000     0.000
 Calculating dipole term along reciprocal lattice vector 1:     0.840     0.000     0.000

  Treating all   80 k-points in band plot segment #  27:
   Sampling over :
   - k =   0.500 -0.071 -0.214
   - k =   0.487 -0.071 -0.214
   - k =   0.475 -0.071 -0.214
   - k =   0.462 -0.071 -0.214
   - k =   0.449 -0.071 -0.214
   - k =   0.437 -0.071 -0.214
   - k =   0.424 -0.071 -0.214
   - k =   0.411 -0.071 -0.214
   - k =   0.399 -0.071 -0.214
   - k =   0.386 -0.071 -0.214
   - k =   0.373 -0.071 -0.214
   - k =   0.361 -0.071 -0.214
   - k =   0.348 -0.071 -0.214
   - k =   0.335 -0.071 -0.214
   - k =   0.323 -0.071 -0.214
   - k =   0.310 -0.071 -0.214
   - k =   0.297 -0.071 -0.214
   - k =   0.285 -0.071 -0.214
   - k =   0.272 -0.071 -0.214
   - k =   0.259 -0.071 -0.214
   - k =   0.247 -0.071 -0.214
   - k =   0.234 -0.071 -0.214
   - k =   0.222 -0.071 -0.214
   - k =   0.209 -0.071 -0.214
   - k =   0.196 -0.071 -0.214
   - k =   0.184 -0.071 -0.214
   - k =   0.171 -0.071 -0.214
   - k =   0.158 -0.071 -0.214
   - k =   0.146 -0.071 -0.214
   - k =   0.133 -0.071 -0.214
   - k =   0.120 -0.071 -0.214
   - k =   0.108 -0.071 -0.214
   - k =   0.095 -0.071 -0.214
   - k =   0.082 -0.071 -0.214
   - k =   0.070 -0.071 -0.214
   - k =   0.057 -0.071 -0.214
   - k =   0.044 -0.071 -0.214
   - k =   0.032 -0.071 -0.214
   - k =   0.019 -0.071 -0.214
   - k =   0.006 -0.071 -0.214
   - k =  -0.006 -0.071 -0.214
   - k =  -0.019 -0.071 -0.214
   - k =  -0.032 -0.071 -0.214
   - k =  -0.044 -0.071 -0.214
   - k =  -0.057 -0.071 -0.214
   - k =  -0.070 -0.071 -0.214
   - k =  -0.082 -0.071 -0.214
   - k =  -0.095 -0.071 -0.214
   - k =  -0.108 -0.071 -0.214
   - k =  -0.120 -0.071 -0.214
   - k =  -0.133 -0.071 -0.214
   - k =  -0.146 -0.071 -0.214
   - k =  -0.158 -0.071 -0.214
   - k =  -0.171 -0.071 -0.214
   - k =  -0.184 -0.071 -0.214
   - k =  -0.196 -0.071 -0.214
   - k =  -0.209 -0.071 -0.214
   - k =  -0.222 -0.071 -0.214
   - k =  -0.234 -0.071 -0.214
   - k =  -0.247 -0.071 -0.214
   - k =  -0.259 -0.071 -0.214
   - k =  -0.272 -0.071 -0.214
   - k =  -0.285 -0.071 -0.214
   - k =  -0.297 -0.071 -0.214
   - k =  -0.310 -0.071 -0.214
   - k =  -0.323 -0.071 -0.214
   - k =  -0.335 -0.071 -0.214
   - k =  -0.348 -0.071 -0.214
   - k =  -0.361 -0.071 -0.214
   - k =  -0.373 -0.071 -0.214
   - k =  -0.386 -0.071 -0.214
   - k =  -0.399 -0.071 -0.214
   - k =  -0.411 -0.071 -0.214
   - k =  -0.424 -0.071 -0.214
   - k =  -0.437 -0.071 -0.214
   - k =  -0.449 -0.071 -0.214
   - k =  -0.462 -0.071 -0.214
   - k =  -0.475 -0.071 -0.214
   - k =  -0.487 -0.071 -0.214
   - k =  -0.500 -0.071 -0.214

  |-> Computing Wannier center evolution at k-point number:     27
 Using pol_lapack_version = 2
 Calculating Berry  term along reciprocal lattice vector 1:     0.840     0.000     0.000
 Calculating dipole term along reciprocal lattice vector 1:     0.840     0.000     0.000

  Treating all   80 k-points in band plot segment #  28:
   Sampling over :
   - k =   0.500 -0.071 -0.071
   - k =   0.487 -0.071 -0.071
   - k =   0.475 -0.071 -0.071
   - k =   0.462 -0.071 -0.071
   - k =   0.449 -0.071 -0.071
   - k =   0.437 -0.071 -0.071
   - k =   0.424 -0.071 -0.071
   - k =   0.411 -0.071 -0.071
   - k =   0.399 -0.071 -0.071
   - k =   0.386 -0.071 -0.071
   - k =   0.373 -0.071 -0.071
   - k =   0.361 -0.071 -0.071
   - k =   0.348 -0.071 -0.071
   - k =   0.335 -0.071 -0.071
   - k =   0.323 -0.071 -0.071
   - k =   0.310 -0.071 -0.071
   - k =   0.297 -0.071 -0.071
   - k =   0.285 -0.071 -0.071
   - k =   0.272 -0.071 -0.071
   - k =   0.259 -0.071 -0.071
   - k =   0.247 -0.071 -0.071
   - k =   0.234 -0.071 -0.071
   - k =   0.222 -0.071 -0.071
   - k =   0.209 -0.071 -0.071
   - k =   0.196 -0.071 -0.071
   - k =   0.184 -0.071 -0.071
   - k =   0.171 -0.071 -0.071
   - k =   0.158 -0.071 -0.071
   - k =   0.146 -0.071 -0.071
   - k =   0.133 -0.071 -0.071
   - k =   0.120 -0.071 -0.071
   - k =   0.108 -0.071 -0.071
   - k =   0.095 -0.071 -0.071
   - k =   0.082 -0.071 -0.071
   - k =   0.070 -0.071 -0.071
   - k =   0.057 -0.071 -0.071
   - k =   0.044 -0.071 -0.071
   - k =   0.032 -0.071 -0.071
   - k =   0.019 -0.071 -0.071
   - k =   0.006 -0.071 -0.071
   - k =  -0.006 -0.071 -0.071
   - k =  -0.019 -0.071 -0.071
   - k =  -0.032 -0.071 -0.071
   - k =  -0.044 -0.071 -0.071
   - k =  -0.057 -0.071 -0.071
   - k =  -0.070 -0.071 -0.071
   - k =  -0.082 -0.071 -0.071
   - k =  -0.095 -0.071 -0.071
   - k =  -0.108 -0.071 -0.071
   - k =  -0.120 -0.071 -0.071
   - k =  -0.133 -0.071 -0.071
   - k =  -0.146 -0.071 -0.071
   - k =  -0.158 -0.071 -0.071
   - k =  -0.171 -0.071 -0.071
   - k =  -0.184 -0.071 -0.071
   - k =  -0.196 -0.071 -0.071
   - k =  -0.209 -0.071 -0.071
   - k =  -0.222 -0.071 -0.071
   - k =  -0.234 -0.071 -0.071
   - k =  -0.247 -0.071 -0.071
   - k =  -0.259 -0.071 -0.071
   - k =  -0.272 -0.071 -0.071
   - k =  -0.285 -0.071 -0.071
   - k =  -0.297 -0.071 -0.071
   - k =  -0.310 -0.071 -0.071
   - k =  -0.323 -0.071 -0.071
   - k =  -0.335 -0.071 -0.071
   - k =  -0.348 -0.071 -0.071
   - k =  -0.361 -0.071 -0.071
   - k =  -0.373 -0.071 -0.071
   - k =  -0.386 -0.071 -0.071
   - k =  -0.399 -0.071 -0.071
   - k =  -0.411 -0.071 -0.071
   - k =  -0.424 -0.071 -0.071
   - k =  -0.437 -0.071 -0.071
   - k =  -0.449 -0.071 -0.071
   - k =  -0.462 -0.071 -0.071
   - k =  -0.475 -0.071 -0.071
   - k =  -0.487 -0.071 -0.071
   - k =  -0.500 -0.071 -0.071

  |-> Computing Wannier center evolution at k-point number:     28
 Using pol_lapack_version = 2
 Calculating Berry  term along reciprocal lattice vector 1:     0.840     0.000     0.000
 Calculating dipole term along reciprocal lattice vector 1:     0.840     0.000     0.000

  Treating all   80 k-points in band plot segment #  29:
   Sampling over :
   - k =   0.500 -0.071  0.071
   - k =   0.487 -0.071  0.071
   - k =   0.475 -0.071  0.071
   - k =   0.462 -0.071  0.071
   - k =   0.449 -0.071  0.071
   - k =   0.437 -0.071  0.071
   - k =   0.424 -0.071  0.071
   - k =   0.411 -0.071  0.071
   - k =   0.399 -0.071  0.071
   - k =   0.386 -0.071  0.071
   - k =   0.373 -0.071  0.071
   - k =   0.361 -0.071  0.071
   - k =   0.348 -0.071  0.071
   - k =   0.335 -0.071  0.071
   - k =   0.323 -0.071  0.071
   - k =   0.310 -0.071  0.071
   - k =   0.297 -0.071  0.071
   - k =   0.285 -0.071  0.071
   - k =   0.272 -0.071  0.071
   - k =   0.259 -0.071  0.071
   - k =   0.247 -0.071  0.071
   - k =   0.234 -0.071  0.071
   - k =   0.222 -0.071  0.071
   - k =   0.209 -0.071  0.071
   - k =   0.196 -0.071  0.071
   - k =   0.184 -0.071  0.071
   - k =   0.171 -0.071  0.071
   - k =   0.158 -0.071  0.071
   - k =   0.146 -0.071  0.071
   - k =   0.133 -0.071  0.071
   - k =   0.120 -0.071  0.071
   - k =   0.108 -0.071  0.071
   - k =   0.095 -0.071  0.071
   - k =   0.082 -0.071  0.071
   - k =   0.070 -0.071  0.071
   - k =   0.057 -0.071  0.071
   - k =   0.044 -0.071  0.071
   - k =   0.032 -0.071  0.071
   - k =   0.019 -0.071  0.071
   - k =   0.006 -0.071  0.071
   - k =  -0.006 -0.071  0.071
   - k =  -0.019 -0.071  0.071
   - k =  -0.032 -0.071  0.071
   - k =  -0.044 -0.071  0.071
   - k =  -0.057 -0.071  0.071
   - k =  -0.070 -0.071  0.071
   - k =  -0.082 -0.071  0.071
   - k =  -0.095 -0.071  0.071
   - k =  -0.108 -0.071  0.071
   - k =  -0.120 -0.071  0.071
   - k =  -0.133 -0.071  0.071
   - k =  -0.146 -0.071  0.071
   - k =  -0.158 -0.071  0.071
   - k =  -0.171 -0.071  0.071
   - k =  -0.184 -0.071  0.071
   - k =  -0.196 -0.071  0.071
   - k =  -0.209 -0.071  0.071
   - k =  -0.222 -0.071  0.071
   - k =  -0.234 -0.071  0.071
   - k =  -0.247 -0.071  0.071
   - k =  -0.259 -0.071  0.071
   - k =  -0.272 -0.071  0.071
   - k =  -0.285 -0.071  0.071
   - k =  -0.297 -0.071  0.071
   - k =  -0.310 -0.071  0.071
   - k =  -0.323 -0.071  0.071
   - k =  -0.335 -0.071  0.071
   - k =  -0.348 -0.071  0.071
   - k =  -0.361 -0.071  0.071
   - k =  -0.373 -0.071  0.071
   - k =  -0.386 -0.071  0.071
   - k =  -0.399 -0.071  0.071
   - k =  -0.411 -0.071  0.071
   - k =  -0.424 -0.071  0.071
   - k =  -0.437 -0.071  0.071
   - k =  -0.449 -0.071  0.071
   - k =  -0.462 -0.071  0.071
   - k =  -0.475 -0.071  0.071
   - k =  -0.487 -0.071  0.071
   - k =  -0.500 -0.071  0.071

  |-> Computing Wannier center evolution at k-point number:     29
 Using pol_lapack_version = 2
 Calculating Berry  term along reciprocal lattice vector 1:     0.840     0.000     0.000
 Calculating dipole term along reciprocal lattice vector 1:     0.840     0.000     0.000

  Treating all   80 k-points in band plot segment #  30:
   Sampling over :
   - k =   0.500 -0.071  0.214
   - k =   0.487 -0.071  0.214
   - k =   0.475 -0.071  0.214
   - k =   0.462 -0.071  0.214
   - k =   0.449 -0.071  0.214
   - k =   0.437 -0.071  0.214
   - k =   0.424 -0.071  0.214
   - k =   0.411 -0.071  0.214
   - k =   0.399 -0.071  0.214
   - k =   0.386 -0.071  0.214
   - k =   0.373 -0.071  0.214
   - k =   0.361 -0.071  0.214
   - k =   0.348 -0.071  0.214
   - k =   0.335 -0.071  0.214
   - k =   0.323 -0.071  0.214
   - k =   0.310 -0.071  0.214
   - k =   0.297 -0.071  0.214
   - k =   0.285 -0.071  0.214
   - k =   0.272 -0.071  0.214
   - k =   0.259 -0.071  0.214
   - k =   0.247 -0.071  0.214
   - k =   0.234 -0.071  0.214
   - k =   0.222 -0.071  0.214
   - k =   0.209 -0.071  0.214
   - k =   0.196 -0.071  0.214
   - k =   0.184 -0.071  0.214
   - k =   0.171 -0.071  0.214
   - k =   0.158 -0.071  0.214
   - k =   0.146 -0.071  0.214
   - k =   0.133 -0.071  0.214
   - k =   0.120 -0.071  0.214
   - k =   0.108 -0.071  0.214
   - k =   0.095 -0.071  0.214
   - k =   0.082 -0.071  0.214
   - k =   0.070 -0.071  0.214
   - k =   0.057 -0.071  0.214
   - k =   0.044 -0.071  0.214
   - k =   0.032 -0.071  0.214
   - k =   0.019 -0.071  0.214
   - k =   0.006 -0.071  0.214
   - k =  -0.006 -0.071  0.214
   - k =  -0.019 -0.071  0.214
   - k =  -0.032 -0.071  0.214
   - k =  -0.044 -0.071  0.214
   - k =  -0.057 -0.071  0.214
   - k =  -0.070 -0.071  0.214
   - k =  -0.082 -0.071  0.214
   - k =  -0.095 -0.071  0.214
   - k =  -0.108 -0.071  0.214
   - k =  -0.120 -0.071  0.214
   - k =  -0.133 -0.071  0.214
   - k =  -0.146 -0.071  0.214
   - k =  -0.158 -0.071  0.214
   - k =  -0.171 -0.071  0.214
   - k =  -0.184 -0.071  0.214
   - k =  -0.196 -0.071  0.214
   - k =  -0.209 -0.071  0.214
   - k =  -0.222 -0.071  0.214
   - k =  -0.234 -0.071  0.214
   - k =  -0.247 -0.071  0.214
   - k =  -0.259 -0.071  0.214
   - k =  -0.272 -0.071  0.214
   - k =  -0.285 -0.071  0.214
   - k =  -0.297 -0.071  0.214
   - k =  -0.310 -0.071  0.214
   - k =  -0.323 -0.071  0.214
   - k =  -0.335 -0.071  0.214
   - k =  -0.348 -0.071  0.214
   - k =  -0.361 -0.071  0.214
   - k =  -0.373 -0.071  0.214
   - k =  -0.386 -0.071  0.214
   - k =  -0.399 -0.071  0.214
   - k =  -0.411 -0.071  0.214
   - k =  -0.424 -0.071  0.214
   - k =  -0.437 -0.071  0.214
   - k =  -0.449 -0.071  0.214
   - k =  -0.462 -0.071  0.214
   - k =  -0.475 -0.071  0.214
   - k =  -0.487 -0.071  0.214
   - k =  -0.500 -0.071  0.214

  |-> Computing Wannier center evolution at k-point number:     30
 Using pol_lapack_version = 2
 Calculating Berry  term along reciprocal lattice vector 1:     0.840     0.000     0.000
 Calculating dipole term along reciprocal lattice vector 1:     0.840     0.000     0.000

  Treating all   80 k-points in band plot segment #  31:
   Sampling over :
   - k =   0.500 -0.071  0.357
   - k =   0.487 -0.071  0.357
   - k =   0.475 -0.071  0.357
   - k =   0.462 -0.071  0.357
   - k =   0.449 -0.071  0.357
   - k =   0.437 -0.071  0.357
   - k =   0.424 -0.071  0.357
   - k =   0.411 -0.071  0.357
   - k =   0.399 -0.071  0.357
   - k =   0.386 -0.071  0.357
   - k =   0.373 -0.071  0.357
   - k =   0.361 -0.071  0.357
   - k =   0.348 -0.071  0.357
   - k =   0.335 -0.071  0.357
   - k =   0.323 -0.071  0.357
   - k =   0.310 -0.071  0.357
   - k =   0.297 -0.071  0.357
   - k =   0.285 -0.071  0.357
   - k =   0.272 -0.071  0.357
   - k =   0.259 -0.071  0.357
   - k =   0.247 -0.071  0.357
   - k =   0.234 -0.071  0.357
   - k =   0.222 -0.071  0.357
   - k =   0.209 -0.071  0.357
   - k =   0.196 -0.071  0.357
   - k =   0.184 -0.071  0.357
   - k =   0.171 -0.071  0.357
   - k =   0.158 -0.071  0.357
   - k =   0.146 -0.071  0.357
   - k =   0.133 -0.071  0.357
   - k =   0.120 -0.071  0.357
   - k =   0.108 -0.071  0.357
   - k =   0.095 -0.071  0.357
   - k =   0.082 -0.071  0.357
   - k =   0.070 -0.071  0.357
   - k =   0.057 -0.071  0.357
   - k =   0.044 -0.071  0.357
   - k =   0.032 -0.071  0.357
   - k =   0.019 -0.071  0.357
   - k =   0.006 -0.071  0.357
   - k =  -0.006 -0.071  0.357
   - k =  -0.019 -0.071  0.357
   - k =  -0.032 -0.071  0.357
   - k =  -0.044 -0.071  0.357
   - k =  -0.057 -0.071  0.357
   - k =  -0.070 -0.071  0.357
   - k =  -0.082 -0.071  0.357
   - k =  -0.095 -0.071  0.357
   - k =  -0.108 -0.071  0.357
   - k =  -0.120 -0.071  0.357
   - k =  -0.133 -0.071  0.357
   - k =  -0.146 -0.071  0.357
   - k =  -0.158 -0.071  0.357
   - k =  -0.171 -0.071  0.357
   - k =  -0.184 -0.071  0.357
   - k =  -0.196 -0.071  0.357
   - k =  -0.209 -0.071  0.357
   - k =  -0.222 -0.071  0.357
   - k =  -0.234 -0.071  0.357
   - k =  -0.247 -0.071  0.357
   - k =  -0.259 -0.071  0.357
   - k =  -0.272 -0.071  0.357
   - k =  -0.285 -0.071  0.357
   - k =  -0.297 -0.071  0.357
   - k =  -0.310 -0.071  0.357
   - k =  -0.323 -0.071  0.357
   - k =  -0.335 -0.071  0.357
   - k =  -0.348 -0.071  0.357
   - k =  -0.361 -0.071  0.357
   - k =  -0.373 -0.071  0.357
   - k =  -0.386 -0.071  0.357
   - k =  -0.399 -0.071  0.357
   - k =  -0.411 -0.071  0.357
   - k =  -0.424 -0.071  0.357
   - k =  -0.437 -0.071  0.357
   - k =  -0.449 -0.071  0.357
   - k =  -0.462 -0.071  0.357
   - k =  -0.475 -0.071  0.357
   - k =  -0.487 -0.071  0.357
   - k =  -0.500 -0.071  0.357

  |-> Computing Wannier center evolution at k-point number:     31
 Using pol_lapack_version = 2
 Calculating Berry  term along reciprocal lattice vector 1:     0.840     0.000     0.000
 Calculating dipole term along reciprocal lattice vector 1:     0.840     0.000     0.000

  Treating all   80 k-points in band plot segment #  32:
   Sampling over :
   - k =   0.500 -0.071  0.500
   - k =   0.487 -0.071  0.500
   - k =   0.475 -0.071  0.500
   - k =   0.462 -0.071  0.500
   - k =   0.449 -0.071  0.500
   - k =   0.437 -0.071  0.500
   - k =   0.424 -0.071  0.500
   - k =   0.411 -0.071  0.500
   - k =   0.399 -0.071  0.500
   - k =   0.386 -0.071  0.500
   - k =   0.373 -0.071  0.500
   - k =   0.361 -0.071  0.500
   - k =   0.348 -0.071  0.500
   - k =   0.335 -0.071  0.500
   - k =   0.323 -0.071  0.500
   - k =   0.310 -0.071  0.500
   - k =   0.297 -0.071  0.500
   - k =   0.285 -0.071  0.500
   - k =   0.272 -0.071  0.500
   - k =   0.259 -0.071  0.500
   - k =   0.247 -0.071  0.500
   - k =   0.234 -0.071  0.500
   - k =   0.222 -0.071  0.500
   - k =   0.209 -0.071  0.500
   - k =   0.196 -0.071  0.500
   - k =   0.184 -0.071  0.500
   - k =   0.171 -0.071  0.500
   - k =   0.158 -0.071  0.500
   - k =   0.146 -0.071  0.500
   - k =   0.133 -0.071  0.500
   - k =   0.120 -0.071  0.500
   - k =   0.108 -0.071  0.500
   - k =   0.095 -0.071  0.500
   - k =   0.082 -0.071  0.500
   - k =   0.070 -0.071  0.500
   - k =   0.057 -0.071  0.500
   - k =   0.044 -0.071  0.500
   - k =   0.032 -0.071  0.500
   - k =   0.019 -0.071  0.500
   - k =   0.006 -0.071  0.500
   - k =  -0.006 -0.071  0.500
   - k =  -0.019 -0.071  0.500
   - k =  -0.032 -0.071  0.500
   - k =  -0.044 -0.071  0.500
   - k =  -0.057 -0.071  0.500
   - k =  -0.070 -0.071  0.500
   - k =  -0.082 -0.071  0.500
   - k =  -0.095 -0.071  0.500
   - k =  -0.108 -0.071  0.500
   - k =  -0.120 -0.071  0.500
   - k =  -0.133 -0.071  0.500
   - k =  -0.146 -0.071  0.500
   - k =  -0.158 -0.071  0.500
   - k =  -0.171 -0.071  0.500
   - k =  -0.184 -0.071  0.500
   - k =  -0.196 -0.071  0.500
   - k =  -0.209 -0.071  0.500
   - k =  -0.222 -0.071  0.500
   - k =  -0.234 -0.071  0.500
   - k =  -0.247 -0.071  0.500
   - k =  -0.259 -0.071  0.500
   - k =  -0.272 -0.071  0.500
   - k =  -0.285 -0.071  0.500
   - k =  -0.297 -0.071  0.500
   - k =  -0.310 -0.071  0.500
   - k =  -0.323 -0.071  0.500
   - k =  -0.335 -0.071  0.500
   - k =  -0.348 -0.071  0.500
   - k =  -0.361 -0.071  0.500
   - k =  -0.373 -0.071  0.500
   - k =  -0.386 -0.071  0.500
   - k =  -0.399 -0.071  0.500
   - k =  -0.411 -0.071  0.500
   - k =  -0.424 -0.071  0.500
   - k =  -0.437 -0.071  0.500
   - k =  -0.449 -0.071  0.500
   - k =  -0.462 -0.071  0.500
   - k =  -0.475 -0.071  0.500
   - k =  -0.487 -0.071  0.500
   - k =  -0.500 -0.071  0.500

  |-> Computing Wannier center evolution at k-point number:     32
 Using pol_lapack_version = 2
 Calculating Berry  term along reciprocal lattice vector 1:     0.840     0.000     0.000
 Calculating dipole term along reciprocal lattice vector 1:     0.840     0.000     0.000

  Treating all   80 k-points in band plot segment #  33:
   Sampling over :
   - k =   0.500  0.071 -0.500
   - k =   0.487  0.071 -0.500
   - k =   0.475  0.071 -0.500
   - k =   0.462  0.071 -0.500
   - k =   0.449  0.071 -0.500
   - k =   0.437  0.071 -0.500
   - k =   0.424  0.071 -0.500
   - k =   0.411  0.071 -0.500
   - k =   0.399  0.071 -0.500
   - k =   0.386  0.071 -0.500
   - k =   0.373  0.071 -0.500
   - k =   0.361  0.071 -0.500
   - k =   0.348  0.071 -0.500
   - k =   0.335  0.071 -0.500
   - k =   0.323  0.071 -0.500
   - k =   0.310  0.071 -0.500
   - k =   0.297  0.071 -0.500
   - k =   0.285  0.071 -0.500
   - k =   0.272  0.071 -0.500
   - k =   0.259  0.071 -0.500
   - k =   0.247  0.071 -0.500
   - k =   0.234  0.071 -0.500
   - k =   0.222  0.071 -0.500
   - k =   0.209  0.071 -0.500
   - k =   0.196  0.071 -0.500
   - k =   0.184  0.071 -0.500
   - k =   0.171  0.071 -0.500
   - k =   0.158  0.071 -0.500
   - k =   0.146  0.071 -0.500
   - k =   0.133  0.071 -0.500
   - k =   0.120  0.071 -0.500
   - k =   0.108  0.071 -0.500
   - k =   0.095  0.071 -0.500
   - k =   0.082  0.071 -0.500
   - k =   0.070  0.071 -0.500
   - k =   0.057  0.071 -0.500
   - k =   0.044  0.071 -0.500
   - k =   0.032  0.071 -0.500
   - k =   0.019  0.071 -0.500
   - k =   0.006  0.071 -0.500
   - k =  -0.006  0.071 -0.500
   - k =  -0.019  0.071 -0.500
   - k =  -0.032  0.071 -0.500
   - k =  -0.044  0.071 -0.500
   - k =  -0.057  0.071 -0.500
   - k =  -0.070  0.071 -0.500
   - k =  -0.082  0.071 -0.500
   - k =  -0.095  0.071 -0.500
   - k =  -0.108  0.071 -0.500
   - k =  -0.120  0.071 -0.500
   - k =  -0.133  0.071 -0.500
   - k =  -0.146  0.071 -0.500
   - k =  -0.158  0.071 -0.500
   - k =  -0.171  0.071 -0.500
   - k =  -0.184  0.071 -0.500
   - k =  -0.196  0.071 -0.500
   - k =  -0.209  0.071 -0.500
   - k =  -0.222  0.071 -0.500
   - k =  -0.234  0.071 -0.500
   - k =  -0.247  0.071 -0.500
   - k =  -0.259  0.071 -0.500
   - k =  -0.272  0.071 -0.500
   - k =  -0.285  0.071 -0.500
   - k =  -0.297  0.071 -0.500
   - k =  -0.310  0.071 -0.500
   - k =  -0.323  0.071 -0.500
   - k =  -0.335  0.071 -0.500
   - k =  -0.348  0.071 -0.500
   - k =  -0.361  0.071 -0.500
   - k =  -0.373  0.071 -0.500
   - k =  -0.386  0.071 -0.500
   - k =  -0.399  0.071 -0.500
   - k =  -0.411  0.071 -0.500
   - k =  -0.424  0.071 -0.500
   - k =  -0.437  0.071 -0.500
   - k =  -0.449  0.071 -0.500
   - k =  -0.462  0.071 -0.500
   - k =  -0.475  0.071 -0.500
   - k =  -0.487  0.071 -0.500
   - k =  -0.500  0.071 -0.500

  |-> Computing Wannier center evolution at k-point number:     33
 Using pol_lapack_version = 2
 Calculating Berry  term along reciprocal lattice vector 1:     0.840     0.000     0.000
 Calculating dipole term along reciprocal lattice vector 1:     0.840     0.000     0.000

  Treating all   80 k-points in band plot segment #  34:
   Sampling over :
   - k =   0.500  0.071 -0.357
   - k =   0.487  0.071 -0.357
   - k =   0.475  0.071 -0.357
   - k =   0.462  0.071 -0.357
   - k =   0.449  0.071 -0.357
   - k =   0.437  0.071 -0.357
   - k =   0.424  0.071 -0.357
   - k =   0.411  0.071 -0.357
   - k =   0.399  0.071 -0.357
   - k =   0.386  0.071 -0.357
   - k =   0.373  0.071 -0.357
   - k =   0.361  0.071 -0.357
   - k =   0.348  0.071 -0.357
   - k =   0.335  0.071 -0.357
   - k =   0.323  0.071 -0.357
   - k =   0.310  0.071 -0.357
   - k =   0.297  0.071 -0.357
   - k =   0.285  0.071 -0.357
   - k =   0.272  0.071 -0.357
   - k =   0.259  0.071 -0.357
   - k =   0.247  0.071 -0.357
   - k =   0.234  0.071 -0.357
   - k =   0.222  0.071 -0.357
   - k =   0.209  0.071 -0.357
   - k =   0.196  0.071 -0.357
   - k =   0.184  0.071 -0.357
   - k =   0.171  0.071 -0.357
   - k =   0.158  0.071 -0.357
   - k =   0.146  0.071 -0.357
   - k =   0.133  0.071 -0.357
   - k =   0.120  0.071 -0.357
   - k =   0.108  0.071 -0.357
   - k =   0.095  0.071 -0.357
   - k =   0.082  0.071 -0.357
   - k =   0.070  0.071 -0.357
   - k =   0.057  0.071 -0.357
   - k =   0.044  0.071 -0.357
   - k =   0.032  0.071 -0.357
   - k =   0.019  0.071 -0.357
   - k =   0.006  0.071 -0.357
   - k =  -0.006  0.071 -0.357
   - k =  -0.019  0.071 -0.357
   - k =  -0.032  0.071 -0.357
   - k =  -0.044  0.071 -0.357
   - k =  -0.057  0.071 -0.357
   - k =  -0.070  0.071 -0.357
   - k =  -0.082  0.071 -0.357
   - k =  -0.095  0.071 -0.357
   - k =  -0.108  0.071 -0.357
   - k =  -0.120  0.071 -0.357
   - k =  -0.133  0.071 -0.357
   - k =  -0.146  0.071 -0.357
   - k =  -0.158  0.071 -0.357
   - k =  -0.171  0.071 -0.357
   - k =  -0.184  0.071 -0.357
   - k =  -0.196  0.071 -0.357
   - k =  -0.209  0.071 -0.357
   - k =  -0.222  0.071 -0.357
   - k =  -0.234  0.071 -0.357
   - k =  -0.247  0.071 -0.357
   - k =  -0.259  0.071 -0.357
   - k =  -0.272  0.071 -0.357
   - k =  -0.285  0.071 -0.357
   - k =  -0.297  0.071 -0.357
   - k =  -0.310  0.071 -0.357
   - k =  -0.323  0.071 -0.357
   - k =  -0.335  0.071 -0.357
   - k =  -0.348  0.071 -0.357
   - k =  -0.361  0.071 -0.357
   - k =  -0.373  0.071 -0.357
   - k =  -0.386  0.071 -0.357
   - k =  -0.399  0.071 -0.357
   - k =  -0.411  0.071 -0.357
   - k =  -0.424  0.071 -0.357
   - k =  -0.437  0.071 -0.357
   - k =  -0.449  0.071 -0.357
   - k =  -0.462  0.071 -0.357
   - k =  -0.475  0.071 -0.357
   - k =  -0.487  0.071 -0.357
   - k =  -0.500  0.071 -0.357

  |-> Computing Wannier center evolution at k-point number:     34
 Using pol_lapack_version = 2
 Calculating Berry  term along reciprocal lattice vector 1:     0.840     0.000     0.000
 Calculating dipole term along reciprocal lattice vector 1:     0.840     0.000     0.000

  Treating all   80 k-points in band plot segment #  35:
   Sampling over :
   - k =   0.500  0.071 -0.214
   - k =   0.487  0.071 -0.214
   - k =   0.475  0.071 -0.214
   - k =   0.462  0.071 -0.214
   - k =   0.449  0.071 -0.214
   - k =   0.437  0.071 -0.214
   - k =   0.424  0.071 -0.214
   - k =   0.411  0.071 -0.214
   - k =   0.399  0.071 -0.214
   - k =   0.386  0.071 -0.214
   - k =   0.373  0.071 -0.214
   - k =   0.361  0.071 -0.214
   - k =   0.348  0.071 -0.214
   - k =   0.335  0.071 -0.214
   - k =   0.323  0.071 -0.214
   - k =   0.310  0.071 -0.214
   - k =   0.297  0.071 -0.214
   - k =   0.285  0.071 -0.214
   - k =   0.272  0.071 -0.214
   - k =   0.259  0.071 -0.214
   - k =   0.247  0.071 -0.214
   - k =   0.234  0.071 -0.214
   - k =   0.222  0.071 -0.214
   - k =   0.209  0.071 -0.214
   - k =   0.196  0.071 -0.214
   - k =   0.184  0.071 -0.214
   - k =   0.171  0.071 -0.214
   - k =   0.158  0.071 -0.214
   - k =   0.146  0.071 -0.214
   - k =   0.133  0.071 -0.214
   - k =   0.120  0.071 -0.214
   - k =   0.108  0.071 -0.214
   - k =   0.095  0.071 -0.214
   - k =   0.082  0.071 -0.214
   - k =   0.070  0.071 -0.214
   - k =   0.057  0.071 -0.214
   - k =   0.044  0.071 -0.214
   - k =   0.032  0.071 -0.214
   - k =   0.019  0.071 -0.214
   - k =   0.006  0.071 -0.214
   - k =  -0.006  0.071 -0.214
   - k =  -0.019  0.071 -0.214
   - k =  -0.032  0.071 -0.214
   - k =  -0.044  0.071 -0.214
   - k =  -0.057  0.071 -0.214
   - k =  -0.070  0.071 -0.214
   - k =  -0.082  0.071 -0.214
   - k =  -0.095  0.071 -0.214
   - k =  -0.108  0.071 -0.214
   - k =  -0.120  0.071 -0.214
   - k =  -0.133  0.071 -0.214
   - k =  -0.146  0.071 -0.214
   - k =  -0.158  0.071 -0.214
   - k =  -0.171  0.071 -0.214
   - k =  -0.184  0.071 -0.214
   - k =  -0.196  0.071 -0.214
   - k =  -0.209  0.071 -0.214
   - k =  -0.222  0.071 -0.214
   - k =  -0.234  0.071 -0.214
   - k =  -0.247  0.071 -0.214
   - k =  -0.259  0.071 -0.214
   - k =  -0.272  0.071 -0.214
   - k =  -0.285  0.071 -0.214
   - k =  -0.297  0.071 -0.214
   - k =  -0.310  0.071 -0.214
   - k =  -0.323  0.071 -0.214
   - k =  -0.335  0.071 -0.214
   - k =  -0.348  0.071 -0.214
   - k =  -0.361  0.071 -0.214
   - k =  -0.373  0.071 -0.214
   - k =  -0.386  0.071 -0.214
   - k =  -0.399  0.071 -0.214
   - k =  -0.411  0.071 -0.214
   - k =  -0.424  0.071 -0.214
   - k =  -0.437  0.071 -0.214
   - k =  -0.449  0.071 -0.214
   - k =  -0.462  0.071 -0.214
   - k =  -0.475  0.071 -0.214
   - k =  -0.487  0.071 -0.214
   - k =  -0.500  0.071 -0.214

  |-> Computing Wannier center evolution at k-point number:     35
 Using pol_lapack_version = 2
 Calculating Berry  term along reciprocal lattice vector 1:     0.840     0.000     0.000
 Calculating dipole term along reciprocal lattice vector 1:     0.840     0.000     0.000

  Treating all   80 k-points in band plot segment #  36:
   Sampling over :
   - k =   0.500  0.071 -0.071
   - k =   0.487  0.071 -0.071
   - k =   0.475  0.071 -0.071
   - k =   0.462  0.071 -0.071
   - k =   0.449  0.071 -0.071
   - k =   0.437  0.071 -0.071
   - k =   0.424  0.071 -0.071
   - k =   0.411  0.071 -0.071
   - k =   0.399  0.071 -0.071
   - k =   0.386  0.071 -0.071
   - k =   0.373  0.071 -0.071
   - k =   0.361  0.071 -0.071
   - k =   0.348  0.071 -0.071
   - k =   0.335  0.071 -0.071
   - k =   0.323  0.071 -0.071
   - k =   0.310  0.071 -0.071
   - k =   0.297  0.071 -0.071
   - k =   0.285  0.071 -0.071
   - k =   0.272  0.071 -0.071
   - k =   0.259  0.071 -0.071
   - k =   0.247  0.071 -0.071
   - k =   0.234  0.071 -0.071
   - k =   0.222  0.071 -0.071
   - k =   0.209  0.071 -0.071
   - k =   0.196  0.071 -0.071
   - k =   0.184  0.071 -0.071
   - k =   0.171  0.071 -0.071
   - k =   0.158  0.071 -0.071
   - k =   0.146  0.071 -0.071
   - k =   0.133  0.071 -0.071
   - k =   0.120  0.071 -0.071
   - k =   0.108  0.071 -0.071
   - k =   0.095  0.071 -0.071
   - k =   0.082  0.071 -0.071
   - k =   0.070  0.071 -0.071
   - k =   0.057  0.071 -0.071
   - k =   0.044  0.071 -0.071
   - k =   0.032  0.071 -0.071
   - k =   0.019  0.071 -0.071
   - k =   0.006  0.071 -0.071
   - k =  -0.006  0.071 -0.071
   - k =  -0.019  0.071 -0.071
   - k =  -0.032  0.071 -0.071
   - k =  -0.044  0.071 -0.071
   - k =  -0.057  0.071 -0.071
   - k =  -0.070  0.071 -0.071
   - k =  -0.082  0.071 -0.071
   - k =  -0.095  0.071 -0.071
   - k =  -0.108  0.071 -0.071
   - k =  -0.120  0.071 -0.071
   - k =  -0.133  0.071 -0.071
   - k =  -0.146  0.071 -0.071
   - k =  -0.158  0.071 -0.071
   - k =  -0.171  0.071 -0.071
   - k =  -0.184  0.071 -0.071
   - k =  -0.196  0.071 -0.071
   - k =  -0.209  0.071 -0.071
   - k =  -0.222  0.071 -0.071
   - k =  -0.234  0.071 -0.071
   - k =  -0.247  0.071 -0.071
   - k =  -0.259  0.071 -0.071
   - k =  -0.272  0.071 -0.071
   - k =  -0.285  0.071 -0.071
   - k =  -0.297  0.071 -0.071
   - k =  -0.310  0.071 -0.071
   - k =  -0.323  0.071 -0.071
   - k =  -0.335  0.071 -0.071
   - k =  -0.348  0.071 -0.071
   - k =  -0.361  0.071 -0.071
   - k =  -0.373  0.071 -0.071
   - k =  -0.386  0.071 -0.071
   - k =  -0.399  0.071 -0.071
   - k =  -0.411  0.071 -0.071
   - k =  -0.424  0.071 -0.071
   - k =  -0.437  0.071 -0.071
   - k =  -0.449  0.071 -0.071
   - k =  -0.462  0.071 -0.071
   - k =  -0.475  0.071 -0.071
   - k =  -0.487  0.071 -0.071
   - k =  -0.500  0.071 -0.071

  |-> Computing Wannier center evolution at k-point number:     36
 Using pol_lapack_version = 2
 Calculating Berry  term along reciprocal lattice vector 1:     0.840     0.000     0.000
 Calculating dipole term along reciprocal lattice vector 1:     0.840     0.000     0.000

  Treating all   80 k-points in band plot segment #  37:
   Sampling over :
   - k =   0.500  0.071  0.071
   - k =   0.487  0.071  0.071
   - k =   0.475  0.071  0.071
   - k =   0.462  0.071  0.071
   - k =   0.449  0.071  0.071
   - k =   0.437  0.071  0.071
   - k =   0.424  0.071  0.071
   - k =   0.411  0.071  0.071
   - k =   0.399  0.071  0.071
   - k =   0.386  0.071  0.071
   - k =   0.373  0.071  0.071
   - k =   0.361  0.071  0.071
   - k =   0.348  0.071  0.071
   - k =   0.335  0.071  0.071
   - k =   0.323  0.071  0.071
   - k =   0.310  0.071  0.071
   - k =   0.297  0.071  0.071
   - k =   0.285  0.071  0.071
   - k =   0.272  0.071  0.071
   - k =   0.259  0.071  0.071
   - k =   0.247  0.071  0.071
   - k =   0.234  0.071  0.071
   - k =   0.222  0.071  0.071
   - k =   0.209  0.071  0.071
   - k =   0.196  0.071  0.071
   - k =   0.184  0.071  0.071
   - k =   0.171  0.071  0.071
   - k =   0.158  0.071  0.071
   - k =   0.146  0.071  0.071
   - k =   0.133  0.071  0.071
   - k =   0.120  0.071  0.071
   - k =   0.108  0.071  0.071
   - k =   0.095  0.071  0.071
   - k =   0.082  0.071  0.071
   - k =   0.070  0.071  0.071
   - k =   0.057  0.071  0.071
   - k =   0.044  0.071  0.071
   - k =   0.032  0.071  0.071
   - k =   0.019  0.071  0.071
   - k =   0.006  0.071  0.071
   - k =  -0.006  0.071  0.071
   - k =  -0.019  0.071  0.071
   - k =  -0.032  0.071  0.071
   - k =  -0.044  0.071  0.071
   - k =  -0.057  0.071  0.071
   - k =  -0.070  0.071  0.071
   - k =  -0.082  0.071  0.071
   - k =  -0.095  0.071  0.071
   - k =  -0.108  0.071  0.071
   - k =  -0.120  0.071  0.071
   - k =  -0.133  0.071  0.071
   - k =  -0.146  0.071  0.071
   - k =  -0.158  0.071  0.071
   - k =  -0.171  0.071  0.071
   - k =  -0.184  0.071  0.071
   - k =  -0.196  0.071  0.071
   - k =  -0.209  0.071  0.071
   - k =  -0.222  0.071  0.071
   - k =  -0.234  0.071  0.071
   - k =  -0.247  0.071  0.071
   - k =  -0.259  0.071  0.071
   - k =  -0.272  0.071  0.071
   - k =  -0.285  0.071  0.071
   - k =  -0.297  0.071  0.071
   - k =  -0.310  0.071  0.071
   - k =  -0.323  0.071  0.071
   - k =  -0.335  0.071  0.071
   - k =  -0.348  0.071  0.071
   - k =  -0.361  0.071  0.071
   - k =  -0.373  0.071  0.071
   - k =  -0.386  0.071  0.071
   - k =  -0.399  0.071  0.071
   - k =  -0.411  0.071  0.071
   - k =  -0.424  0.071  0.071
   - k =  -0.437  0.071  0.071
   - k =  -0.449  0.071  0.071
   - k =  -0.462  0.071  0.071
   - k =  -0.475  0.071  0.071
   - k =  -0.487  0.071  0.071
   - k =  -0.500  0.071  0.071

  |-> Computing Wannier center evolution at k-point number:     37
 Using pol_lapack_version = 2
 Calculating Berry  term along reciprocal lattice vector 1:     0.840     0.000     0.000
 Calculating dipole term along reciprocal lattice vector 1:     0.840     0.000     0.000

  Treating all   80 k-points in band plot segment #  38:
   Sampling over :
   - k =   0.500  0.071  0.214
   - k =   0.487  0.071  0.214
   - k =   0.475  0.071  0.214
   - k =   0.462  0.071  0.214
   - k =   0.449  0.071  0.214
   - k =   0.437  0.071  0.214
   - k =   0.424  0.071  0.214
   - k =   0.411  0.071  0.214
   - k =   0.399  0.071  0.214
   - k =   0.386  0.071  0.214
   - k =   0.373  0.071  0.214
   - k =   0.361  0.071  0.214
   - k =   0.348  0.071  0.214
   - k =   0.335  0.071  0.214
   - k =   0.323  0.071  0.214
   - k =   0.310  0.071  0.214
   - k =   0.297  0.071  0.214
   - k =   0.285  0.071  0.214
   - k =   0.272  0.071  0.214
   - k =   0.259  0.071  0.214
   - k =   0.247  0.071  0.214
   - k =   0.234  0.071  0.214
   - k =   0.222  0.071  0.214
   - k =   0.209  0.071  0.214
   - k =   0.196  0.071  0.214
   - k =   0.184  0.071  0.214
   - k =   0.171  0.071  0.214
   - k =   0.158  0.071  0.214
   - k =   0.146  0.071  0.214
   - k =   0.133  0.071  0.214
   - k =   0.120  0.071  0.214
   - k =   0.108  0.071  0.214
   - k =   0.095  0.071  0.214
   - k =   0.082  0.071  0.214
   - k =   0.070  0.071  0.214
   - k =   0.057  0.071  0.214
   - k =   0.044  0.071  0.214
   - k =   0.032  0.071  0.214
   - k =   0.019  0.071  0.214
   - k =   0.006  0.071  0.214
   - k =  -0.006  0.071  0.214
   - k =  -0.019  0.071  0.214
   - k =  -0.032  0.071  0.214
   - k =  -0.044  0.071  0.214
   - k =  -0.057  0.071  0.214
   - k =  -0.070  0.071  0.214
   - k =  -0.082  0.071  0.214
   - k =  -0.095  0.071  0.214
   - k =  -0.108  0.071  0.214
   - k =  -0.120  0.071  0.214
   - k =  -0.133  0.071  0.214
   - k =  -0.146  0.071  0.214
   - k =  -0.158  0.071  0.214
   - k =  -0.171  0.071  0.214
   - k =  -0.184  0.071  0.214
   - k =  -0.196  0.071  0.214
   - k =  -0.209  0.071  0.214
   - k =  -0.222  0.071  0.214
   - k =  -0.234  0.071  0.214
   - k =  -0.247  0.071  0.214
   - k =  -0.259  0.071  0.214
   - k =  -0.272  0.071  0.214
   - k =  -0.285  0.071  0.214
   - k =  -0.297  0.071  0.214
   - k =  -0.310  0.071  0.214
   - k =  -0.323  0.071  0.214
   - k =  -0.335  0.071  0.214
   - k =  -0.348  0.071  0.214
   - k =  -0.361  0.071  0.214
   - k =  -0.373  0.071  0.214
   - k =  -0.386  0.071  0.214
   - k =  -0.399  0.071  0.214
   - k =  -0.411  0.071  0.214
   - k =  -0.424  0.071  0.214
   - k =  -0.437  0.071  0.214
   - k =  -0.449  0.071  0.214
   - k =  -0.462  0.071  0.214
   - k =  -0.475  0.071  0.214
   - k =  -0.487  0.071  0.214
   - k =  -0.500  0.071  0.214

  |-> Computing Wannier center evolution at k-point number:     38
 Using pol_lapack_version = 2
 Calculating Berry  term along reciprocal lattice vector 1:     0.840     0.000     0.000
 Calculating dipole term along reciprocal lattice vector 1:     0.840     0.000     0.000

  Treating all   80 k-points in band plot segment #  39:
   Sampling over :
   - k =   0.500  0.071  0.357
   - k =   0.487  0.071  0.357
   - k =   0.475  0.071  0.357
   - k =   0.462  0.071  0.357
   - k =   0.449  0.071  0.357
   - k =   0.437  0.071  0.357
   - k =   0.424  0.071  0.357
   - k =   0.411  0.071  0.357
   - k =   0.399  0.071  0.357
   - k =   0.386  0.071  0.357
   - k =   0.373  0.071  0.357
   - k =   0.361  0.071  0.357
   - k =   0.348  0.071  0.357
   - k =   0.335  0.071  0.357
   - k =   0.323  0.071  0.357
   - k =   0.310  0.071  0.357
   - k =   0.297  0.071  0.357
   - k =   0.285  0.071  0.357
   - k =   0.272  0.071  0.357
   - k =   0.259  0.071  0.357
   - k =   0.247  0.071  0.357
   - k =   0.234  0.071  0.357
   - k =   0.222  0.071  0.357
   - k =   0.209  0.071  0.357
   - k =   0.196  0.071  0.357
   - k =   0.184  0.071  0.357
   - k =   0.171  0.071  0.357
   - k =   0.158  0.071  0.357
   - k =   0.146  0.071  0.357
   - k =   0.133  0.071  0.357
   - k =   0.120  0.071  0.357
   - k =   0.108  0.071  0.357
   - k =   0.095  0.071  0.357
   - k =   0.082  0.071  0.357
   - k =   0.070  0.071  0.357
   - k =   0.057  0.071  0.357
   - k =   0.044  0.071  0.357
   - k =   0.032  0.071  0.357
   - k =   0.019  0.071  0.357
   - k =   0.006  0.071  0.357
   - k =  -0.006  0.071  0.357
   - k =  -0.019  0.071  0.357
   - k =  -0.032  0.071  0.357
   - k =  -0.044  0.071  0.357
   - k =  -0.057  0.071  0.357
   - k =  -0.070  0.071  0.357
   - k =  -0.082  0.071  0.357
   - k =  -0.095  0.071  0.357
   - k =  -0.108  0.071  0.357
   - k =  -0.120  0.071  0.357
   - k =  -0.133  0.071  0.357
   - k =  -0.146  0.071  0.357
   - k =  -0.158  0.071  0.357
   - k =  -0.171  0.071  0.357
   - k =  -0.184  0.071  0.357
   - k =  -0.196  0.071  0.357
   - k =  -0.209  0.071  0.357
   - k =  -0.222  0.071  0.357
   - k =  -0.234  0.071  0.357
   - k =  -0.247  0.071  0.357
   - k =  -0.259  0.071  0.357
   - k =  -0.272  0.071  0.357
   - k =  -0.285  0.071  0.357
   - k =  -0.297  0.071  0.357
   - k =  -0.310  0.071  0.357
   - k =  -0.323  0.071  0.357
   - k =  -0.335  0.071  0.357
   - k =  -0.348  0.071  0.357
   - k =  -0.361  0.071  0.357
   - k =  -0.373  0.071  0.357
   - k =  -0.386  0.071  0.357
   - k =  -0.399  0.071  0.357
   - k =  -0.411  0.071  0.357
   - k =  -0.424  0.071  0.357
   - k =  -0.437  0.071  0.357
   - k =  -0.449  0.071  0.357
   - k =  -0.462  0.071  0.357
   - k =  -0.475  0.071  0.357
   - k =  -0.487  0.071  0.357
   - k =  -0.500  0.071  0.357

  |-> Computing Wannier center evolution at k-point number:     39
 Using pol_lapack_version = 2
 Calculating Berry  term along reciprocal lattice vector 1:     0.840     0.000     0.000
 Calculating dipole term along reciprocal lattice vector 1:     0.840     0.000     0.000

  Treating all   80 k-points in band plot segment #  40:
   Sampling over :
   - k =   0.500  0.071  0.500
   - k =   0.487  0.071  0.500
   - k =   0.475  0.071  0.500
   - k =   0.462  0.071  0.500
   - k =   0.449  0.071  0.500
   - k =   0.437  0.071  0.500
   - k =   0.424  0.071  0.500
   - k =   0.411  0.071  0.500
   - k =   0.399  0.071  0.500
   - k =   0.386  0.071  0.500
   - k =   0.373  0.071  0.500
   - k =   0.361  0.071  0.500
   - k =   0.348  0.071  0.500
   - k =   0.335  0.071  0.500
   - k =   0.323  0.071  0.500
   - k =   0.310  0.071  0.500
   - k =   0.297  0.071  0.500
   - k =   0.285  0.071  0.500
   - k =   0.272  0.071  0.500
   - k =   0.259  0.071  0.500
   - k =   0.247  0.071  0.500
   - k =   0.234  0.071  0.500
   - k =   0.222  0.071  0.500
   - k =   0.209  0.071  0.500
   - k =   0.196  0.071  0.500
   - k =   0.184  0.071  0.500
   - k =   0.171  0.071  0.500
   - k =   0.158  0.071  0.500
   - k =   0.146  0.071  0.500
   - k =   0.133  0.071  0.500
   - k =   0.120  0.071  0.500
   - k =   0.108  0.071  0.500
   - k =   0.095  0.071  0.500
   - k =   0.082  0.071  0.500
   - k =   0.070  0.071  0.500
   - k =   0.057  0.071  0.500
   - k =   0.044  0.071  0.500
   - k =   0.032  0.071  0.500
   - k =   0.019  0.071  0.500
   - k =   0.006  0.071  0.500
   - k =  -0.006  0.071  0.500
   - k =  -0.019  0.071  0.500
   - k =  -0.032  0.071  0.500
   - k =  -0.044  0.071  0.500
   - k =  -0.057  0.071  0.500
   - k =  -0.070  0.071  0.500
   - k =  -0.082  0.071  0.500
   - k =  -0.095  0.071  0.500
   - k =  -0.108  0.071  0.500
   - k =  -0.120  0.071  0.500
   - k =  -0.133  0.071  0.500
   - k =  -0.146  0.071  0.500
   - k =  -0.158  0.071  0.500
   - k =  -0.171  0.071  0.500
   - k =  -0.184  0.071  0.500
   - k =  -0.196  0.071  0.500
   - k =  -0.209  0.071  0.500
   - k =  -0.222  0.071  0.500
   - k =  -0.234  0.071  0.500
   - k =  -0.247  0.071  0.500
   - k =  -0.259  0.071  0.500
   - k =  -0.272  0.071  0.500
   - k =  -0.285  0.071  0.500
   - k =  -0.297  0.071  0.500
   - k =  -0.310  0.071  0.500
   - k =  -0.323  0.071  0.500
   - k =  -0.335  0.071  0.500
   - k =  -0.348  0.071  0.500
   - k =  -0.361  0.071  0.500
   - k =  -0.373  0.071  0.500
   - k =  -0.386  0.071  0.500
   - k =  -0.399  0.071  0.500
   - k =  -0.411  0.071  0.500
   - k =  -0.424  0.071  0.500
   - k =  -0.437  0.071  0.500
   - k =  -0.449  0.071  0.500
   - k =  -0.462  0.071  0.500
   - k =  -0.475  0.071  0.500
   - k =  -0.487  0.071  0.500
   - k =  -0.500  0.071  0.500

  |-> Computing Wannier center evolution at k-point number:     40
 Using pol_lapack_version = 2
 Calculating Berry  term along reciprocal lattice vector 1:     0.840     0.000     0.000
 Calculating dipole term along reciprocal lattice vector 1:     0.840     0.000     0.000

  Treating all   80 k-points in band plot segment #  41:
   Sampling over :
   - k =   0.500  0.214 -0.500
   - k =   0.487  0.214 -0.500
   - k =   0.475  0.214 -0.500
   - k =   0.462  0.214 -0.500
   - k =   0.449  0.214 -0.500
   - k =   0.437  0.214 -0.500
   - k =   0.424  0.214 -0.500
   - k =   0.411  0.214 -0.500
   - k =   0.399  0.214 -0.500
   - k =   0.386  0.214 -0.500
   - k =   0.373  0.214 -0.500
   - k =   0.361  0.214 -0.500
   - k =   0.348  0.214 -0.500
   - k =   0.335  0.214 -0.500
   - k =   0.323  0.214 -0.500
   - k =   0.310  0.214 -0.500
   - k =   0.297  0.214 -0.500
   - k =   0.285  0.214 -0.500
   - k =   0.272  0.214 -0.500
   - k =   0.259  0.214 -0.500
   - k =   0.247  0.214 -0.500
   - k =   0.234  0.214 -0.500
   - k =   0.222  0.214 -0.500
   - k =   0.209  0.214 -0.500
   - k =   0.196  0.214 -0.500
   - k =   0.184  0.214 -0.500
   - k =   0.171  0.214 -0.500
   - k =   0.158  0.214 -0.500
   - k =   0.146  0.214 -0.500
   - k =   0.133  0.214 -0.500
   - k =   0.120  0.214 -0.500
   - k =   0.108  0.214 -0.500
   - k =   0.095  0.214 -0.500
   - k =   0.082  0.214 -0.500
   - k =   0.070  0.214 -0.500
   - k =   0.057  0.214 -0.500
   - k =   0.044  0.214 -0.500
   - k =   0.032  0.214 -0.500
   - k =   0.019  0.214 -0.500
   - k =   0.006  0.214 -0.500
   - k =  -0.006  0.214 -0.500
   - k =  -0.019  0.214 -0.500
   - k =  -0.032  0.214 -0.500
   - k =  -0.044  0.214 -0.500
   - k =  -0.057  0.214 -0.500
   - k =  -0.070  0.214 -0.500
   - k =  -0.082  0.214 -0.500
   - k =  -0.095  0.214 -0.500
   - k =  -0.108  0.214 -0.500
   - k =  -0.120  0.214 -0.500
   - k =  -0.133  0.214 -0.500
   - k =  -0.146  0.214 -0.500
   - k =  -0.158  0.214 -0.500
   - k =  -0.171  0.214 -0.500
   - k =  -0.184  0.214 -0.500
   - k =  -0.196  0.214 -0.500
   - k =  -0.209  0.214 -0.500
   - k =  -0.222  0.214 -0.500
   - k =  -0.234  0.214 -0.500
   - k =  -0.247  0.214 -0.500
   - k =  -0.259  0.214 -0.500
   - k =  -0.272  0.214 -0.500
   - k =  -0.285  0.214 -0.500
   - k =  -0.297  0.214 -0.500
   - k =  -0.310  0.214 -0.500
   - k =  -0.323  0.214 -0.500
   - k =  -0.335  0.214 -0.500
   - k =  -0.348  0.214 -0.500
   - k =  -0.361  0.214 -0.500
   - k =  -0.373  0.214 -0.500
   - k =  -0.386  0.214 -0.500
   - k =  -0.399  0.214 -0.500
   - k =  -0.411  0.214 -0.500
   - k =  -0.424  0.214 -0.500
   - k =  -0.437  0.214 -0.500
   - k =  -0.449  0.214 -0.500
   - k =  -0.462  0.214 -0.500
   - k =  -0.475  0.214 -0.500
   - k =  -0.487  0.214 -0.500
   - k =  -0.500  0.214 -0.500

  |-> Computing Wannier center evolution at k-point number:     41
 Using pol_lapack_version = 2
 Calculating Berry  term along reciprocal lattice vector 1:     0.840     0.000     0.000
 Calculating dipole term along reciprocal lattice vector 1:     0.840     0.000     0.000

  Treating all   80 k-points in band plot segment #  42:
   Sampling over :
   - k =   0.500  0.214 -0.357
   - k =   0.487  0.214 -0.357
   - k =   0.475  0.214 -0.357
   - k =   0.462  0.214 -0.357
   - k =   0.449  0.214 -0.357
   - k =   0.437  0.214 -0.357
   - k =   0.424  0.214 -0.357
   - k =   0.411  0.214 -0.357
   - k =   0.399  0.214 -0.357
   - k =   0.386  0.214 -0.357
   - k =   0.373  0.214 -0.357
   - k =   0.361  0.214 -0.357
   - k =   0.348  0.214 -0.357
   - k =   0.335  0.214 -0.357
   - k =   0.323  0.214 -0.357
   - k =   0.310  0.214 -0.357
   - k =   0.297  0.214 -0.357
   - k =   0.285  0.214 -0.357
   - k =   0.272  0.214 -0.357
   - k =   0.259  0.214 -0.357
   - k =   0.247  0.214 -0.357
   - k =   0.234  0.214 -0.357
   - k =   0.222  0.214 -0.357
   - k =   0.209  0.214 -0.357
   - k =   0.196  0.214 -0.357
   - k =   0.184  0.214 -0.357
   - k =   0.171  0.214 -0.357
   - k =   0.158  0.214 -0.357
   - k =   0.146  0.214 -0.357
   - k =   0.133  0.214 -0.357
   - k =   0.120  0.214 -0.357
   - k =   0.108  0.214 -0.357
   - k =   0.095  0.214 -0.357
   - k =   0.082  0.214 -0.357
   - k =   0.070  0.214 -0.357
   - k =   0.057  0.214 -0.357
   - k =   0.044  0.214 -0.357
   - k =   0.032  0.214 -0.357
   - k =   0.019  0.214 -0.357
   - k =   0.006  0.214 -0.357
   - k =  -0.006  0.214 -0.357
   - k =  -0.019  0.214 -0.357
   - k =  -0.032  0.214 -0.357
   - k =  -0.044  0.214 -0.357
   - k =  -0.057  0.214 -0.357
   - k =  -0.070  0.214 -0.357
   - k =  -0.082  0.214 -0.357
   - k =  -0.095  0.214 -0.357
   - k =  -0.108  0.214 -0.357
   - k =  -0.120  0.214 -0.357
   - k =  -0.133  0.214 -0.357
   - k =  -0.146  0.214 -0.357
   - k =  -0.158  0.214 -0.357
   - k =  -0.171  0.214 -0.357
   - k =  -0.184  0.214 -0.357
   - k =  -0.196  0.214 -0.357
   - k =  -0.209  0.214 -0.357
   - k =  -0.222  0.214 -0.357
   - k =  -0.234  0.214 -0.357
   - k =  -0.247  0.214 -0.357
   - k =  -0.259  0.214 -0.357
   - k =  -0.272  0.214 -0.357
   - k =  -0.285  0.214 -0.357
   - k =  -0.297  0.214 -0.357
   - k =  -0.310  0.214 -0.357
   - k =  -0.323  0.214 -0.357
   - k =  -0.335  0.214 -0.357
   - k =  -0.348  0.214 -0.357
   - k =  -0.361  0.214 -0.357
   - k =  -0.373  0.214 -0.357
   - k =  -0.386  0.214 -0.357
   - k =  -0.399  0.214 -0.357
   - k =  -0.411  0.214 -0.357
   - k =  -0.424  0.214 -0.357
   - k =  -0.437  0.214 -0.357
   - k =  -0.449  0.214 -0.357
   - k =  -0.462  0.214 -0.357
   - k =  -0.475  0.214 -0.357
   - k =  -0.487  0.214 -0.357
   - k =  -0.500  0.214 -0.357

  |-> Computing Wannier center evolution at k-point number:     42
 Using pol_lapack_version = 2
 Calculating Berry  term along reciprocal lattice vector 1:     0.840     0.000     0.000
 Calculating dipole term along reciprocal lattice vector 1:     0.840     0.000     0.000

  Treating all   80 k-points in band plot segment #  43:
   Sampling over :
   - k =   0.500  0.214 -0.214
   - k =   0.487  0.214 -0.214
   - k =   0.475  0.214 -0.214
   - k =   0.462  0.214 -0.214
   - k =   0.449  0.214 -0.214
   - k =   0.437  0.214 -0.214
   - k =   0.424  0.214 -0.214
   - k =   0.411  0.214 -0.214
   - k =   0.399  0.214 -0.214
   - k =   0.386  0.214 -0.214
   - k =   0.373  0.214 -0.214
   - k =   0.361  0.214 -0.214
   - k =   0.348  0.214 -0.214
   - k =   0.335  0.214 -0.214
   - k =   0.323  0.214 -0.214
   - k =   0.310  0.214 -0.214
   - k =   0.297  0.214 -0.214
   - k =   0.285  0.214 -0.214
   - k =   0.272  0.214 -0.214
   - k =   0.259  0.214 -0.214
   - k =   0.247  0.214 -0.214
   - k =   0.234  0.214 -0.214
   - k =   0.222  0.214 -0.214
   - k =   0.209  0.214 -0.214
   - k =   0.196  0.214 -0.214
   - k =   0.184  0.214 -0.214
   - k =   0.171  0.214 -0.214
   - k =   0.158  0.214 -0.214
   - k =   0.146  0.214 -0.214
   - k =   0.133  0.214 -0.214
   - k =   0.120  0.214 -0.214
   - k =   0.108  0.214 -0.214
   - k =   0.095  0.214 -0.214
   - k =   0.082  0.214 -0.214
   - k =   0.070  0.214 -0.214
   - k =   0.057  0.214 -0.214
   - k =   0.044  0.214 -0.214
   - k =   0.032  0.214 -0.214
   - k =   0.019  0.214 -0.214
   - k =   0.006  0.214 -0.214
   - k =  -0.006  0.214 -0.214
   - k =  -0.019  0.214 -0.214
   - k =  -0.032  0.214 -0.214
   - k =  -0.044  0.214 -0.214
   - k =  -0.057  0.214 -0.214
   - k =  -0.070  0.214 -0.214
   - k =  -0.082  0.214 -0.214
   - k =  -0.095  0.214 -0.214
   - k =  -0.108  0.214 -0.214
   - k =  -0.120  0.214 -0.214
   - k =  -0.133  0.214 -0.214
   - k =  -0.146  0.214 -0.214
   - k =  -0.158  0.214 -0.214
   - k =  -0.171  0.214 -0.214
   - k =  -0.184  0.214 -0.214
   - k =  -0.196  0.214 -0.214
   - k =  -0.209  0.214 -0.214
   - k =  -0.222  0.214 -0.214
   - k =  -0.234  0.214 -0.214
   - k =  -0.247  0.214 -0.214
   - k =  -0.259  0.214 -0.214
   - k =  -0.272  0.214 -0.214
   - k =  -0.285  0.214 -0.214
   - k =  -0.297  0.214 -0.214
   - k =  -0.310  0.214 -0.214
   - k =  -0.323  0.214 -0.214
   - k =  -0.335  0.214 -0.214
   - k =  -0.348  0.214 -0.214
   - k =  -0.361  0.214 -0.214
   - k =  -0.373  0.214 -0.214
   - k =  -0.386  0.214 -0.214
   - k =  -0.399  0.214 -0.214
   - k =  -0.411  0.214 -0.214
   - k =  -0.424  0.214 -0.214
   - k =  -0.437  0.214 -0.214
   - k =  -0.449  0.214 -0.214
   - k =  -0.462  0.214 -0.214
   - k =  -0.475  0.214 -0.214
   - k =  -0.487  0.214 -0.214
   - k =  -0.500  0.214 -0.214

  |-> Computing Wannier center evolution at k-point number:     43
 Using pol_lapack_version = 2
 Calculating Berry  term along reciprocal lattice vector 1:     0.840     0.000     0.000
 Calculating dipole term along reciprocal lattice vector 1:     0.840     0.000     0.000

  Treating all   80 k-points in band plot segment #  44:
   Sampling over :
   - k =   0.500  0.214 -0.071
   - k =   0.487  0.214 -0.071
   - k =   0.475  0.214 -0.071
   - k =   0.462  0.214 -0.071
   - k =   0.449  0.214 -0.071
   - k =   0.437  0.214 -0.071
   - k =   0.424  0.214 -0.071
   - k =   0.411  0.214 -0.071
   - k =   0.399  0.214 -0.071
   - k =   0.386  0.214 -0.071
   - k =   0.373  0.214 -0.071
   - k =   0.361  0.214 -0.071
   - k =   0.348  0.214 -0.071
   - k =   0.335  0.214 -0.071
   - k =   0.323  0.214 -0.071
   - k =   0.310  0.214 -0.071
   - k =   0.297  0.214 -0.071
   - k =   0.285  0.214 -0.071
   - k =   0.272  0.214 -0.071
   - k =   0.259  0.214 -0.071
   - k =   0.247  0.214 -0.071
   - k =   0.234  0.214 -0.071
   - k =   0.222  0.214 -0.071
   - k =   0.209  0.214 -0.071
   - k =   0.196  0.214 -0.071
   - k =   0.184  0.214 -0.071
   - k =   0.171  0.214 -0.071
   - k =   0.158  0.214 -0.071
   - k =   0.146  0.214 -0.071
   - k =   0.133  0.214 -0.071
   - k =   0.120  0.214 -0.071
   - k =   0.108  0.214 -0.071
   - k =   0.095  0.214 -0.071
   - k =   0.082  0.214 -0.071
   - k =   0.070  0.214 -0.071
   - k =   0.057  0.214 -0.071
   - k =   0.044  0.214 -0.071
   - k =   0.032  0.214 -0.071
   - k =   0.019  0.214 -0.071
   - k =   0.006  0.214 -0.071
   - k =  -0.006  0.214 -0.071
   - k =  -0.019  0.214 -0.071
   - k =  -0.032  0.214 -0.071
   - k =  -0.044  0.214 -0.071
   - k =  -0.057  0.214 -0.071
   - k =  -0.070  0.214 -0.071
   - k =  -0.082  0.214 -0.071
   - k =  -0.095  0.214 -0.071
   - k =  -0.108  0.214 -0.071
   - k =  -0.120  0.214 -0.071
   - k =  -0.133  0.214 -0.071
   - k =  -0.146  0.214 -0.071
   - k =  -0.158  0.214 -0.071
   - k =  -0.171  0.214 -0.071
   - k =  -0.184  0.214 -0.071
   - k =  -0.196  0.214 -0.071
   - k =  -0.209  0.214 -0.071
   - k =  -0.222  0.214 -0.071
   - k =  -0.234  0.214 -0.071
   - k =  -0.247  0.214 -0.071
   - k =  -0.259  0.214 -0.071
   - k =  -0.272  0.214 -0.071
   - k =  -0.285  0.214 -0.071
   - k =  -0.297  0.214 -0.071
   - k =  -0.310  0.214 -0.071
   - k =  -0.323  0.214 -0.071
   - k =  -0.335  0.214 -0.071
   - k =  -0.348  0.214 -0.071
   - k =  -0.361  0.214 -0.071
   - k =  -0.373  0.214 -0.071
   - k =  -0.386  0.214 -0.071
   - k =  -0.399  0.214 -0.071
   - k =  -0.411  0.214 -0.071
   - k =  -0.424  0.214 -0.071
   - k =  -0.437  0.214 -0.071
   - k =  -0.449  0.214 -0.071
   - k =  -0.462  0.214 -0.071
   - k =  -0.475  0.214 -0.071
   - k =  -0.487  0.214 -0.071
   - k =  -0.500  0.214 -0.071

  |-> Computing Wannier center evolution at k-point number:     44
 Using pol_lapack_version = 2
 Calculating Berry  term along reciprocal lattice vector 1:     0.840     0.000     0.000
 Calculating dipole term along reciprocal lattice vector 1:     0.840     0.000     0.000

  Treating all   80 k-points in band plot segment #  45:
   Sampling over :
   - k =   0.500  0.214  0.071
   - k =   0.487  0.214  0.071
   - k =   0.475  0.214  0.071
   - k =   0.462  0.214  0.071
   - k =   0.449  0.214  0.071
   - k =   0.437  0.214  0.071
   - k =   0.424  0.214  0.071
   - k =   0.411  0.214  0.071
   - k =   0.399  0.214  0.071
   - k =   0.386  0.214  0.071
   - k =   0.373  0.214  0.071
   - k =   0.361  0.214  0.071
   - k =   0.348  0.214  0.071
   - k =   0.335  0.214  0.071
   - k =   0.323  0.214  0.071
   - k =   0.310  0.214  0.071
   - k =   0.297  0.214  0.071
   - k =   0.285  0.214  0.071
   - k =   0.272  0.214  0.071
   - k =   0.259  0.214  0.071
   - k =   0.247  0.214  0.071
   - k =   0.234  0.214  0.071
   - k =   0.222  0.214  0.071
   - k =   0.209  0.214  0.071
   - k =   0.196  0.214  0.071
   - k =   0.184  0.214  0.071
   - k =   0.171  0.214  0.071
   - k =   0.158  0.214  0.071
   - k =   0.146  0.214  0.071
   - k =   0.133  0.214  0.071
   - k =   0.120  0.214  0.071
   - k =   0.108  0.214  0.071
   - k =   0.095  0.214  0.071
   - k =   0.082  0.214  0.071
   - k =   0.070  0.214  0.071
   - k =   0.057  0.214  0.071
   - k =   0.044  0.214  0.071
   - k =   0.032  0.214  0.071
   - k =   0.019  0.214  0.071
   - k =   0.006  0.214  0.071
   - k =  -0.006  0.214  0.071
   - k =  -0.019  0.214  0.071
   - k =  -0.032  0.214  0.071
   - k =  -0.044  0.214  0.071
   - k =  -0.057  0.214  0.071
   - k =  -0.070  0.214  0.071
   - k =  -0.082  0.214  0.071
   - k =  -0.095  0.214  0.071
   - k =  -0.108  0.214  0.071
   - k =  -0.120  0.214  0.071
   - k =  -0.133  0.214  0.071
   - k =  -0.146  0.214  0.071
   - k =  -0.158  0.214  0.071
   - k =  -0.171  0.214  0.071
   - k =  -0.184  0.214  0.071
   - k =  -0.196  0.214  0.071
   - k =  -0.209  0.214  0.071
   - k =  -0.222  0.214  0.071
   - k =  -0.234  0.214  0.071
   - k =  -0.247  0.214  0.071
   - k =  -0.259  0.214  0.071
   - k =  -0.272  0.214  0.071
   - k =  -0.285  0.214  0.071
   - k =  -0.297  0.214  0.071
   - k =  -0.310  0.214  0.071
   - k =  -0.323  0.214  0.071
   - k =  -0.335  0.214  0.071
   - k =  -0.348  0.214  0.071
   - k =  -0.361  0.214  0.071
   - k =  -0.373  0.214  0.071
   - k =  -0.386  0.214  0.071
   - k =  -0.399  0.214  0.071
   - k =  -0.411  0.214  0.071
   - k =  -0.424  0.214  0.071
   - k =  -0.437  0.214  0.071
   - k =  -0.449  0.214  0.071
   - k =  -0.462  0.214  0.071
   - k =  -0.475  0.214  0.071
   - k =  -0.487  0.214  0.071
   - k =  -0.500  0.214  0.071

  |-> Computing Wannier center evolution at k-point number:     45
 Using pol_lapack_version = 2
 Calculating Berry  term along reciprocal lattice vector 1:     0.840     0.000     0.000
 Calculating dipole term along reciprocal lattice vector 1:     0.840     0.000     0.000

  Treating all   80 k-points in band plot segment #  46:
   Sampling over :
   - k =   0.500  0.214  0.214
   - k =   0.487  0.214  0.214
   - k =   0.475  0.214  0.214
   - k =   0.462  0.214  0.214
   - k =   0.449  0.214  0.214
   - k =   0.437  0.214  0.214
   - k =   0.424  0.214  0.214
   - k =   0.411  0.214  0.214
   - k =   0.399  0.214  0.214
   - k =   0.386  0.214  0.214
   - k =   0.373  0.214  0.214
   - k =   0.361  0.214  0.214
   - k =   0.348  0.214  0.214
   - k =   0.335  0.214  0.214
   - k =   0.323  0.214  0.214
   - k =   0.310  0.214  0.214
   - k =   0.297  0.214  0.214
   - k =   0.285  0.214  0.214
   - k =   0.272  0.214  0.214
   - k =   0.259  0.214  0.214
   - k =   0.247  0.214  0.214
   - k =   0.234  0.214  0.214
   - k =   0.222  0.214  0.214
   - k =   0.209  0.214  0.214
   - k =   0.196  0.214  0.214
   - k =   0.184  0.214  0.214
   - k =   0.171  0.214  0.214
   - k =   0.158  0.214  0.214
   - k =   0.146  0.214  0.214
   - k =   0.133  0.214  0.214
   - k =   0.120  0.214  0.214
   - k =   0.108  0.214  0.214
   - k =   0.095  0.214  0.214
   - k =   0.082  0.214  0.214
   - k =   0.070  0.214  0.214
   - k =   0.057  0.214  0.214
   - k =   0.044  0.214  0.214
   - k =   0.032  0.214  0.214
   - k =   0.019  0.214  0.214
   - k =   0.006  0.214  0.214
   - k =  -0.006  0.214  0.214
   - k =  -0.019  0.214  0.214
   - k =  -0.032  0.214  0.214
   - k =  -0.044  0.214  0.214
   - k =  -0.057  0.214  0.214
   - k =  -0.070  0.214  0.214
   - k =  -0.082  0.214  0.214
   - k =  -0.095  0.214  0.214
   - k =  -0.108  0.214  0.214
   - k =  -0.120  0.214  0.214
   - k =  -0.133  0.214  0.214
   - k =  -0.146  0.214  0.214
   - k =  -0.158  0.214  0.214
   - k =  -0.171  0.214  0.214
   - k =  -0.184  0.214  0.214
   - k =  -0.196  0.214  0.214
   - k =  -0.209  0.214  0.214
   - k =  -0.222  0.214  0.214
   - k =  -0.234  0.214  0.214
   - k =  -0.247  0.214  0.214
   - k =  -0.259  0.214  0.214
   - k =  -0.272  0.214  0.214
   - k =  -0.285  0.214  0.214
   - k =  -0.297  0.214  0.214
   - k =  -0.310  0.214  0.214
   - k =  -0.323  0.214  0.214
   - k =  -0.335  0.214  0.214
   - k =  -0.348  0.214  0.214
   - k =  -0.361  0.214  0.214
   - k =  -0.373  0.214  0.214
   - k =  -0.386  0.214  0.214
   - k =  -0.399  0.214  0.214
   - k =  -0.411  0.214  0.214
   - k =  -0.424  0.214  0.214
   - k =  -0.437  0.214  0.214
   - k =  -0.449  0.214  0.214
   - k =  -0.462  0.214  0.214
   - k =  -0.475  0.214  0.214
   - k =  -0.487  0.214  0.214
   - k =  -0.500  0.214  0.214

  |-> Computing Wannier center evolution at k-point number:     46
 Using pol_lapack_version = 2
 Calculating Berry  term along reciprocal lattice vector 1:     0.840     0.000     0.000
 Calculating dipole term along reciprocal lattice vector 1:     0.840     0.000     0.000

  Treating all   80 k-points in band plot segment #  47:
   Sampling over :
   - k =   0.500  0.214  0.357
   - k =   0.487  0.214  0.357
   - k =   0.475  0.214  0.357
   - k =   0.462  0.214  0.357
   - k =   0.449  0.214  0.357
   - k =   0.437  0.214  0.357
   - k =   0.424  0.214  0.357
   - k =   0.411  0.214  0.357
   - k =   0.399  0.214  0.357
   - k =   0.386  0.214  0.357
   - k =   0.373  0.214  0.357
   - k =   0.361  0.214  0.357
   - k =   0.348  0.214  0.357
   - k =   0.335  0.214  0.357
   - k =   0.323  0.214  0.357
   - k =   0.310  0.214  0.357
   - k =   0.297  0.214  0.357
   - k =   0.285  0.214  0.357
   - k =   0.272  0.214  0.357
   - k =   0.259  0.214  0.357
   - k =   0.247  0.214  0.357
   - k =   0.234  0.214  0.357
   - k =   0.222  0.214  0.357
   - k =   0.209  0.214  0.357
   - k =   0.196  0.214  0.357
   - k =   0.184  0.214  0.357
   - k =   0.171  0.214  0.357
   - k =   0.158  0.214  0.357
   - k =   0.146  0.214  0.357
   - k =   0.133  0.214  0.357
   - k =   0.120  0.214  0.357
   - k =   0.108  0.214  0.357
   - k =   0.095  0.214  0.357
   - k =   0.082  0.214  0.357
   - k =   0.070  0.214  0.357
   - k =   0.057  0.214  0.357
   - k =   0.044  0.214  0.357
   - k =   0.032  0.214  0.357
   - k =   0.019  0.214  0.357
   - k =   0.006  0.214  0.357
   - k =  -0.006  0.214  0.357
   - k =  -0.019  0.214  0.357
   - k =  -0.032  0.214  0.357
   - k =  -0.044  0.214  0.357
   - k =  -0.057  0.214  0.357
   - k =  -0.070  0.214  0.357
   - k =  -0.082  0.214  0.357
   - k =  -0.095  0.214  0.357
   - k =  -0.108  0.214  0.357
   - k =  -0.120  0.214  0.357
   - k =  -0.133  0.214  0.357
   - k =  -0.146  0.214  0.357
   - k =  -0.158  0.214  0.357
   - k =  -0.171  0.214  0.357
   - k =  -0.184  0.214  0.357
   - k =  -0.196  0.214  0.357
   - k =  -0.209  0.214  0.357
   - k =  -0.222  0.214  0.357
   - k =  -0.234  0.214  0.357
   - k =  -0.247  0.214  0.357
   - k =  -0.259  0.214  0.357
   - k =  -0.272  0.214  0.357
   - k =  -0.285  0.214  0.357
   - k =  -0.297  0.214  0.357
   - k =  -0.310  0.214  0.357
   - k =  -0.323  0.214  0.357
   - k =  -0.335  0.214  0.357
   - k =  -0.348  0.214  0.357
   - k =  -0.361  0.214  0.357
   - k =  -0.373  0.214  0.357
   - k =  -0.386  0.214  0.357
   - k =  -0.399  0.214  0.357
   - k =  -0.411  0.214  0.357
   - k =  -0.424  0.214  0.357
   - k =  -0.437  0.214  0.357
   - k =  -0.449  0.214  0.357
   - k =  -0.462  0.214  0.357
   - k =  -0.475  0.214  0.357
   - k =  -0.487  0.214  0.357
   - k =  -0.500  0.214  0.357

  |-> Computing Wannier center evolution at k-point number:     47
 Using pol_lapack_version = 2
 Calculating Berry  term along reciprocal lattice vector 1:     0.840     0.000     0.000
 Calculating dipole term along reciprocal lattice vector 1:     0.840     0.000     0.000

  Treating all   80 k-points in band plot segment #  48:
   Sampling over :
   - k =   0.500  0.214  0.500
   - k =   0.487  0.214  0.500
   - k =   0.475  0.214  0.500
   - k =   0.462  0.214  0.500
   - k =   0.449  0.214  0.500
   - k =   0.437  0.214  0.500
   - k =   0.424  0.214  0.500
   - k =   0.411  0.214  0.500
   - k =   0.399  0.214  0.500
   - k =   0.386  0.214  0.500
   - k =   0.373  0.214  0.500
   - k =   0.361  0.214  0.500
   - k =   0.348  0.214  0.500
   - k =   0.335  0.214  0.500
   - k =   0.323  0.214  0.500
   - k =   0.310  0.214  0.500
   - k =   0.297  0.214  0.500
   - k =   0.285  0.214  0.500
   - k =   0.272  0.214  0.500
   - k =   0.259  0.214  0.500
   - k =   0.247  0.214  0.500
   - k =   0.234  0.214  0.500
   - k =   0.222  0.214  0.500
   - k =   0.209  0.214  0.500
   - k =   0.196  0.214  0.500
   - k =   0.184  0.214  0.500
   - k =   0.171  0.214  0.500
   - k =   0.158  0.214  0.500
   - k =   0.146  0.214  0.500
   - k =   0.133  0.214  0.500
   - k =   0.120  0.214  0.500
   - k =   0.108  0.214  0.500
   - k =   0.095  0.214  0.500
   - k =   0.082  0.214  0.500
   - k =   0.070  0.214  0.500
   - k =   0.057  0.214  0.500
   - k =   0.044  0.214  0.500
   - k =   0.032  0.214  0.500
   - k =   0.019  0.214  0.500
   - k =   0.006  0.214  0.500
   - k =  -0.006  0.214  0.500
   - k =  -0.019  0.214  0.500
   - k =  -0.032  0.214  0.500
   - k =  -0.044  0.214  0.500
   - k =  -0.057  0.214  0.500
   - k =  -0.070  0.214  0.500
   - k =  -0.082  0.214  0.500
   - k =  -0.095  0.214  0.500
   - k =  -0.108  0.214  0.500
   - k =  -0.120  0.214  0.500
   - k =  -0.133  0.214  0.500
   - k =  -0.146  0.214  0.500
   - k =  -0.158  0.214  0.500
   - k =  -0.171  0.214  0.500
   - k =  -0.184  0.214  0.500
   - k =  -0.196  0.214  0.500
   - k =  -0.209  0.214  0.500
   - k =  -0.222  0.214  0.500
   - k =  -0.234  0.214  0.500
   - k =  -0.247  0.214  0.500
   - k =  -0.259  0.214  0.500
   - k =  -0.272  0.214  0.500
   - k =  -0.285  0.214  0.500
   - k =  -0.297  0.214  0.500
   - k =  -0.310  0.214  0.500
   - k =  -0.323  0.214  0.500
   - k =  -0.335  0.214  0.500
   - k =  -0.348  0.214  0.500
   - k =  -0.361  0.214  0.500
   - k =  -0.373  0.214  0.500
   - k =  -0.386  0.214  0.500
   - k =  -0.399  0.214  0.500
   - k =  -0.411  0.214  0.500
   - k =  -0.424  0.214  0.500
   - k =  -0.437  0.214  0.500
   - k =  -0.449  0.214  0.500
   - k =  -0.462  0.214  0.500
   - k =  -0.475  0.214  0.500
   - k =  -0.487  0.214  0.500
   - k =  -0.500  0.214  0.500

  |-> Computing Wannier center evolution at k-point number:     48
 Using pol_lapack_version = 2
 Calculating Berry  term along reciprocal lattice vector 1:     0.840     0.000     0.000
 Calculating dipole term along reciprocal lattice vector 1:     0.840     0.000     0.000

  Treating all   80 k-points in band plot segment #  49:
   Sampling over :
   - k =   0.500  0.357 -0.500
   - k =   0.487  0.357 -0.500
   - k =   0.475  0.357 -0.500
   - k =   0.462  0.357 -0.500
   - k =   0.449  0.357 -0.500
   - k =   0.437  0.357 -0.500
   - k =   0.424  0.357 -0.500
   - k =   0.411  0.357 -0.500
   - k =   0.399  0.357 -0.500
   - k =   0.386  0.357 -0.500
   - k =   0.373  0.357 -0.500
   - k =   0.361  0.357 -0.500
   - k =   0.348  0.357 -0.500
   - k =   0.335  0.357 -0.500
   - k =   0.323  0.357 -0.500
   - k =   0.310  0.357 -0.500
   - k =   0.297  0.357 -0.500
   - k =   0.285  0.357 -0.500
   - k =   0.272  0.357 -0.500
   - k =   0.259  0.357 -0.500
   - k =   0.247  0.357 -0.500
   - k =   0.234  0.357 -0.500
   - k =   0.222  0.357 -0.500
   - k =   0.209  0.357 -0.500
   - k =   0.196  0.357 -0.500
   - k =   0.184  0.357 -0.500
   - k =   0.171  0.357 -0.500
   - k =   0.158  0.357 -0.500
   - k =   0.146  0.357 -0.500
   - k =   0.133  0.357 -0.500
   - k =   0.120  0.357 -0.500
   - k =   0.108  0.357 -0.500
   - k =   0.095  0.357 -0.500
   - k =   0.082  0.357 -0.500
   - k =   0.070  0.357 -0.500
   - k =   0.057  0.357 -0.500
   - k =   0.044  0.357 -0.500
   - k =   0.032  0.357 -0.500
   - k =   0.019  0.357 -0.500
   - k =   0.006  0.357 -0.500
   - k =  -0.006  0.357 -0.500
   - k =  -0.019  0.357 -0.500
   - k =  -0.032  0.357 -0.500
   - k =  -0.044  0.357 -0.500
   - k =  -0.057  0.357 -0.500
   - k =  -0.070  0.357 -0.500
   - k =  -0.082  0.357 -0.500
   - k =  -0.095  0.357 -0.500
   - k =  -0.108  0.357 -0.500
   - k =  -0.120  0.357 -0.500
   - k =  -0.133  0.357 -0.500
   - k =  -0.146  0.357 -0.500
   - k =  -0.158  0.357 -0.500
   - k =  -0.171  0.357 -0.500
   - k =  -0.184  0.357 -0.500
   - k =  -0.196  0.357 -0.500
   - k =  -0.209  0.357 -0.500
   - k =  -0.222  0.357 -0.500
   - k =  -0.234  0.357 -0.500
   - k =  -0.247  0.357 -0.500
   - k =  -0.259  0.357 -0.500
   - k =  -0.272  0.357 -0.500
   - k =  -0.285  0.357 -0.500
   - k =  -0.297  0.357 -0.500
   - k =  -0.310  0.357 -0.500
   - k =  -0.323  0.357 -0.500
   - k =  -0.335  0.357 -0.500
   - k =  -0.348  0.357 -0.500
   - k =  -0.361  0.357 -0.500
   - k =  -0.373  0.357 -0.500
   - k =  -0.386  0.357 -0.500
   - k =  -0.399  0.357 -0.500
   - k =  -0.411  0.357 -0.500
   - k =  -0.424  0.357 -0.500
   - k =  -0.437  0.357 -0.500
   - k =  -0.449  0.357 -0.500
   - k =  -0.462  0.357 -0.500
   - k =  -0.475  0.357 -0.500
   - k =  -0.487  0.357 -0.500
   - k =  -0.500  0.357 -0.500

  |-> Computing Wannier center evolution at k-point number:     49
 Using pol_lapack_version = 2
 Calculating Berry  term along reciprocal lattice vector 1:     0.840     0.000     0.000
 Calculating dipole term along reciprocal lattice vector 1:     0.840     0.000     0.000

  Treating all   80 k-points in band plot segment #  50:
   Sampling over :
   - k =   0.500  0.357 -0.357
   - k =   0.487  0.357 -0.357
   - k =   0.475  0.357 -0.357
   - k =   0.462  0.357 -0.357
   - k =   0.449  0.357 -0.357
   - k =   0.437  0.357 -0.357
   - k =   0.424  0.357 -0.357
   - k =   0.411  0.357 -0.357
   - k =   0.399  0.357 -0.357
   - k =   0.386  0.357 -0.357
   - k =   0.373  0.357 -0.357
   - k =   0.361  0.357 -0.357
   - k =   0.348  0.357 -0.357
   - k =   0.335  0.357 -0.357
   - k =   0.323  0.357 -0.357
   - k =   0.310  0.357 -0.357
   - k =   0.297  0.357 -0.357
   - k =   0.285  0.357 -0.357
   - k =   0.272  0.357 -0.357
   - k =   0.259  0.357 -0.357
   - k =   0.247  0.357 -0.357
   - k =   0.234  0.357 -0.357
   - k =   0.222  0.357 -0.357
   - k =   0.209  0.357 -0.357
   - k =   0.196  0.357 -0.357
   - k =   0.184  0.357 -0.357
   - k =   0.171  0.357 -0.357
   - k =   0.158  0.357 -0.357
   - k =   0.146  0.357 -0.357
   - k =   0.133  0.357 -0.357
   - k =   0.120  0.357 -0.357
   - k =   0.108  0.357 -0.357
   - k =   0.095  0.357 -0.357
   - k =   0.082  0.357 -0.357
   - k =   0.070  0.357 -0.357
   - k =   0.057  0.357 -0.357
   - k =   0.044  0.357 -0.357
   - k =   0.032  0.357 -0.357
   - k =   0.019  0.357 -0.357
   - k =   0.006  0.357 -0.357
   - k =  -0.006  0.357 -0.357
   - k =  -0.019  0.357 -0.357
   - k =  -0.032  0.357 -0.357
   - k =  -0.044  0.357 -0.357
   - k =  -0.057  0.357 -0.357
   - k =  -0.070  0.357 -0.357
   - k =  -0.082  0.357 -0.357
   - k =  -0.095  0.357 -0.357
   - k =  -0.108  0.357 -0.357
   - k =  -0.120  0.357 -0.357
   - k =  -0.133  0.357 -0.357
   - k =  -0.146  0.357 -0.357
   - k =  -0.158  0.357 -0.357
   - k =  -0.171  0.357 -0.357
   - k =  -0.184  0.357 -0.357
   - k =  -0.196  0.357 -0.357
   - k =  -0.209  0.357 -0.357
   - k =  -0.222  0.357 -0.357
   - k =  -0.234  0.357 -0.357
   - k =  -0.247  0.357 -0.357
   - k =  -0.259  0.357 -0.357
   - k =  -0.272  0.357 -0.357
   - k =  -0.285  0.357 -0.357
   - k =  -0.297  0.357 -0.357
   - k =  -0.310  0.357 -0.357
   - k =  -0.323  0.357 -0.357
   - k =  -0.335  0.357 -0.357
   - k =  -0.348  0.357 -0.357
   - k =  -0.361  0.357 -0.357
   - k =  -0.373  0.357 -0.357
   - k =  -0.386  0.357 -0.357
   - k =  -0.399  0.357 -0.357
   - k =  -0.411  0.357 -0.357
   - k =  -0.424  0.357 -0.357
   - k =  -0.437  0.357 -0.357
   - k =  -0.449  0.357 -0.357
   - k =  -0.462  0.357 -0.357
   - k =  -0.475  0.357 -0.357
   - k =  -0.487  0.357 -0.357
   - k =  -0.500  0.357 -0.357

  |-> Computing Wannier center evolution at k-point number:     50
 Using pol_lapack_version = 2
 Calculating Berry  term along reciprocal lattice vector 1:     0.840     0.000     0.000
 Calculating dipole term along reciprocal lattice vector 1:     0.840     0.000     0.000

  Treating all   80 k-points in band plot segment #  51:
   Sampling over :
   - k =   0.500  0.357 -0.214
   - k =   0.487  0.357 -0.214
   - k =   0.475  0.357 -0.214
   - k =   0.462  0.357 -0.214
   - k =   0.449  0.357 -0.214
   - k =   0.437  0.357 -0.214
   - k =   0.424  0.357 -0.214
   - k =   0.411  0.357 -0.214
   - k =   0.399  0.357 -0.214
   - k =   0.386  0.357 -0.214
   - k =   0.373  0.357 -0.214
   - k =   0.361  0.357 -0.214
   - k =   0.348  0.357 -0.214
   - k =   0.335  0.357 -0.214
   - k =   0.323  0.357 -0.214
   - k =   0.310  0.357 -0.214
   - k =   0.297  0.357 -0.214
   - k =   0.285  0.357 -0.214
   - k =   0.272  0.357 -0.214
   - k =   0.259  0.357 -0.214
   - k =   0.247  0.357 -0.214
   - k =   0.234  0.357 -0.214
   - k =   0.222  0.357 -0.214
   - k =   0.209  0.357 -0.214
   - k =   0.196  0.357 -0.214
   - k =   0.184  0.357 -0.214
   - k =   0.171  0.357 -0.214
   - k =   0.158  0.357 -0.214
   - k =   0.146  0.357 -0.214
   - k =   0.133  0.357 -0.214
   - k =   0.120  0.357 -0.214
   - k =   0.108  0.357 -0.214
   - k =   0.095  0.357 -0.214
   - k =   0.082  0.357 -0.214
   - k =   0.070  0.357 -0.214
   - k =   0.057  0.357 -0.214
   - k =   0.044  0.357 -0.214
   - k =   0.032  0.357 -0.214
   - k =   0.019  0.357 -0.214
   - k =   0.006  0.357 -0.214
   - k =  -0.006  0.357 -0.214
   - k =  -0.019  0.357 -0.214
   - k =  -0.032  0.357 -0.214
   - k =  -0.044  0.357 -0.214
   - k =  -0.057  0.357 -0.214
   - k =  -0.070  0.357 -0.214
   - k =  -0.082  0.357 -0.214
   - k =  -0.095  0.357 -0.214
   - k =  -0.108  0.357 -0.214
   - k =  -0.120  0.357 -0.214
   - k =  -0.133  0.357 -0.214
   - k =  -0.146  0.357 -0.214
   - k =  -0.158  0.357 -0.214
   - k =  -0.171  0.357 -0.214
   - k =  -0.184  0.357 -0.214
   - k =  -0.196  0.357 -0.214
   - k =  -0.209  0.357 -0.214
   - k =  -0.222  0.357 -0.214
   - k =  -0.234  0.357 -0.214
   - k =  -0.247  0.357 -0.214
   - k =  -0.259  0.357 -0.214
   - k =  -0.272  0.357 -0.214
   - k =  -0.285  0.357 -0.214
   - k =  -0.297  0.357 -0.214
   - k =  -0.310  0.357 -0.214
   - k =  -0.323  0.357 -0.214
   - k =  -0.335  0.357 -0.214
   - k =  -0.348  0.357 -0.214
   - k =  -0.361  0.357 -0.214
   - k =  -0.373  0.357 -0.214
   - k =  -0.386  0.357 -0.214
   - k =  -0.399  0.357 -0.214
   - k =  -0.411  0.357 -0.214
   - k =  -0.424  0.357 -0.214
   - k =  -0.437  0.357 -0.214
   - k =  -0.449  0.357 -0.214
   - k =  -0.462  0.357 -0.214
   - k =  -0.475  0.357 -0.214
   - k =  -0.487  0.357 -0.214
   - k =  -0.500  0.357 -0.214

  |-> Computing Wannier center evolution at k-point number:     51
 Using pol_lapack_version = 2
 Calculating Berry  term along reciprocal lattice vector 1:     0.840     0.000     0.000
 Calculating dipole term along reciprocal lattice vector 1:     0.840     0.000     0.000

  Treating all   80 k-points in band plot segment #  52:
   Sampling over :
   - k =   0.500  0.357 -0.071
   - k =   0.487  0.357 -0.071
   - k =   0.475  0.357 -0.071
   - k =   0.462  0.357 -0.071
   - k =   0.449  0.357 -0.071
   - k =   0.437  0.357 -0.071
   - k =   0.424  0.357 -0.071
   - k =   0.411  0.357 -0.071
   - k =   0.399  0.357 -0.071
   - k =   0.386  0.357 -0.071
   - k =   0.373  0.357 -0.071
   - k =   0.361  0.357 -0.071
   - k =   0.348  0.357 -0.071
   - k =   0.335  0.357 -0.071
   - k =   0.323  0.357 -0.071
   - k =   0.310  0.357 -0.071
   - k =   0.297  0.357 -0.071
   - k =   0.285  0.357 -0.071
   - k =   0.272  0.357 -0.071
   - k =   0.259  0.357 -0.071
   - k =   0.247  0.357 -0.071
   - k =   0.234  0.357 -0.071
   - k =   0.222  0.357 -0.071
   - k =   0.209  0.357 -0.071
   - k =   0.196  0.357 -0.071
   - k =   0.184  0.357 -0.071
   - k =   0.171  0.357 -0.071
   - k =   0.158  0.357 -0.071
   - k =   0.146  0.357 -0.071
   - k =   0.133  0.357 -0.071
   - k =   0.120  0.357 -0.071
   - k =   0.108  0.357 -0.071
   - k =   0.095  0.357 -0.071
   - k =   0.082  0.357 -0.071
   - k =   0.070  0.357 -0.071
   - k =   0.057  0.357 -0.071
   - k =   0.044  0.357 -0.071
   - k =   0.032  0.357 -0.071
   - k =   0.019  0.357 -0.071
   - k =   0.006  0.357 -0.071
   - k =  -0.006  0.357 -0.071
   - k =  -0.019  0.357 -0.071
   - k =  -0.032  0.357 -0.071
   - k =  -0.044  0.357 -0.071
   - k =  -0.057  0.357 -0.071
   - k =  -0.070  0.357 -0.071
   - k =  -0.082  0.357 -0.071
   - k =  -0.095  0.357 -0.071
   - k =  -0.108  0.357 -0.071
   - k =  -0.120  0.357 -0.071
   - k =  -0.133  0.357 -0.071
   - k =  -0.146  0.357 -0.071
   - k =  -0.158  0.357 -0.071
   - k =  -0.171  0.357 -0.071
   - k =  -0.184  0.357 -0.071
   - k =  -0.196  0.357 -0.071
   - k =  -0.209  0.357 -0.071
   - k =  -0.222  0.357 -0.071
   - k =  -0.234  0.357 -0.071
   - k =  -0.247  0.357 -0.071
   - k =  -0.259  0.357 -0.071
   - k =  -0.272  0.357 -0.071
   - k =  -0.285  0.357 -0.071
   - k =  -0.297  0.357 -0.071
   - k =  -0.310  0.357 -0.071
   - k =  -0.323  0.357 -0.071
   - k =  -0.335  0.357 -0.071
   - k =  -0.348  0.357 -0.071
   - k =  -0.361  0.357 -0.071
   - k =  -0.373  0.357 -0.071
   - k =  -0.386  0.357 -0.071
   - k =  -0.399  0.357 -0.071
   - k =  -0.411  0.357 -0.071
   - k =  -0.424  0.357 -0.071
   - k =  -0.437  0.357 -0.071
   - k =  -0.449  0.357 -0.071
   - k =  -0.462  0.357 -0.071
   - k =  -0.475  0.357 -0.071
   - k =  -0.487  0.357 -0.071
   - k =  -0.500  0.357 -0.071

  |-> Computing Wannier center evolution at k-point number:     52
 Using pol_lapack_version = 2
 Calculating Berry  term along reciprocal lattice vector 1:     0.840     0.000     0.000
 Calculating dipole term along reciprocal lattice vector 1:     0.840     0.000     0.000

  Treating all   80 k-points in band plot segment #  53:
   Sampling over :
   - k =   0.500  0.357  0.071
   - k =   0.487  0.357  0.071
   - k =   0.475  0.357  0.071
   - k =   0.462  0.357  0.071
   - k =   0.449  0.357  0.071
   - k =   0.437  0.357  0.071
   - k =   0.424  0.357  0.071
   - k =   0.411  0.357  0.071
   - k =   0.399  0.357  0.071
   - k =   0.386  0.357  0.071
   - k =   0.373  0.357  0.071
   - k =   0.361  0.357  0.071
   - k =   0.348  0.357  0.071
   - k =   0.335  0.357  0.071
   - k =   0.323  0.357  0.071
   - k =   0.310  0.357  0.071
   - k =   0.297  0.357  0.071
   - k =   0.285  0.357  0.071
   - k =   0.272  0.357  0.071
   - k =   0.259  0.357  0.071
   - k =   0.247  0.357  0.071
   - k =   0.234  0.357  0.071
   - k =   0.222  0.357  0.071
   - k =   0.209  0.357  0.071
   - k =   0.196  0.357  0.071
   - k =   0.184  0.357  0.071
   - k =   0.171  0.357  0.071
   - k =   0.158  0.357  0.071
   - k =   0.146  0.357  0.071
   - k =   0.133  0.357  0.071
   - k =   0.120  0.357  0.071
   - k =   0.108  0.357  0.071
   - k =   0.095  0.357  0.071
   - k =   0.082  0.357  0.071
   - k =   0.070  0.357  0.071
   - k =   0.057  0.357  0.071
   - k =   0.044  0.357  0.071
   - k =   0.032  0.357  0.071
   - k =   0.019  0.357  0.071
   - k =   0.006  0.357  0.071
   - k =  -0.006  0.357  0.071
   - k =  -0.019  0.357  0.071
   - k =  -0.032  0.357  0.071
   - k =  -0.044  0.357  0.071
   - k =  -0.057  0.357  0.071
   - k =  -0.070  0.357  0.071
   - k =  -0.082  0.357  0.071
   - k =  -0.095  0.357  0.071
   - k =  -0.108  0.357  0.071
   - k =  -0.120  0.357  0.071
   - k =  -0.133  0.357  0.071
   - k =  -0.146  0.357  0.071
   - k =  -0.158  0.357  0.071
   - k =  -0.171  0.357  0.071
   - k =  -0.184  0.357  0.071
   - k =  -0.196  0.357  0.071
   - k =  -0.209  0.357  0.071
   - k =  -0.222  0.357  0.071
   - k =  -0.234  0.357  0.071
   - k =  -0.247  0.357  0.071
   - k =  -0.259  0.357  0.071
   - k =  -0.272  0.357  0.071
   - k =  -0.285  0.357  0.071
   - k =  -0.297  0.357  0.071
   - k =  -0.310  0.357  0.071
   - k =  -0.323  0.357  0.071
   - k =  -0.335  0.357  0.071
   - k =  -0.348  0.357  0.071
   - k =  -0.361  0.357  0.071
   - k =  -0.373  0.357  0.071
   - k =  -0.386  0.357  0.071
   - k =  -0.399  0.357  0.071
   - k =  -0.411  0.357  0.071
   - k =  -0.424  0.357  0.071
   - k =  -0.437  0.357  0.071
   - k =  -0.449  0.357  0.071
   - k =  -0.462  0.357  0.071
   - k =  -0.475  0.357  0.071
   - k =  -0.487  0.357  0.071
   - k =  -0.500  0.357  0.071

  |-> Computing Wannier center evolution at k-point number:     53
 Using pol_lapack_version = 2
 Calculating Berry  term along reciprocal lattice vector 1:     0.840     0.000     0.000
 Calculating dipole term along reciprocal lattice vector 1:     0.840     0.000     0.000

  Treating all   80 k-points in band plot segment #  54:
   Sampling over :
   - k =   0.500  0.357  0.214
   - k =   0.487  0.357  0.214
   - k =   0.475  0.357  0.214
   - k =   0.462  0.357  0.214
   - k =   0.449  0.357  0.214
   - k =   0.437  0.357  0.214
   - k =   0.424  0.357  0.214
   - k =   0.411  0.357  0.214
   - k =   0.399  0.357  0.214
   - k =   0.386  0.357  0.214
   - k =   0.373  0.357  0.214
   - k =   0.361  0.357  0.214
   - k =   0.348  0.357  0.214
   - k =   0.335  0.357  0.214
   - k =   0.323  0.357  0.214
   - k =   0.310  0.357  0.214
   - k =   0.297  0.357  0.214
   - k =   0.285  0.357  0.214
   - k =   0.272  0.357  0.214
   - k =   0.259  0.357  0.214
   - k =   0.247  0.357  0.214
   - k =   0.234  0.357  0.214
   - k =   0.222  0.357  0.214
   - k =   0.209  0.357  0.214
   - k =   0.196  0.357  0.214
   - k =   0.184  0.357  0.214
   - k =   0.171  0.357  0.214
   - k =   0.158  0.357  0.214
   - k =   0.146  0.357  0.214
   - k =   0.133  0.357  0.214
   - k =   0.120  0.357  0.214
   - k =   0.108  0.357  0.214
   - k =   0.095  0.357  0.214
   - k =   0.082  0.357  0.214
   - k =   0.070  0.357  0.214
   - k =   0.057  0.357  0.214
   - k =   0.044  0.357  0.214
   - k =   0.032  0.357  0.214
   - k =   0.019  0.357  0.214
   - k =   0.006  0.357  0.214
   - k =  -0.006  0.357  0.214
   - k =  -0.019  0.357  0.214
   - k =  -0.032  0.357  0.214
   - k =  -0.044  0.357  0.214
   - k =  -0.057  0.357  0.214
   - k =  -0.070  0.357  0.214
   - k =  -0.082  0.357  0.214
   - k =  -0.095  0.357  0.214
   - k =  -0.108  0.357  0.214
   - k =  -0.120  0.357  0.214
   - k =  -0.133  0.357  0.214
   - k =  -0.146  0.357  0.214
   - k =  -0.158  0.357  0.214
   - k =  -0.171  0.357  0.214
   - k =  -0.184  0.357  0.214
   - k =  -0.196  0.357  0.214
   - k =  -0.209  0.357  0.214
   - k =  -0.222  0.357  0.214
   - k =  -0.234  0.357  0.214
   - k =  -0.247  0.357  0.214
   - k =  -0.259  0.357  0.214
   - k =  -0.272  0.357  0.214
   - k =  -0.285  0.357  0.214
   - k =  -0.297  0.357  0.214
   - k =  -0.310  0.357  0.214
   - k =  -0.323  0.357  0.214
   - k =  -0.335  0.357  0.214
   - k =  -0.348  0.357  0.214
   - k =  -0.361  0.357  0.214
   - k =  -0.373  0.357  0.214
   - k =  -0.386  0.357  0.214
   - k =  -0.399  0.357  0.214
   - k =  -0.411  0.357  0.214
   - k =  -0.424  0.357  0.214
   - k =  -0.437  0.357  0.214
   - k =  -0.449  0.357  0.214
   - k =  -0.462  0.357  0.214
   - k =  -0.475  0.357  0.214
   - k =  -0.487  0.357  0.214
   - k =  -0.500  0.357  0.214

  |-> Computing Wannier center evolution at k-point number:     54
 Using pol_lapack_version = 2
 Calculating Berry  term along reciprocal lattice vector 1:     0.840     0.000     0.000
 Calculating dipole term along reciprocal lattice vector 1:     0.840     0.000     0.000

  Treating all   80 k-points in band plot segment #  55:
   Sampling over :
   - k =   0.500  0.357  0.357
   - k =   0.487  0.357  0.357
   - k =   0.475  0.357  0.357
   - k =   0.462  0.357  0.357
   - k =   0.449  0.357  0.357
   - k =   0.437  0.357  0.357
   - k =   0.424  0.357  0.357
   - k =   0.411  0.357  0.357
   - k =   0.399  0.357  0.357
   - k =   0.386  0.357  0.357
   - k =   0.373  0.357  0.357
   - k =   0.361  0.357  0.357
   - k =   0.348  0.357  0.357
   - k =   0.335  0.357  0.357
   - k =   0.323  0.357  0.357
   - k =   0.310  0.357  0.357
   - k =   0.297  0.357  0.357
   - k =   0.285  0.357  0.357
   - k =   0.272  0.357  0.357
   - k =   0.259  0.357  0.357
   - k =   0.247  0.357  0.357
   - k =   0.234  0.357  0.357
   - k =   0.222  0.357  0.357
   - k =   0.209  0.357  0.357
   - k =   0.196  0.357  0.357
   - k =   0.184  0.357  0.357
   - k =   0.171  0.357  0.357
   - k =   0.158  0.357  0.357
   - k =   0.146  0.357  0.357
   - k =   0.133  0.357  0.357
   - k =   0.120  0.357  0.357
   - k =   0.108  0.357  0.357
   - k =   0.095  0.357  0.357
   - k =   0.082  0.357  0.357
   - k =   0.070  0.357  0.357
   - k =   0.057  0.357  0.357
   - k =   0.044  0.357  0.357
   - k =   0.032  0.357  0.357
   - k =   0.019  0.357  0.357
   - k =   0.006  0.357  0.357
   - k =  -0.006  0.357  0.357
   - k =  -0.019  0.357  0.357
   - k =  -0.032  0.357  0.357
   - k =  -0.044  0.357  0.357
   - k =  -0.057  0.357  0.357
   - k =  -0.070  0.357  0.357
   - k =  -0.082  0.357  0.357
   - k =  -0.095  0.357  0.357
   - k =  -0.108  0.357  0.357
   - k =  -0.120  0.357  0.357
   - k =  -0.133  0.357  0.357
   - k =  -0.146  0.357  0.357
   - k =  -0.158  0.357  0.357
   - k =  -0.171  0.357  0.357
   - k =  -0.184  0.357  0.357
   - k =  -0.196  0.357  0.357
   - k =  -0.209  0.357  0.357
   - k =  -0.222  0.357  0.357
   - k =  -0.234  0.357  0.357
   - k =  -0.247  0.357  0.357
   - k =  -0.259  0.357  0.357
   - k =  -0.272  0.357  0.357
   - k =  -0.285  0.357  0.357
   - k =  -0.297  0.357  0.357
   - k =  -0.310  0.357  0.357
   - k =  -0.323  0.357  0.357
   - k =  -0.335  0.357  0.357
   - k =  -0.348  0.357  0.357
   - k =  -0.361  0.357  0.357
   - k =  -0.373  0.357  0.357
   - k =  -0.386  0.357  0.357
   - k =  -0.399  0.357  0.357
   - k =  -0.411  0.357  0.357
   - k =  -0.424  0.357  0.357
   - k =  -0.437  0.357  0.357
   - k =  -0.449  0.357  0.357
   - k =  -0.462  0.357  0.357
   - k =  -0.475  0.357  0.357
   - k =  -0.487  0.357  0.357
   - k =  -0.500  0.357  0.357

  |-> Computing Wannier center evolution at k-point number:     55
 Using pol_lapack_version = 2
 Calculating Berry  term along reciprocal lattice vector 1:     0.840     0.000     0.000
 Calculating dipole term along reciprocal lattice vector 1:     0.840     0.000     0.000

  Treating all   80 k-points in band plot segment #  56:
   Sampling over :
   - k =   0.500  0.357  0.500
   - k =   0.487  0.357  0.500
   - k =   0.475  0.357  0.500
   - k =   0.462  0.357  0.500
   - k =   0.449  0.357  0.500
   - k =   0.437  0.357  0.500
   - k =   0.424  0.357  0.500
   - k =   0.411  0.357  0.500
   - k =   0.399  0.357  0.500
   - k =   0.386  0.357  0.500
   - k =   0.373  0.357  0.500
   - k =   0.361  0.357  0.500
   - k =   0.348  0.357  0.500
   - k =   0.335  0.357  0.500
   - k =   0.323  0.357  0.500
   - k =   0.310  0.357  0.500
   - k =   0.297  0.357  0.500
   - k =   0.285  0.357  0.500
   - k =   0.272  0.357  0.500
   - k =   0.259  0.357  0.500
   - k =   0.247  0.357  0.500
   - k =   0.234  0.357  0.500
   - k =   0.222  0.357  0.500
   - k =   0.209  0.357  0.500
   - k =   0.196  0.357  0.500
   - k =   0.184  0.357  0.500
   - k =   0.171  0.357  0.500
   - k =   0.158  0.357  0.500
   - k =   0.146  0.357  0.500
   - k =   0.133  0.357  0.500
   - k =   0.120  0.357  0.500
   - k =   0.108  0.357  0.500
   - k =   0.095  0.357  0.500
   - k =   0.082  0.357  0.500
   - k =   0.070  0.357  0.500
   - k =   0.057  0.357  0.500
   - k =   0.044  0.357  0.500
   - k =   0.032  0.357  0.500
   - k =   0.019  0.357  0.500
   - k =   0.006  0.357  0.500
   - k =  -0.006  0.357  0.500
   - k =  -0.019  0.357  0.500
   - k =  -0.032  0.357  0.500
   - k =  -0.044  0.357  0.500
   - k =  -0.057  0.357  0.500
   - k =  -0.070  0.357  0.500
   - k =  -0.082  0.357  0.500
   - k =  -0.095  0.357  0.500
   - k =  -0.108  0.357  0.500
   - k =  -0.120  0.357  0.500
   - k =  -0.133  0.357  0.500
   - k =  -0.146  0.357  0.500
   - k =  -0.158  0.357  0.500
   - k =  -0.171  0.357  0.500
   - k =  -0.184  0.357  0.500
   - k =  -0.196  0.357  0.500
   - k =  -0.209  0.357  0.500
   - k =  -0.222  0.357  0.500
   - k =  -0.234  0.357  0.500
   - k =  -0.247  0.357  0.500
   - k =  -0.259  0.357  0.500
   - k =  -0.272  0.357  0.500
   - k =  -0.285  0.357  0.500
   - k =  -0.297  0.357  0.500
   - k =  -0.310  0.357  0.500
   - k =  -0.323  0.357  0.500
   - k =  -0.335  0.357  0.500
   - k =  -0.348  0.357  0.500
   - k =  -0.361  0.357  0.500
   - k =  -0.373  0.357  0.500
   - k =  -0.386  0.357  0.500
   - k =  -0.399  0.357  0.500
   - k =  -0.411  0.357  0.500
   - k =  -0.424  0.357  0.500
   - k =  -0.437  0.357  0.500
   - k =  -0.449  0.357  0.500
   - k =  -0.462  0.357  0.500
   - k =  -0.475  0.357  0.500
   - k =  -0.487  0.357  0.500
   - k =  -0.500  0.357  0.500

  |-> Computing Wannier center evolution at k-point number:     56
 Using pol_lapack_version = 2
 Calculating Berry  term along reciprocal lattice vector 1:     0.840     0.000     0.000
 Calculating dipole term along reciprocal lattice vector 1:     0.840     0.000     0.000

  Treating all   80 k-points in band plot segment #  57:
   Sampling over :
   - k =   0.500  0.500 -0.500
   - k =   0.487  0.500 -0.500
   - k =   0.475  0.500 -0.500
   - k =   0.462  0.500 -0.500
   - k =   0.449  0.500 -0.500
   - k =   0.437  0.500 -0.500
   - k =   0.424  0.500 -0.500
   - k =   0.411  0.500 -0.500
   - k =   0.399  0.500 -0.500
   - k =   0.386  0.500 -0.500
   - k =   0.373  0.500 -0.500
   - k =   0.361  0.500 -0.500
   - k =   0.348  0.500 -0.500
   - k =   0.335  0.500 -0.500
   - k =   0.323  0.500 -0.500
   - k =   0.310  0.500 -0.500
   - k =   0.297  0.500 -0.500
   - k =   0.285  0.500 -0.500
   - k =   0.272  0.500 -0.500
   - k =   0.259  0.500 -0.500
   - k =   0.247  0.500 -0.500
   - k =   0.234  0.500 -0.500
   - k =   0.222  0.500 -0.500
   - k =   0.209  0.500 -0.500
   - k =   0.196  0.500 -0.500
   - k =   0.184  0.500 -0.500
   - k =   0.171  0.500 -0.500
   - k =   0.158  0.500 -0.500
   - k =   0.146  0.500 -0.500
   - k =   0.133  0.500 -0.500
   - k =   0.120  0.500 -0.500
   - k =   0.108  0.500 -0.500
   - k =   0.095  0.500 -0.500
   - k =   0.082  0.500 -0.500
   - k =   0.070  0.500 -0.500
   - k =   0.057  0.500 -0.500
   - k =   0.044  0.500 -0.500
   - k =   0.032  0.500 -0.500
   - k =   0.019  0.500 -0.500
   - k =   0.006  0.500 -0.500
   - k =  -0.006  0.500 -0.500
   - k =  -0.019  0.500 -0.500
   - k =  -0.032  0.500 -0.500
   - k =  -0.044  0.500 -0.500
   - k =  -0.057  0.500 -0.500
   - k =  -0.070  0.500 -0.500
   - k =  -0.082  0.500 -0.500
   - k =  -0.095  0.500 -0.500
   - k =  -0.108  0.500 -0.500
   - k =  -0.120  0.500 -0.500
   - k =  -0.133  0.500 -0.500
   - k =  -0.146  0.500 -0.500
   - k =  -0.158  0.500 -0.500
   - k =  -0.171  0.500 -0.500
   - k =  -0.184  0.500 -0.500
   - k =  -0.196  0.500 -0.500
   - k =  -0.209  0.500 -0.500
   - k =  -0.222  0.500 -0.500
   - k =  -0.234  0.500 -0.500
   - k =  -0.247  0.500 -0.500
   - k =  -0.259  0.500 -0.500
   - k =  -0.272  0.500 -0.500
   - k =  -0.285  0.500 -0.500
   - k =  -0.297  0.500 -0.500
   - k =  -0.310  0.500 -0.500
   - k =  -0.323  0.500 -0.500
   - k =  -0.335  0.500 -0.500
   - k =  -0.348  0.500 -0.500
   - k =  -0.361  0.500 -0.500
   - k =  -0.373  0.500 -0.500
   - k =  -0.386  0.500 -0.500
   - k =  -0.399  0.500 -0.500
   - k =  -0.411  0.500 -0.500
   - k =  -0.424  0.500 -0.500
   - k =  -0.437  0.500 -0.500
   - k =  -0.449  0.500 -0.500
   - k =  -0.462  0.500 -0.500
   - k =  -0.475  0.500 -0.500
   - k =  -0.487  0.500 -0.500
   - k =  -0.500  0.500 -0.500

  |-> Computing Wannier center evolution at k-point number:     57
 Using pol_lapack_version = 2
 Calculating Berry  term along reciprocal lattice vector 1:     0.840     0.000     0.000
 Calculating dipole term along reciprocal lattice vector 1:     0.840     0.000     0.000

  Treating all   80 k-points in band plot segment #  58:
   Sampling over :
   - k =   0.500  0.500 -0.357
   - k =   0.487  0.500 -0.357
   - k =   0.475  0.500 -0.357
   - k =   0.462  0.500 -0.357
   - k =   0.449  0.500 -0.357
   - k =   0.437  0.500 -0.357
   - k =   0.424  0.500 -0.357
   - k =   0.411  0.500 -0.357
   - k =   0.399  0.500 -0.357
   - k =   0.386  0.500 -0.357
   - k =   0.373  0.500 -0.357
   - k =   0.361  0.500 -0.357
   - k =   0.348  0.500 -0.357
   - k =   0.335  0.500 -0.357
   - k =   0.323  0.500 -0.357
   - k =   0.310  0.500 -0.357
   - k =   0.297  0.500 -0.357
   - k =   0.285  0.500 -0.357
   - k =   0.272  0.500 -0.357
   - k =   0.259  0.500 -0.357
   - k =   0.247  0.500 -0.357
   - k =   0.234  0.500 -0.357
   - k =   0.222  0.500 -0.357
   - k =   0.209  0.500 -0.357
   - k =   0.196  0.500 -0.357
   - k =   0.184  0.500 -0.357
   - k =   0.171  0.500 -0.357
   - k =   0.158  0.500 -0.357
   - k =   0.146  0.500 -0.357
   - k =   0.133  0.500 -0.357
   - k =   0.120  0.500 -0.357
   - k =   0.108  0.500 -0.357
   - k =   0.095  0.500 -0.357
   - k =   0.082  0.500 -0.357
   - k =   0.070  0.500 -0.357
   - k =   0.057  0.500 -0.357
   - k =   0.044  0.500 -0.357
   - k =   0.032  0.500 -0.357
   - k =   0.019  0.500 -0.357
   - k =   0.006  0.500 -0.357
   - k =  -0.006  0.500 -0.357
   - k =  -0.019  0.500 -0.357
   - k =  -0.032  0.500 -0.357
   - k =  -0.044  0.500 -0.357
   - k =  -0.057  0.500 -0.357
   - k =  -0.070  0.500 -0.357
   - k =  -0.082  0.500 -0.357
   - k =  -0.095  0.500 -0.357
   - k =  -0.108  0.500 -0.357
   - k =  -0.120  0.500 -0.357
   - k =  -0.133  0.500 -0.357
   - k =  -0.146  0.500 -0.357
   - k =  -0.158  0.500 -0.357
   - k =  -0.171  0.500 -0.357
   - k =  -0.184  0.500 -0.357
   - k =  -0.196  0.500 -0.357
   - k =  -0.209  0.500 -0.357
   - k =  -0.222  0.500 -0.357
   - k =  -0.234  0.500 -0.357
   - k =  -0.247  0.500 -0.357
   - k =  -0.259  0.500 -0.357
   - k =  -0.272  0.500 -0.357
   - k =  -0.285  0.500 -0.357
   - k =  -0.297  0.500 -0.357
   - k =  -0.310  0.500 -0.357
   - k =  -0.323  0.500 -0.357
   - k =  -0.335  0.500 -0.357
   - k =  -0.348  0.500 -0.357
   - k =  -0.361  0.500 -0.357
   - k =  -0.373  0.500 -0.357
   - k =  -0.386  0.500 -0.357
   - k =  -0.399  0.500 -0.357
   - k =  -0.411  0.500 -0.357
   - k =  -0.424  0.500 -0.357
   - k =  -0.437  0.500 -0.357
   - k =  -0.449  0.500 -0.357
   - k =  -0.462  0.500 -0.357
   - k =  -0.475  0.500 -0.357
   - k =  -0.487  0.500 -0.357
   - k =  -0.500  0.500 -0.357

  |-> Computing Wannier center evolution at k-point number:     58
 Using pol_lapack_version = 2
 Calculating Berry  term along reciprocal lattice vector 1:     0.840     0.000     0.000
 Calculating dipole term along reciprocal lattice vector 1:     0.840     0.000     0.000

  Treating all   80 k-points in band plot segment #  59:
   Sampling over :
   - k =   0.500  0.500 -0.214
   - k =   0.487  0.500 -0.214
   - k =   0.475  0.500 -0.214
   - k =   0.462  0.500 -0.214
   - k =   0.449  0.500 -0.214
   - k =   0.437  0.500 -0.214
   - k =   0.424  0.500 -0.214
   - k =   0.411  0.500 -0.214
   - k =   0.399  0.500 -0.214
   - k =   0.386  0.500 -0.214
   - k =   0.373  0.500 -0.214
   - k =   0.361  0.500 -0.214
   - k =   0.348  0.500 -0.214
   - k =   0.335  0.500 -0.214
   - k =   0.323  0.500 -0.214
   - k =   0.310  0.500 -0.214
   - k =   0.297  0.500 -0.214
   - k =   0.285  0.500 -0.214
   - k =   0.272  0.500 -0.214
   - k =   0.259  0.500 -0.214
   - k =   0.247  0.500 -0.214
   - k =   0.234  0.500 -0.214
   - k =   0.222  0.500 -0.214
   - k =   0.209  0.500 -0.214
   - k =   0.196  0.500 -0.214
   - k =   0.184  0.500 -0.214
   - k =   0.171  0.500 -0.214
   - k =   0.158  0.500 -0.214
   - k =   0.146  0.500 -0.214
   - k =   0.133  0.500 -0.214
   - k =   0.120  0.500 -0.214
   - k =   0.108  0.500 -0.214
   - k =   0.095  0.500 -0.214
   - k =   0.082  0.500 -0.214
   - k =   0.070  0.500 -0.214
   - k =   0.057  0.500 -0.214
   - k =   0.044  0.500 -0.214
   - k =   0.032  0.500 -0.214
   - k =   0.019  0.500 -0.214
   - k =   0.006  0.500 -0.214
   - k =  -0.006  0.500 -0.214
   - k =  -0.019  0.500 -0.214
   - k =  -0.032  0.500 -0.214
   - k =  -0.044  0.500 -0.214
   - k =  -0.057  0.500 -0.214
   - k =  -0.070  0.500 -0.214
   - k =  -0.082  0.500 -0.214
   - k =  -0.095  0.500 -0.214
   - k =  -0.108  0.500 -0.214
   - k =  -0.120  0.500 -0.214
   - k =  -0.133  0.500 -0.214
   - k =  -0.146  0.500 -0.214
   - k =  -0.158  0.500 -0.214
   - k =  -0.171  0.500 -0.214
   - k =  -0.184  0.500 -0.214
   - k =  -0.196  0.500 -0.214
   - k =  -0.209  0.500 -0.214
   - k =  -0.222  0.500 -0.214
   - k =  -0.234  0.500 -0.214
   - k =  -0.247  0.500 -0.214
   - k =  -0.259  0.500 -0.214
   - k =  -0.272  0.500 -0.214
   - k =  -0.285  0.500 -0.214
   - k =  -0.297  0.500 -0.214
   - k =  -0.310  0.500 -0.214
   - k =  -0.323  0.500 -0.214
   - k =  -0.335  0.500 -0.214
   - k =  -0.348  0.500 -0.214
   - k =  -0.361  0.500 -0.214
   - k =  -0.373  0.500 -0.214
   - k =  -0.386  0.500 -0.214
   - k =  -0.399  0.500 -0.214
   - k =  -0.411  0.500 -0.214
   - k =  -0.424  0.500 -0.214
   - k =  -0.437  0.500 -0.214
   - k =  -0.449  0.500 -0.214
   - k =  -0.462  0.500 -0.214
   - k =  -0.475  0.500 -0.214
   - k =  -0.487  0.500 -0.214
   - k =  -0.500  0.500 -0.214

  |-> Computing Wannier center evolution at k-point number:     59
 Using pol_lapack_version = 2
 Calculating Berry  term along reciprocal lattice vector 1:     0.840     0.000     0.000
 Calculating dipole term along reciprocal lattice vector 1:     0.840     0.000     0.000

  Treating all   80 k-points in band plot segment #  60:
   Sampling over :
   - k =   0.500  0.500 -0.071
   - k =   0.487  0.500 -0.071
   - k =   0.475  0.500 -0.071
   - k =   0.462  0.500 -0.071
   - k =   0.449  0.500 -0.071
   - k =   0.437  0.500 -0.071
   - k =   0.424  0.500 -0.071
   - k =   0.411  0.500 -0.071
   - k =   0.399  0.500 -0.071
   - k =   0.386  0.500 -0.071
   - k =   0.373  0.500 -0.071
   - k =   0.361  0.500 -0.071
   - k =   0.348  0.500 -0.071
   - k =   0.335  0.500 -0.071
   - k =   0.323  0.500 -0.071
   - k =   0.310  0.500 -0.071
   - k =   0.297  0.500 -0.071
   - k =   0.285  0.500 -0.071
   - k =   0.272  0.500 -0.071
   - k =   0.259  0.500 -0.071
   - k =   0.247  0.500 -0.071
   - k =   0.234  0.500 -0.071
   - k =   0.222  0.500 -0.071
   - k =   0.209  0.500 -0.071
   - k =   0.196  0.500 -0.071
   - k =   0.184  0.500 -0.071
   - k =   0.171  0.500 -0.071
   - k =   0.158  0.500 -0.071
   - k =   0.146  0.500 -0.071
   - k =   0.133  0.500 -0.071
   - k =   0.120  0.500 -0.071
   - k =   0.108  0.500 -0.071
   - k =   0.095  0.500 -0.071
   - k =   0.082  0.500 -0.071
   - k =   0.070  0.500 -0.071
   - k =   0.057  0.500 -0.071
   - k =   0.044  0.500 -0.071
   - k =   0.032  0.500 -0.071
   - k =   0.019  0.500 -0.071
   - k =   0.006  0.500 -0.071
   - k =  -0.006  0.500 -0.071
   - k =  -0.019  0.500 -0.071
   - k =  -0.032  0.500 -0.071
   - k =  -0.044  0.500 -0.071
   - k =  -0.057  0.500 -0.071
   - k =  -0.070  0.500 -0.071
   - k =  -0.082  0.500 -0.071
   - k =  -0.095  0.500 -0.071
   - k =  -0.108  0.500 -0.071
   - k =  -0.120  0.500 -0.071
   - k =  -0.133  0.500 -0.071
   - k =  -0.146  0.500 -0.071
   - k =  -0.158  0.500 -0.071
   - k =  -0.171  0.500 -0.071
   - k =  -0.184  0.500 -0.071
   - k =  -0.196  0.500 -0.071
   - k =  -0.209  0.500 -0.071
   - k =  -0.222  0.500 -0.071
   - k =  -0.234  0.500 -0.071
   - k =  -0.247  0.500 -0.071
   - k =  -0.259  0.500 -0.071
   - k =  -0.272  0.500 -0.071
   - k =  -0.285  0.500 -0.071
   - k =  -0.297  0.500 -0.071
   - k =  -0.310  0.500 -0.071
   - k =  -0.323  0.500 -0.071
   - k =  -0.335  0.500 -0.071
   - k =  -0.348  0.500 -0.071
   - k =  -0.361  0.500 -0.071
   - k =  -0.373  0.500 -0.071
   - k =  -0.386  0.500 -0.071
   - k =  -0.399  0.500 -0.071
   - k =  -0.411  0.500 -0.071
   - k =  -0.424  0.500 -0.071
   - k =  -0.437  0.500 -0.071
   - k =  -0.449  0.500 -0.071
   - k =  -0.462  0.500 -0.071
   - k =  -0.475  0.500 -0.071
   - k =  -0.487  0.500 -0.071
   - k =  -0.500  0.500 -0.071

  |-> Computing Wannier center evolution at k-point number:     60
 Using pol_lapack_version = 2
 Calculating Berry  term along reciprocal lattice vector 1:     0.840     0.000     0.000
 Calculating dipole term along reciprocal lattice vector 1:     0.840     0.000     0.000

  Treating all   80 k-points in band plot segment #  61:
   Sampling over :
   - k =   0.500  0.500  0.071
   - k =   0.487  0.500  0.071
   - k =   0.475  0.500  0.071
   - k =   0.462  0.500  0.071
   - k =   0.449  0.500  0.071
   - k =   0.437  0.500  0.071
   - k =   0.424  0.500  0.071
   - k =   0.411  0.500  0.071
   - k =   0.399  0.500  0.071
   - k =   0.386  0.500  0.071
   - k =   0.373  0.500  0.071
   - k =   0.361  0.500  0.071
   - k =   0.348  0.500  0.071
   - k =   0.335  0.500  0.071
   - k =   0.323  0.500  0.071
   - k =   0.310  0.500  0.071
   - k =   0.297  0.500  0.071
   - k =   0.285  0.500  0.071
   - k =   0.272  0.500  0.071
   - k =   0.259  0.500  0.071
   - k =   0.247  0.500  0.071
   - k =   0.234  0.500  0.071
   - k =   0.222  0.500  0.071
   - k =   0.209  0.500  0.071
   - k =   0.196  0.500  0.071
   - k =   0.184  0.500  0.071
   - k =   0.171  0.500  0.071
   - k =   0.158  0.500  0.071
   - k =   0.146  0.500  0.071
   - k =   0.133  0.500  0.071
   - k =   0.120  0.500  0.071
   - k =   0.108  0.500  0.071
   - k =   0.095  0.500  0.071
   - k =   0.082  0.500  0.071
   - k =   0.070  0.500  0.071
   - k =   0.057  0.500  0.071
   - k =   0.044  0.500  0.071
   - k =   0.032  0.500  0.071
   - k =   0.019  0.500  0.071
   - k =   0.006  0.500  0.071
   - k =  -0.006  0.500  0.071
   - k =  -0.019  0.500  0.071
   - k =  -0.032  0.500  0.071
   - k =  -0.044  0.500  0.071
   - k =  -0.057  0.500  0.071
   - k =  -0.070  0.500  0.071
   - k =  -0.082  0.500  0.071
   - k =  -0.095  0.500  0.071
   - k =  -0.108  0.500  0.071
   - k =  -0.120  0.500  0.071
   - k =  -0.133  0.500  0.071
   - k =  -0.146  0.500  0.071
   - k =  -0.158  0.500  0.071
   - k =  -0.171  0.500  0.071
   - k =  -0.184  0.500  0.071
   - k =  -0.196  0.500  0.071
   - k =  -0.209  0.500  0.071
   - k =  -0.222  0.500  0.071
   - k =  -0.234  0.500  0.071
   - k =  -0.247  0.500  0.071
   - k =  -0.259  0.500  0.071
   - k =  -0.272  0.500  0.071
   - k =  -0.285  0.500  0.071
   - k =  -0.297  0.500  0.071
   - k =  -0.310  0.500  0.071
   - k =  -0.323  0.500  0.071
   - k =  -0.335  0.500  0.071
   - k =  -0.348  0.500  0.071
   - k =  -0.361  0.500  0.071
   - k =  -0.373  0.500  0.071
   - k =  -0.386  0.500  0.071
   - k =  -0.399  0.500  0.071
   - k =  -0.411  0.500  0.071
   - k =  -0.424  0.500  0.071
   - k =  -0.437  0.500  0.071
   - k =  -0.449  0.500  0.071
   - k =  -0.462  0.500  0.071
   - k =  -0.475  0.500  0.071
   - k =  -0.487  0.500  0.071
   - k =  -0.500  0.500  0.071

  |-> Computing Wannier center evolution at k-point number:     61
 Using pol_lapack_version = 2
 Calculating Berry  term along reciprocal lattice vector 1:     0.840     0.000     0.000
 Calculating dipole term along reciprocal lattice vector 1:     0.840     0.000     0.000

  Treating all   80 k-points in band plot segment #  62:
   Sampling over :
   - k =   0.500  0.500  0.214
   - k =   0.487  0.500  0.214
   - k =   0.475  0.500  0.214
   - k =   0.462  0.500  0.214
   - k =   0.449  0.500  0.214
   - k =   0.437  0.500  0.214
   - k =   0.424  0.500  0.214
   - k =   0.411  0.500  0.214
   - k =   0.399  0.500  0.214
   - k =   0.386  0.500  0.214
   - k =   0.373  0.500  0.214
   - k =   0.361  0.500  0.214
   - k =   0.348  0.500  0.214
   - k =   0.335  0.500  0.214
   - k =   0.323  0.500  0.214
   - k =   0.310  0.500  0.214
   - k =   0.297  0.500  0.214
   - k =   0.285  0.500  0.214
   - k =   0.272  0.500  0.214
   - k =   0.259  0.500  0.214
   - k =   0.247  0.500  0.214
   - k =   0.234  0.500  0.214
   - k =   0.222  0.500  0.214
   - k =   0.209  0.500  0.214
   - k =   0.196  0.500  0.214
   - k =   0.184  0.500  0.214
   - k =   0.171  0.500  0.214
   - k =   0.158  0.500  0.214
   - k =   0.146  0.500  0.214
   - k =   0.133  0.500  0.214
   - k =   0.120  0.500  0.214
   - k =   0.108  0.500  0.214
   - k =   0.095  0.500  0.214
   - k =   0.082  0.500  0.214
   - k =   0.070  0.500  0.214
   - k =   0.057  0.500  0.214
   - k =   0.044  0.500  0.214
   - k =   0.032  0.500  0.214
   - k =   0.019  0.500  0.214
   - k =   0.006  0.500  0.214
   - k =  -0.006  0.500  0.214
   - k =  -0.019  0.500  0.214
   - k =  -0.032  0.500  0.214
   - k =  -0.044  0.500  0.214
   - k =  -0.057  0.500  0.214
   - k =  -0.070  0.500  0.214
   - k =  -0.082  0.500  0.214
   - k =  -0.095  0.500  0.214
   - k =  -0.108  0.500  0.214
   - k =  -0.120  0.500  0.214
   - k =  -0.133  0.500  0.214
   - k =  -0.146  0.500  0.214
   - k =  -0.158  0.500  0.214
   - k =  -0.171  0.500  0.214
   - k =  -0.184  0.500  0.214
   - k =  -0.196  0.500  0.214
   - k =  -0.209  0.500  0.214
   - k =  -0.222  0.500  0.214
   - k =  -0.234  0.500  0.214
   - k =  -0.247  0.500  0.214
   - k =  -0.259  0.500  0.214
   - k =  -0.272  0.500  0.214
   - k =  -0.285  0.500  0.214
   - k =  -0.297  0.500  0.214
   - k =  -0.310  0.500  0.214
   - k =  -0.323  0.500  0.214
   - k =  -0.335  0.500  0.214
   - k =  -0.348  0.500  0.214
   - k =  -0.361  0.500  0.214
   - k =  -0.373  0.500  0.214
   - k =  -0.386  0.500  0.214
   - k =  -0.399  0.500  0.214
   - k =  -0.411  0.500  0.214
   - k =  -0.424  0.500  0.214
   - k =  -0.437  0.500  0.214
   - k =  -0.449  0.500  0.214
   - k =  -0.462  0.500  0.214
   - k =  -0.475  0.500  0.214
   - k =  -0.487  0.500  0.214
   - k =  -0.500  0.500  0.214

  |-> Computing Wannier center evolution at k-point number:     62
 Using pol_lapack_version = 2
 Calculating Berry  term along reciprocal lattice vector 1:     0.840     0.000     0.000
 Calculating dipole term along reciprocal lattice vector 1:     0.840     0.000     0.000

  Treating all   80 k-points in band plot segment #  63:
   Sampling over :
   - k =   0.500  0.500  0.357
   - k =   0.487  0.500  0.357
   - k =   0.475  0.500  0.357
   - k =   0.462  0.500  0.357
   - k =   0.449  0.500  0.357
   - k =   0.437  0.500  0.357
   - k =   0.424  0.500  0.357
   - k =   0.411  0.500  0.357
   - k =   0.399  0.500  0.357
   - k =   0.386  0.500  0.357
   - k =   0.373  0.500  0.357
   - k =   0.361  0.500  0.357
   - k =   0.348  0.500  0.357
   - k =   0.335  0.500  0.357
   - k =   0.323  0.500  0.357
   - k =   0.310  0.500  0.357
   - k =   0.297  0.500  0.357
   - k =   0.285  0.500  0.357
   - k =   0.272  0.500  0.357
   - k =   0.259  0.500  0.357
   - k =   0.247  0.500  0.357
   - k =   0.234  0.500  0.357
   - k =   0.222  0.500  0.357
   - k =   0.209  0.500  0.357
   - k =   0.196  0.500  0.357
   - k =   0.184  0.500  0.357
   - k =   0.171  0.500  0.357
   - k =   0.158  0.500  0.357
   - k =   0.146  0.500  0.357
   - k =   0.133  0.500  0.357
   - k =   0.120  0.500  0.357
   - k =   0.108  0.500  0.357
   - k =   0.095  0.500  0.357
   - k =   0.082  0.500  0.357
   - k =   0.070  0.500  0.357
   - k =   0.057  0.500  0.357
   - k =   0.044  0.500  0.357
   - k =   0.032  0.500  0.357
   - k =   0.019  0.500  0.357
   - k =   0.006  0.500  0.357
   - k =  -0.006  0.500  0.357
   - k =  -0.019  0.500  0.357
   - k =  -0.032  0.500  0.357
   - k =  -0.044  0.500  0.357
   - k =  -0.057  0.500  0.357
   - k =  -0.070  0.500  0.357
   - k =  -0.082  0.500  0.357
   - k =  -0.095  0.500  0.357
   - k =  -0.108  0.500  0.357
   - k =  -0.120  0.500  0.357
   - k =  -0.133  0.500  0.357
   - k =  -0.146  0.500  0.357
   - k =  -0.158  0.500  0.357
   - k =  -0.171  0.500  0.357
   - k =  -0.184  0.500  0.357
   - k =  -0.196  0.500  0.357
   - k =  -0.209  0.500  0.357
   - k =  -0.222  0.500  0.357
   - k =  -0.234  0.500  0.357
   - k =  -0.247  0.500  0.357
   - k =  -0.259  0.500  0.357
   - k =  -0.272  0.500  0.357
   - k =  -0.285  0.500  0.357
   - k =  -0.297  0.500  0.357
   - k =  -0.310  0.500  0.357
   - k =  -0.323  0.500  0.357
   - k =  -0.335  0.500  0.357
   - k =  -0.348  0.500  0.357
   - k =  -0.361  0.500  0.357
   - k =  -0.373  0.500  0.357
   - k =  -0.386  0.500  0.357
   - k =  -0.399  0.500  0.357
   - k =  -0.411  0.500  0.357
   - k =  -0.424  0.500  0.357
   - k =  -0.437  0.500  0.357
   - k =  -0.449  0.500  0.357
   - k =  -0.462  0.500  0.357
   - k =  -0.475  0.500  0.357
   - k =  -0.487  0.500  0.357
   - k =  -0.500  0.500  0.357

  |-> Computing Wannier center evolution at k-point number:     63
 Using pol_lapack_version = 2
 Calculating Berry  term along reciprocal lattice vector 1:     0.840     0.000     0.000
 Calculating dipole term along reciprocal lattice vector 1:     0.840     0.000     0.000

  Treating all   80 k-points in band plot segment #  64:
   Sampling over :
   - k =   0.500  0.500  0.500
   - k =   0.487  0.500  0.500
   - k =   0.475  0.500  0.500
   - k =   0.462  0.500  0.500
   - k =   0.449  0.500  0.500
   - k =   0.437  0.500  0.500
   - k =   0.424  0.500  0.500
   - k =   0.411  0.500  0.500
   - k =   0.399  0.500  0.500
   - k =   0.386  0.500  0.500
   - k =   0.373  0.500  0.500
   - k =   0.361  0.500  0.500
   - k =   0.348  0.500  0.500
   - k =   0.335  0.500  0.500
   - k =   0.323  0.500  0.500
   - k =   0.310  0.500  0.500
   - k =   0.297  0.500  0.500
   - k =   0.285  0.500  0.500
   - k =   0.272  0.500  0.500
   - k =   0.259  0.500  0.500
   - k =   0.247  0.500  0.500
   - k =   0.234  0.500  0.500
   - k =   0.222  0.500  0.500
   - k =   0.209  0.500  0.500
   - k =   0.196  0.500  0.500
   - k =   0.184  0.500  0.500
   - k =   0.171  0.500  0.500
   - k =   0.158  0.500  0.500
   - k =   0.146  0.500  0.500
   - k =   0.133  0.500  0.500
   - k =   0.120  0.500  0.500
   - k =   0.108  0.500  0.500
   - k =   0.095  0.500  0.500
   - k =   0.082  0.500  0.500
   - k =   0.070  0.500  0.500
   - k =   0.057  0.500  0.500
   - k =   0.044  0.500  0.500
   - k =   0.032  0.500  0.500
   - k =   0.019  0.500  0.500
   - k =   0.006  0.500  0.500
   - k =  -0.006  0.500  0.500
   - k =  -0.019  0.500  0.500
   - k =  -0.032  0.500  0.500
   - k =  -0.044  0.500  0.500
   - k =  -0.057  0.500  0.500
   - k =  -0.070  0.500  0.500
   - k =  -0.082  0.500  0.500
   - k =  -0.095  0.500  0.500
   - k =  -0.108  0.500  0.500
   - k =  -0.120  0.500  0.500
   - k =  -0.133  0.500  0.500
   - k =  -0.146  0.500  0.500
   - k =  -0.158  0.500  0.500
   - k =  -0.171  0.500  0.500
   - k =  -0.184  0.500  0.500
   - k =  -0.196  0.500  0.500
   - k =  -0.209  0.500  0.500
   - k =  -0.222  0.500  0.500
   - k =  -0.234  0.500  0.500
   - k =  -0.247  0.500  0.500
   - k =  -0.259  0.500  0.500
   - k =  -0.272  0.500  0.500
   - k =  -0.285  0.500  0.500
   - k =  -0.297  0.500  0.500
   - k =  -0.310  0.500  0.500
   - k =  -0.323  0.500  0.500
   - k =  -0.335  0.500  0.500
   - k =  -0.348  0.500  0.500
   - k =  -0.361  0.500  0.500
   - k =  -0.373  0.500  0.500
   - k =  -0.386  0.500  0.500
   - k =  -0.399  0.500  0.500
   - k =  -0.411  0.500  0.500
   - k =  -0.424  0.500  0.500
   - k =  -0.437  0.500  0.500
   - k =  -0.449  0.500  0.500
   - k =  -0.462  0.500  0.500
   - k =  -0.475  0.500  0.500
   - k =  -0.487  0.500  0.500
   - k =  -0.500  0.500  0.500

  |-> Computing Wannier center evolution at k-point number:     64
 Using pol_lapack_version = 2
 Calculating Berry  term along reciprocal lattice vector 1:     0.840     0.000     0.000
 Calculating dipole term along reciprocal lattice vector 1:     0.840     0.000     0.000
  *-> Finished with polarization directive nr.   1
  | Evaluation of the polarization for directive nr.     1
   - Ionic      polarization along rec. latt. vec.    1 is:       -7.266897E-15 C/m^2
   - Berry term: Preliminary Electronic polarization along rec. latt. vec.    1 is:     -335.581593E-03 C/m^2 before branch-mapping
   --> Detailed listing before/after branch mapping in terms of the polarization quantum P0=       -1.022725E+00 C/m^2
     | k-string    1 :       170.530257E-15 /       170.530257E-15 P0
     | k-string    2 :         1.000000E+00 /      -291.372769E-15 P0
     | k-string    3 :         1.000000E+00 /      -243.905471E-15 P0
     | k-string    4 :       204.686364E-15 /       204.686363E-15 P0
     | k-string    5 :       156.319402E-15 /       156.319402E-15 P0
     | k-string    6 :         1.000000E+00 /      -186.567716E-15 P0
     | k-string    7 :         1.000000E+00 /      -266.554021E-15 P0
     | k-string    8 :       175.859327E-15 /       175.859327E-15 P0
     | k-string    9 :        50.626170E-15 /        50.626170E-15 P0
     | k-string   10 :         1.000000E+00 /      -257.621989E-15 P0
     | k-string   11 :         1.000000E+00 /       -53.169156E-15 P0
     | k-string   12 :       472.510919E-15 /       472.510919E-15 P0
     | k-string   13 :       532.907052E-15 /       532.907052E-15 P0
     | k-string   14 :       348.165941E-15 /       348.165941E-15 P0
     | k-string   15 :        14.210855E-15 /        14.210855E-15 P0
     | k-string   16 :         5.329071E-15 /         5.329071E-15 P0
     | k-string   17 :        21.316282E-15 /        21.316282E-15 P0
     | k-string   18 :         1.000000E+00 /      -103.078944E-15 P0
     | k-string   19 :        34.638958E-15 /        34.638958E-15 P0
     | k-string   20 :         1.000000E+00 /       -60.446380E-15 P0
     | k-string   21 :       271.782596E-15 /       271.782596E-15 P0
     | k-string   22 :         1.165290E-12 /         1.165290E-12 P0
     | k-string   23 :       308.160409E-15 /       308.160409E-15 P0
     | k-string   24 :         0.000000E+00 /         0.000000E+00 P0
     | k-string   25 :       219.380070E-15 /       219.380070E-15 P0
     | k-string   26 :       333.955086E-15 /       333.955086E-15 P0
     | k-string   27 :        48.849813E-15 /        48.849813E-15 P0
     | k-string   28 :         1.000000E+00 /      -554.717671E-15 P0
     | k-string   29 :         1.000000E+00 /      -182.177071E-15 P0
     | k-string   30 :       351.718654E-15 /       351.718654E-15 P0
     | k-string   31 :       468.177649E-15 /       468.177649E-15 P0
     | k-string   32 :       152.766688E-15 /       152.766688E-15 P0
     | k-string   33 :       129.674049E-15 /       129.674049E-15 P0
     | k-string   34 :       481.392703E-15 /       481.392703E-15 P0
     | k-string   35 :       621.724894E-15 /       621.724894E-15 P0
     | k-string   36 :         1.000000E+00 /      -220.318496E-15 P0
     | k-string   37 :         1.000000E+00 /      -739.064940E-15 P0
     | k-string   38 :       193.622895E-15 /       193.622895E-15 P0
     | k-string   39 :       341.060513E-15 /       341.060513E-15 P0
     | k-string   40 :       120.792265E-15 /       120.792265E-15 P0
     | k-string   41 :         1.000000E+00 /       -21.366530E-15 P0
     | k-string   42 :       333.955086E-15 /       333.955086E-15 P0
     | k-string   43 :         1.024958E-12 /         1.024958E-12 P0
     | k-string   44 :       341.948692E-15 /       341.948692E-15 P0
     | k-string   45 :        53.290705E-15 /        53.290705E-15 P0
     | k-string   46 :        92.370556E-15 /        92.370556E-15 P0
     | k-string   47 :         1.000000E+00 /       -63.110915E-15 P0
     | k-string   48 :         1.000000E+00 /       -26.745848E-15 P0
     | k-string   49 :        21.316282E-15 /        21.316282E-15 P0
     | k-string   50 :        22.204460E-15 /        22.204460E-15 P0
     | k-string   51 :       454.747351E-15 /       454.747351E-15 P0
     | k-string   52 :       731.859018E-15 /       731.859018E-15 P0
     | k-string   53 :       245.137244E-15 /       245.137244E-15 P0
     | k-string   54 :         1.000000E+00 /      -281.602807E-15 P0
     | k-string   55 :         1.000000E+00 /      -277.212162E-15 P0
     | k-string   56 :        42.632564E-15 /        42.632564E-15 P0
     | k-string   57 :       170.530257E-15 /       170.530257E-15 P0
     | k-string   58 :         1.000000E+00 /      -316.241765E-15 P0
     | k-string   59 :         1.000000E+00 /      -188.394320E-15 P0
     | k-string   60 :       210.498285E-15 /       210.498285E-15 P0
     | k-string   61 :       165.201186E-15 /       165.201186E-15 P0
     | k-string   62 :         1.000000E+00 /      -142.158795E-15 P0
     | k-string   63 :         1.000000E+00 /      -235.467776E-15 P0
     | k-string   64 :       163.424829E-15 /       163.424829E-15 P0
   - Berry term: Electronic polarization along rec. latt. vec.    1 is:     -134.778233E-15 C/m^2 after branch-mapping

   - Dipole term: Preliminary Electronic polarization along rec. latt. vec.    1 is:     -703.123337E-03 C/m^2 before branch-mapping
   --> Detailed listing before/after branch mapping in terms of the polarization quantum P0=       -1.022725E+00 C/m^2
     | k-string    1 :         1.000000E+00 /      -506.089902E-15 P0
     | k-string    2 :       136.795891E-15 /       136.795891E-15 P0
     | k-string    3 :       165.339609E-15 /       165.339609E-15 P0
     | k-string    4 :         1.000000E+00 /      -246.714403E-15 P0
     | k-string    5 :         1.000000E+00 /      -160.833388E-15 P0
     | k-string    6 :       180.296479E-15 /       180.296479E-15 P0
     | k-string    7 :       151.769445E-15 /       151.769445E-15 P0
     | k-string    8 :         1.000000E+00 /      -503.867499E-15 P0
     | k-string    9 :         1.000000E+00 /      -110.676751E-15 P0
     | k-string   10 :       225.717834E-15 /       225.717834E-15 P0
     | k-string   11 :        63.279259E-15 /        63.279259E-15 P0
     | k-string   12 :         1.000000E+00 /      -521.303411E-15 P0
     | k-string   13 :         1.000000E+00 /      -610.615590E-15 P0
     | k-string   14 :         1.000000E+00 /      -387.288965E-15 P0
     | k-string   15 :         1.000000E+00 /       -38.951227E-15 P0
     | k-string   16 :         1.000000E+00 /       -93.291381E-15 P0
     | k-string   17 :         1.000000E+00 /       -25.840068E-15 P0
     | k-string   18 :        95.752763E-15 /        95.752763E-15 P0
     | k-string   19 :         1.000000E+00 /       -17.762278E-15 P0
     | k-string   20 :        50.395781E-15 /        50.395781E-15 P0
     | k-string   21 :         1.000000E+00 /      -303.260500E-15 P0
     | k-string   22 :         1.000000E+00 /        -1.185272E-12 P0
     | k-string   23 :         1.000000E+00 /      -354.875344E-15 P0
     | k-string   24 :         1.000000E+00 /       -16.973702E-15 P0
     | k-string   25 :         1.000000E+00 /      -226.189968E-15 P0
     | k-string   26 :         1.000000E+00 /      -345.922257E-15 P0
     | k-string   27 :         1.000000E+00 /       -51.319314E-15 P0
     | k-string   28 :       528.649882E-15 /       528.649882E-15 P0
     | k-string   29 :       182.423375E-15 /       182.423375E-15 P0
     | k-string   30 :         1.000000E+00 /      -361.858199E-15 P0
     | k-string   31 :         1.000000E+00 /      -491.249429E-15 P0
     | k-string   32 :         1.000000E+00 /      -162.451616E-15 P0
     | k-string   33 :         1.000000E+00 /      -154.730303E-15 P0
     | k-string   34 :         1.000000E+00 /      -478.965674E-15 P0
     | k-string   35 :         1.000000E+00 /      -607.468725E-15 P0
     | k-string   36 :       194.927004E-15 /       194.927004E-15 P0
     | k-string   37 :       708.043951E-15 /       708.043951E-15 P0
     | k-string   38 :         1.000000E+00 /      -208.273359E-15 P0
     | k-string   39 :         1.000000E+00 /      -394.619030E-15 P0
     | k-string   40 :         1.000000E+00 /      -161.744487E-15 P0
     | k-string   41 :         3.560251E-15 /         3.560251E-15 P0
     | k-string   42 :         1.000000E+00 /      -330.000993E-15 P0
     | k-string   43 :         1.000000E+00 /        -1.006954E-12 P0
     | k-string   44 :         1.000000E+00 /      -351.972882E-15 P0
     | k-string   45 :         1.000000E+00 /       -70.470570E-15 P0
     | k-string   46 :         1.000000E+00 /      -123.256412E-15 P0
     | k-string   47 :        21.431438E-15 /        21.431438E-15 P0
     | k-string   48 :         1.000000E+00 /       -17.476615E-15 P0
     | k-string   49 :         1.000000E+00 /       -98.018032E-15 P0
     | k-string   50 :         1.000000E+00 /       -57.434117E-15 P0
     | k-string   51 :         1.000000E+00 /      -445.618334E-15 P0
     | k-string   52 :         1.000000E+00 /      -747.316177E-15 P0
     | k-string   53 :         1.000000E+00 /      -254.649446E-15 P0
     | k-string   54 :       239.149309E-15 /       239.149309E-15 P0
     | k-string   55 :       211.396753E-15 /       211.396753E-15 P0
     | k-string   56 :         1.000000E+00 /      -115.392131E-15 P0
     | k-string   57 :         1.000000E+00 /      -520.340716E-15 P0
     | k-string   58 :       166.347204E-15 /       166.347204E-15 P0
     | k-string   59 :       124.389952E-15 /       124.389952E-15 P0
     | k-string   60 :         1.000000E+00 /      -253.136124E-15 P0
     | k-string   61 :         1.000000E+00 /      -179.689607E-15 P0
     | k-string   62 :       145.974422E-15 /       145.974422E-15 P0
     | k-string   63 :       112.927855E-15 /       112.927855E-15 P0
     | k-string   64 :         1.000000E+00 /      -514.953513E-15 P0
   - Dipole term: Electronic polarization along rec. latt. vec.    1 is:      170.204357E-15 C/m^2 after branch-mapping



  Wannier center evolution                                :  max(cpu_time) wall_clock(cpu1)
  | Total Time                                            :          5.042            5.109
------------------------------------------------------------
   |-> Using LAPACK for polarization directive   2 of   3 directives

  -------------------------------------------------------------------
  Computing Wannier centers of charge         (LAPACK version):
  -------------------------------------------------------------------


  Integrating Hamiltonian matrix: batch-based integration.
  Time summed over all CPUs for integration: real work       84.767 s, elapsed       92.702 s

  Number of k-points for which the Wannier centers of charge are calculated for:    64
  Number of k-points used at each of this k-points to obtain the Wannier center of charge:    80
  Wannier center evolution is sampled along the reciprocal lattice vector  2 in    64 steps.
  - The Wannier center evoulution is computed along the following     64 strings in k_space:
    Band     1 from k_start = -0.500  0.500 -0.500 to k_end = -0.500 -0.500 -0.500
    Band     2 from k_start = -0.500  0.500 -0.357 to k_end = -0.500 -0.500 -0.357
    Band     3 from k_start = -0.500  0.500 -0.214 to k_end = -0.500 -0.500 -0.214
    Band     4 from k_start = -0.500  0.500 -0.071 to k_end = -0.500 -0.500 -0.071
    Band     5 from k_start = -0.500  0.500  0.071 to k_end = -0.500 -0.500  0.071
    Band     6 from k_start = -0.500  0.500  0.214 to k_end = -0.500 -0.500  0.214
    Band     7 from k_start = -0.500  0.500  0.357 to k_end = -0.500 -0.500  0.357
    Band     8 from k_start = -0.500  0.500  0.500 to k_end = -0.500 -0.500  0.500
    Band     9 from k_start = -0.357  0.500 -0.500 to k_end = -0.357 -0.500 -0.500
    Band    10 from k_start = -0.357  0.500 -0.357 to k_end = -0.357 -0.500 -0.357
    Band    11 from k_start = -0.357  0.500 -0.214 to k_end = -0.357 -0.500 -0.214
    Band    12 from k_start = -0.357  0.500 -0.071 to k_end = -0.357 -0.500 -0.071
    Band    13 from k_start = -0.357  0.500  0.071 to k_end = -0.357 -0.500  0.071
    Band    14 from k_start = -0.357  0.500  0.214 to k_end = -0.357 -0.500  0.214
    Band    15 from k_start = -0.357  0.500  0.357 to k_end = -0.357 -0.500  0.357
    Band    16 from k_start = -0.357  0.500  0.500 to k_end = -0.357 -0.500  0.500
    Band    17 from k_start = -0.214  0.500 -0.500 to k_end = -0.214 -0.500 -0.500
    Band    18 from k_start = -0.214  0.500 -0.357 to k_end = -0.214 -0.500 -0.357
    Band    19 from k_start = -0.214  0.500 -0.214 to k_end = -0.214 -0.500 -0.214
    Band    20 from k_start = -0.214  0.500 -0.071 to k_end = -0.214 -0.500 -0.071
    Band    21 from k_start = -0.214  0.500  0.071 to k_end = -0.214 -0.500  0.071
    Band    22 from k_start = -0.214  0.500  0.214 to k_end = -0.214 -0.500  0.214
    Band    23 from k_start = -0.214  0.500  0.357 to k_end = -0.214 -0.500  0.357
    Band    24 from k_start = -0.214  0.500  0.500 to k_end = -0.214 -0.500  0.500
    Band    25 from k_start = -0.071  0.500 -0.500 to k_end = -0.071 -0.500 -0.500
    Band    26 from k_start = -0.071  0.500 -0.357 to k_end = -0.071 -0.500 -0.357
    Band    27 from k_start = -0.071  0.500 -0.214 to k_end = -0.071 -0.500 -0.214
    Band    28 from k_start = -0.071  0.500 -0.071 to k_end = -0.071 -0.500 -0.071
    Band    29 from k_start = -0.071  0.500  0.071 to k_end = -0.071 -0.500  0.071
    Band    30 from k_start = -0.071  0.500  0.214 to k_end = -0.071 -0.500  0.214
    Band    31 from k_start = -0.071  0.500  0.357 to k_end = -0.071 -0.500  0.357
    Band    32 from k_start = -0.071  0.500  0.500 to k_end = -0.071 -0.500  0.500
    Band    33 from k_start =  0.071  0.500 -0.500 to k_end =  0.071 -0.500 -0.500
    Band    34 from k_start =  0.071  0.500 -0.357 to k_end =  0.071 -0.500 -0.357
    Band    35 from k_start =  0.071  0.500 -0.214 to k_end =  0.071 -0.500 -0.214
    Band    36 from k_start =  0.071  0.500 -0.071 to k_end =  0.071 -0.500 -0.071
    Band    37 from k_start =  0.071  0.500  0.071 to k_end =  0.071 -0.500  0.071
    Band    38 from k_start =  0.071  0.500  0.214 to k_end =  0.071 -0.500  0.214
    Band    39 from k_start =  0.071  0.500  0.357 to k_end =  0.071 -0.500  0.357
    Band    40 from k_start =  0.071  0.500  0.500 to k_end =  0.071 -0.500  0.500
    Band    41 from k_start =  0.214  0.500 -0.500 to k_end =  0.214 -0.500 -0.500
    Band    42 from k_start =  0.214  0.500 -0.357 to k_end =  0.214 -0.500 -0.357
    Band    43 from k_start =  0.214  0.500 -0.214 to k_end =  0.214 -0.500 -0.214
    Band    44 from k_start =  0.214  0.500 -0.071 to k_end =  0.214 -0.500 -0.071
    Band    45 from k_start =  0.214  0.500  0.071 to k_end =  0.214 -0.500  0.071
    Band    46 from k_start =  0.214  0.500  0.214 to k_end =  0.214 -0.500  0.214
    Band    47 from k_start =  0.214  0.500  0.357 to k_end =  0.214 -0.500  0.357
    Band    48 from k_start =  0.214  0.500  0.500 to k_end =  0.214 -0.500  0.500
    Band    49 from k_start =  0.357  0.500 -0.500 to k_end =  0.357 -0.500 -0.500
    Band    50 from k_start =  0.357  0.500 -0.357 to k_end =  0.357 -0.500 -0.357
    Band    51 from k_start =  0.357  0.500 -0.214 to k_end =  0.357 -0.500 -0.214
    Band    52 from k_start =  0.357  0.500 -0.071 to k_end =  0.357 -0.500 -0.071
    Band    53 from k_start =  0.357  0.500  0.071 to k_end =  0.357 -0.500  0.071
    Band    54 from k_start =  0.357  0.500  0.214 to k_end =  0.357 -0.500  0.214
    Band    55 from k_start =  0.357  0.500  0.357 to k_end =  0.357 -0.500  0.357
    Band    56 from k_start =  0.357  0.500  0.500 to k_end =  0.357 -0.500  0.500
    Band    57 from k_start =  0.500  0.500 -0.500 to k_end =  0.500 -0.500 -0.500
    Band    58 from k_start =  0.500  0.500 -0.357 to k_end =  0.500 -0.500 -0.357
    Band    59 from k_start =  0.500  0.500 -0.214 to k_end =  0.500 -0.500 -0.214
    Band    60 from k_start =  0.500  0.500 -0.071 to k_end =  0.500 -0.500 -0.071
    Band    61 from k_start =  0.500  0.500  0.071 to k_end =  0.500 -0.500  0.071
    Band    62 from k_start =  0.500  0.500  0.214 to k_end =  0.500 -0.500  0.214
    Band    63 from k_start =  0.500  0.500  0.357 to k_end =  0.500 -0.500  0.357
    Band    64 from k_start =  0.500  0.500  0.500 to k_end =  0.500 -0.500  0.500


  Treating all   80 k-points in band plot segment #   1:
   Sampling over :
   - k =  -0.500  0.500 -0.500
   - k =  -0.500  0.487 -0.500
   - k =  -0.500  0.475 -0.500
   - k =  -0.500  0.462 -0.500
   - k =  -0.500  0.449 -0.500
   - k =  -0.500  0.437 -0.500
   - k =  -0.500  0.424 -0.500
   - k =  -0.500  0.411 -0.500
   - k =  -0.500  0.399 -0.500
   - k =  -0.500  0.386 -0.500
   - k =  -0.500  0.373 -0.500
   - k =  -0.500  0.361 -0.500
   - k =  -0.500  0.348 -0.500
   - k =  -0.500  0.335 -0.500
   - k =  -0.500  0.323 -0.500
   - k =  -0.500  0.310 -0.500
   - k =  -0.500  0.297 -0.500
   - k =  -0.500  0.285 -0.500
   - k =  -0.500  0.272 -0.500
   - k =  -0.500  0.259 -0.500
   - k =  -0.500  0.247 -0.500
   - k =  -0.500  0.234 -0.500
   - k =  -0.500  0.222 -0.500
   - k =  -0.500  0.209 -0.500
   - k =  -0.500  0.196 -0.500
   - k =  -0.500  0.184 -0.500
   - k =  -0.500  0.171 -0.500
   - k =  -0.500  0.158 -0.500
   - k =  -0.500  0.146 -0.500
   - k =  -0.500  0.133 -0.500
   - k =  -0.500  0.120 -0.500
   - k =  -0.500  0.108 -0.500
   - k =  -0.500  0.095 -0.500
   - k =  -0.500  0.082 -0.500
   - k =  -0.500  0.070 -0.500
   - k =  -0.500  0.057 -0.500
   - k =  -0.500  0.044 -0.500
   - k =  -0.500  0.032 -0.500
   - k =  -0.500  0.019 -0.500
   - k =  -0.500  0.006 -0.500
   - k =  -0.500 -0.006 -0.500
   - k =  -0.500 -0.019 -0.500
   - k =  -0.500 -0.032 -0.500
   - k =  -0.500 -0.044 -0.500
   - k =  -0.500 -0.057 -0.500
   - k =  -0.500 -0.070 -0.500
   - k =  -0.500 -0.082 -0.500
   - k =  -0.500 -0.095 -0.500
   - k =  -0.500 -0.108 -0.500
   - k =  -0.500 -0.120 -0.500
   - k =  -0.500 -0.133 -0.500
   - k =  -0.500 -0.146 -0.500
   - k =  -0.500 -0.158 -0.500
   - k =  -0.500 -0.171 -0.500
   - k =  -0.500 -0.184 -0.500
   - k =  -0.500 -0.196 -0.500
   - k =  -0.500 -0.209 -0.500
   - k =  -0.500 -0.222 -0.500
   - k =  -0.500 -0.234 -0.500
   - k =  -0.500 -0.247 -0.500
   - k =  -0.500 -0.259 -0.500
   - k =  -0.500 -0.272 -0.500
   - k =  -0.500 -0.285 -0.500
   - k =  -0.500 -0.297 -0.500
   - k =  -0.500 -0.310 -0.500
   - k =  -0.500 -0.323 -0.500
   - k =  -0.500 -0.335 -0.500
   - k =  -0.500 -0.348 -0.500
   - k =  -0.500 -0.361 -0.500
   - k =  -0.500 -0.373 -0.500
   - k =  -0.500 -0.386 -0.500
   - k =  -0.500 -0.399 -0.500
   - k =  -0.500 -0.411 -0.500
   - k =  -0.500 -0.424 -0.500
   - k =  -0.500 -0.437 -0.500
   - k =  -0.500 -0.449 -0.500
   - k =  -0.500 -0.462 -0.500
   - k =  -0.500 -0.475 -0.500
   - k =  -0.500 -0.487 -0.500
   - k =  -0.500 -0.500 -0.500

  |-> Computing Wannier center evolution at k-point number:      1
 Using pol_lapack_version = 2
 Calculating dipole matrix along reciprocal lattice vector 2:     0.000     0.840     0.000
  Integrating dipole matrix.
  Time summed over all CPUs for integration: real work      147.515 s, elapsed      160.707 s
 Calculating Berry  term along reciprocal lattice vector 2:     0.000     0.840     0.000
 Calculating dipole term along reciprocal lattice vector 2:     0.000     0.840     0.000

  Treating all   80 k-points in band plot segment #   2:
   Sampling over :
   - k =  -0.500  0.500 -0.357
   - k =  -0.500  0.487 -0.357
   - k =  -0.500  0.475 -0.357
   - k =  -0.500  0.462 -0.357
   - k =  -0.500  0.449 -0.357
   - k =  -0.500  0.437 -0.357
   - k =  -0.500  0.424 -0.357
   - k =  -0.500  0.411 -0.357
   - k =  -0.500  0.399 -0.357
   - k =  -0.500  0.386 -0.357
   - k =  -0.500  0.373 -0.357
   - k =  -0.500  0.361 -0.357
   - k =  -0.500  0.348 -0.357
   - k =  -0.500  0.335 -0.357
   - k =  -0.500  0.323 -0.357
   - k =  -0.500  0.310 -0.357
   - k =  -0.500  0.297 -0.357
   - k =  -0.500  0.285 -0.357
   - k =  -0.500  0.272 -0.357
   - k =  -0.500  0.259 -0.357
   - k =  -0.500  0.247 -0.357
   - k =  -0.500  0.234 -0.357
   - k =  -0.500  0.222 -0.357
   - k =  -0.500  0.209 -0.357
   - k =  -0.500  0.196 -0.357
   - k =  -0.500  0.184 -0.357
   - k =  -0.500  0.171 -0.357
   - k =  -0.500  0.158 -0.357
   - k =  -0.500  0.146 -0.357
   - k =  -0.500  0.133 -0.357
   - k =  -0.500  0.120 -0.357
   - k =  -0.500  0.108 -0.357
   - k =  -0.500  0.095 -0.357
   - k =  -0.500  0.082 -0.357
   - k =  -0.500  0.070 -0.357
   - k =  -0.500  0.057 -0.357
   - k =  -0.500  0.044 -0.357
   - k =  -0.500  0.032 -0.357
   - k =  -0.500  0.019 -0.357
   - k =  -0.500  0.006 -0.357
   - k =  -0.500 -0.006 -0.357
   - k =  -0.500 -0.019 -0.357
   - k =  -0.500 -0.032 -0.357
   - k =  -0.500 -0.044 -0.357
   - k =  -0.500 -0.057 -0.357
   - k =  -0.500 -0.070 -0.357
   - k =  -0.500 -0.082 -0.357
   - k =  -0.500 -0.095 -0.357
   - k =  -0.500 -0.108 -0.357
   - k =  -0.500 -0.120 -0.357
   - k =  -0.500 -0.133 -0.357
   - k =  -0.500 -0.146 -0.357
   - k =  -0.500 -0.158 -0.357
   - k =  -0.500 -0.171 -0.357
   - k =  -0.500 -0.184 -0.357
   - k =  -0.500 -0.196 -0.357
   - k =  -0.500 -0.209 -0.357
   - k =  -0.500 -0.222 -0.357
   - k =  -0.500 -0.234 -0.357
   - k =  -0.500 -0.247 -0.357
   - k =  -0.500 -0.259 -0.357
   - k =  -0.500 -0.272 -0.357
   - k =  -0.500 -0.285 -0.357
   - k =  -0.500 -0.297 -0.357
   - k =  -0.500 -0.310 -0.357
   - k =  -0.500 -0.323 -0.357
   - k =  -0.500 -0.335 -0.357
   - k =  -0.500 -0.348 -0.357
   - k =  -0.500 -0.361 -0.357
   - k =  -0.500 -0.373 -0.357
   - k =  -0.500 -0.386 -0.357
   - k =  -0.500 -0.399 -0.357
   - k =  -0.500 -0.411 -0.357
   - k =  -0.500 -0.424 -0.357
   - k =  -0.500 -0.437 -0.357
   - k =  -0.500 -0.449 -0.357
   - k =  -0.500 -0.462 -0.357
   - k =  -0.500 -0.475 -0.357
   - k =  -0.500 -0.487 -0.357
   - k =  -0.500 -0.500 -0.357

  |-> Computing Wannier center evolution at k-point number:      2
 Using pol_lapack_version = 2
 Calculating Berry  term along reciprocal lattice vector 2:     0.000     0.840     0.000
 Calculating dipole term along reciprocal lattice vector 2:     0.000     0.840     0.000

  Treating all   80 k-points in band plot segment #   3:
   Sampling over :
   - k =  -0.500  0.500 -0.214
   - k =  -0.500  0.487 -0.214
   - k =  -0.500  0.475 -0.214
   - k =  -0.500  0.462 -0.214
   - k =  -0.500  0.449 -0.214
   - k =  -0.500  0.437 -0.214
   - k =  -0.500  0.424 -0.214
   - k =  -0.500  0.411 -0.214
   - k =  -0.500  0.399 -0.214
   - k =  -0.500  0.386 -0.214
   - k =  -0.500  0.373 -0.214
   - k =  -0.500  0.361 -0.214
   - k =  -0.500  0.348 -0.214
   - k =  -0.500  0.335 -0.214
   - k =  -0.500  0.323 -0.214
   - k =  -0.500  0.310 -0.214
   - k =  -0.500  0.297 -0.214
   - k =  -0.500  0.285 -0.214
   - k =  -0.500  0.272 -0.214
   - k =  -0.500  0.259 -0.214
   - k =  -0.500  0.247 -0.214
   - k =  -0.500  0.234 -0.214
   - k =  -0.500  0.222 -0.214
   - k =  -0.500  0.209 -0.214
   - k =  -0.500  0.196 -0.214
   - k =  -0.500  0.184 -0.214
   - k =  -0.500  0.171 -0.214
   - k =  -0.500  0.158 -0.214
   - k =  -0.500  0.146 -0.214
   - k =  -0.500  0.133 -0.214
   - k =  -0.500  0.120 -0.214
   - k =  -0.500  0.108 -0.214
   - k =  -0.500  0.095 -0.214
   - k =  -0.500  0.082 -0.214
   - k =  -0.500  0.070 -0.214
   - k =  -0.500  0.057 -0.214
   - k =  -0.500  0.044 -0.214
   - k =  -0.500  0.032 -0.214
   - k =  -0.500  0.019 -0.214
   - k =  -0.500  0.006 -0.214
   - k =  -0.500 -0.006 -0.214
   - k =  -0.500 -0.019 -0.214
   - k =  -0.500 -0.032 -0.214
   - k =  -0.500 -0.044 -0.214
   - k =  -0.500 -0.057 -0.214
   - k =  -0.500 -0.070 -0.214
   - k =  -0.500 -0.082 -0.214
   - k =  -0.500 -0.095 -0.214
   - k =  -0.500 -0.108 -0.214
   - k =  -0.500 -0.120 -0.214
   - k =  -0.500 -0.133 -0.214
   - k =  -0.500 -0.146 -0.214
   - k =  -0.500 -0.158 -0.214
   - k =  -0.500 -0.171 -0.214
   - k =  -0.500 -0.184 -0.214
   - k =  -0.500 -0.196 -0.214
   - k =  -0.500 -0.209 -0.214
   - k =  -0.500 -0.222 -0.214
   - k =  -0.500 -0.234 -0.214
   - k =  -0.500 -0.247 -0.214
   - k =  -0.500 -0.259 -0.214
   - k =  -0.500 -0.272 -0.214
   - k =  -0.500 -0.285 -0.214
   - k =  -0.500 -0.297 -0.214
   - k =  -0.500 -0.310 -0.214
   - k =  -0.500 -0.323 -0.214
   - k =  -0.500 -0.335 -0.214
   - k =  -0.500 -0.348 -0.214
   - k =  -0.500 -0.361 -0.214
   - k =  -0.500 -0.373 -0.214
   - k =  -0.500 -0.386 -0.214
   - k =  -0.500 -0.399 -0.214
   - k =  -0.500 -0.411 -0.214
   - k =  -0.500 -0.424 -0.214
   - k =  -0.500 -0.437 -0.214
   - k =  -0.500 -0.449 -0.214
   - k =  -0.500 -0.462 -0.214
   - k =  -0.500 -0.475 -0.214
   - k =  -0.500 -0.487 -0.214
   - k =  -0.500 -0.500 -0.214

  |-> Computing Wannier center evolution at k-point number:      3
 Using pol_lapack_version = 2
 Calculating Berry  term along reciprocal lattice vector 2:     0.000     0.840     0.000
 Calculating dipole term along reciprocal lattice vector 2:     0.000     0.840     0.000

  Treating all   80 k-points in band plot segment #   4:
   Sampling over :
   - k =  -0.500  0.500 -0.071
   - k =  -0.500  0.487 -0.071
   - k =  -0.500  0.475 -0.071
   - k =  -0.500  0.462 -0.071
   - k =  -0.500  0.449 -0.071
   - k =  -0.500  0.437 -0.071
   - k =  -0.500  0.424 -0.071
   - k =  -0.500  0.411 -0.071
   - k =  -0.500  0.399 -0.071
   - k =  -0.500  0.386 -0.071
   - k =  -0.500  0.373 -0.071
   - k =  -0.500  0.361 -0.071
   - k =  -0.500  0.348 -0.071
   - k =  -0.500  0.335 -0.071
   - k =  -0.500  0.323 -0.071
   - k =  -0.500  0.310 -0.071
   - k =  -0.500  0.297 -0.071
   - k =  -0.500  0.285 -0.071
   - k =  -0.500  0.272 -0.071
   - k =  -0.500  0.259 -0.071
   - k =  -0.500  0.247 -0.071
   - k =  -0.500  0.234 -0.071
   - k =  -0.500  0.222 -0.071
   - k =  -0.500  0.209 -0.071
   - k =  -0.500  0.196 -0.071
   - k =  -0.500  0.184 -0.071
   - k =  -0.500  0.171 -0.071
   - k =  -0.500  0.158 -0.071
   - k =  -0.500  0.146 -0.071
   - k =  -0.500  0.133 -0.071
   - k =  -0.500  0.120 -0.071
   - k =  -0.500  0.108 -0.071
   - k =  -0.500  0.095 -0.071
   - k =  -0.500  0.082 -0.071
   - k =  -0.500  0.070 -0.071
   - k =  -0.500  0.057 -0.071
   - k =  -0.500  0.044 -0.071
   - k =  -0.500  0.032 -0.071
   - k =  -0.500  0.019 -0.071
   - k =  -0.500  0.006 -0.071
   - k =  -0.500 -0.006 -0.071
   - k =  -0.500 -0.019 -0.071
   - k =  -0.500 -0.032 -0.071
   - k =  -0.500 -0.044 -0.071
   - k =  -0.500 -0.057 -0.071
   - k =  -0.500 -0.070 -0.071
   - k =  -0.500 -0.082 -0.071
   - k =  -0.500 -0.095 -0.071
   - k =  -0.500 -0.108 -0.071
   - k =  -0.500 -0.120 -0.071
   - k =  -0.500 -0.133 -0.071
   - k =  -0.500 -0.146 -0.071
   - k =  -0.500 -0.158 -0.071
   - k =  -0.500 -0.171 -0.071
   - k =  -0.500 -0.184 -0.071
   - k =  -0.500 -0.196 -0.071
   - k =  -0.500 -0.209 -0.071
   - k =  -0.500 -0.222 -0.071
   - k =  -0.500 -0.234 -0.071
   - k =  -0.500 -0.247 -0.071
   - k =  -0.500 -0.259 -0.071
   - k =  -0.500 -0.272 -0.071
   - k =  -0.500 -0.285 -0.071
   - k =  -0.500 -0.297 -0.071
   - k =  -0.500 -0.310 -0.071
   - k =  -0.500 -0.323 -0.071
   - k =  -0.500 -0.335 -0.071
   - k =  -0.500 -0.348 -0.071
   - k =  -0.500 -0.361 -0.071
   - k =  -0.500 -0.373 -0.071
   - k =  -0.500 -0.386 -0.071
   - k =  -0.500 -0.399 -0.071
   - k =  -0.500 -0.411 -0.071
   - k =  -0.500 -0.424 -0.071
   - k =  -0.500 -0.437 -0.071
   - k =  -0.500 -0.449 -0.071
   - k =  -0.500 -0.462 -0.071
   - k =  -0.500 -0.475 -0.071
   - k =  -0.500 -0.487 -0.071
   - k =  -0.500 -0.500 -0.071

  |-> Computing Wannier center evolution at k-point number:      4
 Using pol_lapack_version = 2
 Calculating Berry  term along reciprocal lattice vector 2:     0.000     0.840     0.000
 Calculating dipole term along reciprocal lattice vector 2:     0.000     0.840     0.000

  Treating all   80 k-points in band plot segment #   5:
   Sampling over :
   - k =  -0.500  0.500  0.071
   - k =  -0.500  0.487  0.071
   - k =  -0.500  0.475  0.071
   - k =  -0.500  0.462  0.071
   - k =  -0.500  0.449  0.071
   - k =  -0.500  0.437  0.071
   - k =  -0.500  0.424  0.071
   - k =  -0.500  0.411  0.071
   - k =  -0.500  0.399  0.071
   - k =  -0.500  0.386  0.071
   - k =  -0.500  0.373  0.071
   - k =  -0.500  0.361  0.071
   - k =  -0.500  0.348  0.071
   - k =  -0.500  0.335  0.071
   - k =  -0.500  0.323  0.071
   - k =  -0.500  0.310  0.071
   - k =  -0.500  0.297  0.071
   - k =  -0.500  0.285  0.071
   - k =  -0.500  0.272  0.071
   - k =  -0.500  0.259  0.071
   - k =  -0.500  0.247  0.071
   - k =  -0.500  0.234  0.071
   - k =  -0.500  0.222  0.071
   - k =  -0.500  0.209  0.071
   - k =  -0.500  0.196  0.071
   - k =  -0.500  0.184  0.071
   - k =  -0.500  0.171  0.071
   - k =  -0.500  0.158  0.071
   - k =  -0.500  0.146  0.071
   - k =  -0.500  0.133  0.071
   - k =  -0.500  0.120  0.071
   - k =  -0.500  0.108  0.071
   - k =  -0.500  0.095  0.071
   - k =  -0.500  0.082  0.071
   - k =  -0.500  0.070  0.071
   - k =  -0.500  0.057  0.071
   - k =  -0.500  0.044  0.071
   - k =  -0.500  0.032  0.071
   - k =  -0.500  0.019  0.071
   - k =  -0.500  0.006  0.071
   - k =  -0.500 -0.006  0.071
   - k =  -0.500 -0.019  0.071
   - k =  -0.500 -0.032  0.071
   - k =  -0.500 -0.044  0.071
   - k =  -0.500 -0.057  0.071
   - k =  -0.500 -0.070  0.071
   - k =  -0.500 -0.082  0.071
   - k =  -0.500 -0.095  0.071
   - k =  -0.500 -0.108  0.071
   - k =  -0.500 -0.120  0.071
   - k =  -0.500 -0.133  0.071
   - k =  -0.500 -0.146  0.071
   - k =  -0.500 -0.158  0.071
   - k =  -0.500 -0.171  0.071
   - k =  -0.500 -0.184  0.071
   - k =  -0.500 -0.196  0.071
   - k =  -0.500 -0.209  0.071
   - k =  -0.500 -0.222  0.071
   - k =  -0.500 -0.234  0.071
   - k =  -0.500 -0.247  0.071
   - k =  -0.500 -0.259  0.071
   - k =  -0.500 -0.272  0.071
   - k =  -0.500 -0.285  0.071
   - k =  -0.500 -0.297  0.071
   - k =  -0.500 -0.310  0.071
   - k =  -0.500 -0.323  0.071
   - k =  -0.500 -0.335  0.071
   - k =  -0.500 -0.348  0.071
   - k =  -0.500 -0.361  0.071
   - k =  -0.500 -0.373  0.071
   - k =  -0.500 -0.386  0.071
   - k =  -0.500 -0.399  0.071
   - k =  -0.500 -0.411  0.071
   - k =  -0.500 -0.424  0.071
   - k =  -0.500 -0.437  0.071
   - k =  -0.500 -0.449  0.071
   - k =  -0.500 -0.462  0.071
   - k =  -0.500 -0.475  0.071
   - k =  -0.500 -0.487  0.071
   - k =  -0.500 -0.500  0.071

  |-> Computing Wannier center evolution at k-point number:      5
 Using pol_lapack_version = 2
 Calculating Berry  term along reciprocal lattice vector 2:     0.000     0.840     0.000
 Calculating dipole term along reciprocal lattice vector 2:     0.000     0.840     0.000

  Treating all   80 k-points in band plot segment #   6:
   Sampling over :
   - k =  -0.500  0.500  0.214
   - k =  -0.500  0.487  0.214
   - k =  -0.500  0.475  0.214
   - k =  -0.500  0.462  0.214
   - k =  -0.500  0.449  0.214
   - k =  -0.500  0.437  0.214
   - k =  -0.500  0.424  0.214
   - k =  -0.500  0.411  0.214
   - k =  -0.500  0.399  0.214
   - k =  -0.500  0.386  0.214
   - k =  -0.500  0.373  0.214
   - k =  -0.500  0.361  0.214
   - k =  -0.500  0.348  0.214
   - k =  -0.500  0.335  0.214
   - k =  -0.500  0.323  0.214
   - k =  -0.500  0.310  0.214
   - k =  -0.500  0.297  0.214
   - k =  -0.500  0.285  0.214
   - k =  -0.500  0.272  0.214
   - k =  -0.500  0.259  0.214
   - k =  -0.500  0.247  0.214
   - k =  -0.500  0.234  0.214
   - k =  -0.500  0.222  0.214
   - k =  -0.500  0.209  0.214
   - k =  -0.500  0.196  0.214
   - k =  -0.500  0.184  0.214
   - k =  -0.500  0.171  0.214
   - k =  -0.500  0.158  0.214
   - k =  -0.500  0.146  0.214
   - k =  -0.500  0.133  0.214
   - k =  -0.500  0.120  0.214
   - k =  -0.500  0.108  0.214
   - k =  -0.500  0.095  0.214
   - k =  -0.500  0.082  0.214
   - k =  -0.500  0.070  0.214
   - k =  -0.500  0.057  0.214
   - k =  -0.500  0.044  0.214
   - k =  -0.500  0.032  0.214
   - k =  -0.500  0.019  0.214
   - k =  -0.500  0.006  0.214
   - k =  -0.500 -0.006  0.214
   - k =  -0.500 -0.019  0.214
   - k =  -0.500 -0.032  0.214
   - k =  -0.500 -0.044  0.214
   - k =  -0.500 -0.057  0.214
   - k =  -0.500 -0.070  0.214
   - k =  -0.500 -0.082  0.214
   - k =  -0.500 -0.095  0.214
   - k =  -0.500 -0.108  0.214
   - k =  -0.500 -0.120  0.214
   - k =  -0.500 -0.133  0.214
   - k =  -0.500 -0.146  0.214
   - k =  -0.500 -0.158  0.214
   - k =  -0.500 -0.171  0.214
   - k =  -0.500 -0.184  0.214
   - k =  -0.500 -0.196  0.214
   - k =  -0.500 -0.209  0.214
   - k =  -0.500 -0.222  0.214
   - k =  -0.500 -0.234  0.214
   - k =  -0.500 -0.247  0.214
   - k =  -0.500 -0.259  0.214
   - k =  -0.500 -0.272  0.214
   - k =  -0.500 -0.285  0.214
   - k =  -0.500 -0.297  0.214
   - k =  -0.500 -0.310  0.214
   - k =  -0.500 -0.323  0.214
   - k =  -0.500 -0.335  0.214
   - k =  -0.500 -0.348  0.214
   - k =  -0.500 -0.361  0.214
   - k =  -0.500 -0.373  0.214
   - k =  -0.500 -0.386  0.214
   - k =  -0.500 -0.399  0.214
   - k =  -0.500 -0.411  0.214
   - k =  -0.500 -0.424  0.214
   - k =  -0.500 -0.437  0.214
   - k =  -0.500 -0.449  0.214
   - k =  -0.500 -0.462  0.214
   - k =  -0.500 -0.475  0.214
   - k =  -0.500 -0.487  0.214
   - k =  -0.500 -0.500  0.214

  |-> Computing Wannier center evolution at k-point number:      6
 Using pol_lapack_version = 2
 Calculating Berry  term along reciprocal lattice vector 2:     0.000     0.840     0.000
 Calculating dipole term along reciprocal lattice vector 2:     0.000     0.840     0.000

  Treating all   80 k-points in band plot segment #   7:
   Sampling over :
   - k =  -0.500  0.500  0.357
   - k =  -0.500  0.487  0.357
   - k =  -0.500  0.475  0.357
   - k =  -0.500  0.462  0.357
   - k =  -0.500  0.449  0.357
   - k =  -0.500  0.437  0.357
   - k =  -0.500  0.424  0.357
   - k =  -0.500  0.411  0.357
   - k =  -0.500  0.399  0.357
   - k =  -0.500  0.386  0.357
   - k =  -0.500  0.373  0.357
   - k =  -0.500  0.361  0.357
   - k =  -0.500  0.348  0.357
   - k =  -0.500  0.335  0.357
   - k =  -0.500  0.323  0.357
   - k =  -0.500  0.310  0.357
   - k =  -0.500  0.297  0.357
   - k =  -0.500  0.285  0.357
   - k =  -0.500  0.272  0.357
   - k =  -0.500  0.259  0.357
   - k =  -0.500  0.247  0.357
   - k =  -0.500  0.234  0.357
   - k =  -0.500  0.222  0.357
   - k =  -0.500  0.209  0.357
   - k =  -0.500  0.196  0.357
   - k =  -0.500  0.184  0.357
   - k =  -0.500  0.171  0.357
   - k =  -0.500  0.158  0.357
   - k =  -0.500  0.146  0.357
   - k =  -0.500  0.133  0.357
   - k =  -0.500  0.120  0.357
   - k =  -0.500  0.108  0.357
   - k =  -0.500  0.095  0.357
   - k =  -0.500  0.082  0.357
   - k =  -0.500  0.070  0.357
   - k =  -0.500  0.057  0.357
   - k =  -0.500  0.044  0.357
   - k =  -0.500  0.032  0.357
   - k =  -0.500  0.019  0.357
   - k =  -0.500  0.006  0.357
   - k =  -0.500 -0.006  0.357
   - k =  -0.500 -0.019  0.357
   - k =  -0.500 -0.032  0.357
   - k =  -0.500 -0.044  0.357
   - k =  -0.500 -0.057  0.357
   - k =  -0.500 -0.070  0.357
   - k =  -0.500 -0.082  0.357
   - k =  -0.500 -0.095  0.357
   - k =  -0.500 -0.108  0.357
   - k =  -0.500 -0.120  0.357
   - k =  -0.500 -0.133  0.357
   - k =  -0.500 -0.146  0.357
   - k =  -0.500 -0.158  0.357
   - k =  -0.500 -0.171  0.357
   - k =  -0.500 -0.184  0.357
   - k =  -0.500 -0.196  0.357
   - k =  -0.500 -0.209  0.357
   - k =  -0.500 -0.222  0.357
   - k =  -0.500 -0.234  0.357
   - k =  -0.500 -0.247  0.357
   - k =  -0.500 -0.259  0.357
   - k =  -0.500 -0.272  0.357
   - k =  -0.500 -0.285  0.357
   - k =  -0.500 -0.297  0.357
   - k =  -0.500 -0.310  0.357
   - k =  -0.500 -0.323  0.357
   - k =  -0.500 -0.335  0.357
   - k =  -0.500 -0.348  0.357
   - k =  -0.500 -0.361  0.357
   - k =  -0.500 -0.373  0.357
   - k =  -0.500 -0.386  0.357
   - k =  -0.500 -0.399  0.357
   - k =  -0.500 -0.411  0.357
   - k =  -0.500 -0.424  0.357
   - k =  -0.500 -0.437  0.357
   - k =  -0.500 -0.449  0.357
   - k =  -0.500 -0.462  0.357
   - k =  -0.500 -0.475  0.357
   - k =  -0.500 -0.487  0.357
   - k =  -0.500 -0.500  0.357

  |-> Computing Wannier center evolution at k-point number:      7
 Using pol_lapack_version = 2
 Calculating Berry  term along reciprocal lattice vector 2:     0.000     0.840     0.000
 Calculating dipole term along reciprocal lattice vector 2:     0.000     0.840     0.000

  Treating all   80 k-points in band plot segment #   8:
   Sampling over :
   - k =  -0.500  0.500  0.500
   - k =  -0.500  0.487  0.500
   - k =  -0.500  0.475  0.500
   - k =  -0.500  0.462  0.500
   - k =  -0.500  0.449  0.500
   - k =  -0.500  0.437  0.500
   - k =  -0.500  0.424  0.500
   - k =  -0.500  0.411  0.500
   - k =  -0.500  0.399  0.500
   - k =  -0.500  0.386  0.500
   - k =  -0.500  0.373  0.500
   - k =  -0.500  0.361  0.500
   - k =  -0.500  0.348  0.500
   - k =  -0.500  0.335  0.500
   - k =  -0.500  0.323  0.500
   - k =  -0.500  0.310  0.500
   - k =  -0.500  0.297  0.500
   - k =  -0.500  0.285  0.500
   - k =  -0.500  0.272  0.500
   - k =  -0.500  0.259  0.500
   - k =  -0.500  0.247  0.500
   - k =  -0.500  0.234  0.500
   - k =  -0.500  0.222  0.500
   - k =  -0.500  0.209  0.500
   - k =  -0.500  0.196  0.500
   - k =  -0.500  0.184  0.500
   - k =  -0.500  0.171  0.500
   - k =  -0.500  0.158  0.500
   - k =  -0.500  0.146  0.500
   - k =  -0.500  0.133  0.500
   - k =  -0.500  0.120  0.500
   - k =  -0.500  0.108  0.500
   - k =  -0.500  0.095  0.500
   - k =  -0.500  0.082  0.500
   - k =  -0.500  0.070  0.500
   - k =  -0.500  0.057  0.500
   - k =  -0.500  0.044  0.500
   - k =  -0.500  0.032  0.500
   - k =  -0.500  0.019  0.500
   - k =  -0.500  0.006  0.500
   - k =  -0.500 -0.006  0.500
   - k =  -0.500 -0.019  0.500
   - k =  -0.500 -0.032  0.500
   - k =  -0.500 -0.044  0.500
   - k =  -0.500 -0.057  0.500
   - k =  -0.500 -0.070  0.500
   - k =  -0.500 -0.082  0.500
   - k =  -0.500 -0.095  0.500
   - k =  -0.500 -0.108  0.500
   - k =  -0.500 -0.120  0.500
   - k =  -0.500 -0.133  0.500
   - k =  -0.500 -0.146  0.500
   - k =  -0.500 -0.158  0.500
   - k =  -0.500 -0.171  0.500
   - k =  -0.500 -0.184  0.500
   - k =  -0.500 -0.196  0.500
   - k =  -0.500 -0.209  0.500
   - k =  -0.500 -0.222  0.500
   - k =  -0.500 -0.234  0.500
   - k =  -0.500 -0.247  0.500
   - k =  -0.500 -0.259  0.500
   - k =  -0.500 -0.272  0.500
   - k =  -0.500 -0.285  0.500
   - k =  -0.500 -0.297  0.500
   - k =  -0.500 -0.310  0.500
   - k =  -0.500 -0.323  0.500
   - k =  -0.500 -0.335  0.500
   - k =  -0.500 -0.348  0.500
   - k =  -0.500 -0.361  0.500
   - k =  -0.500 -0.373  0.500
   - k =  -0.500 -0.386  0.500
   - k =  -0.500 -0.399  0.500
   - k =  -0.500 -0.411  0.500
   - k =  -0.500 -0.424  0.500
   - k =  -0.500 -0.437  0.500
   - k =  -0.500 -0.449  0.500
   - k =  -0.500 -0.462  0.500
   - k =  -0.500 -0.475  0.500
   - k =  -0.500 -0.487  0.500
   - k =  -0.500 -0.500  0.500

  |-> Computing Wannier center evolution at k-point number:      8
 Using pol_lapack_version = 2
 Calculating Berry  term along reciprocal lattice vector 2:     0.000     0.840     0.000
 Calculating dipole term along reciprocal lattice vector 2:     0.000     0.840     0.000

  Treating all   80 k-points in band plot segment #   9:
   Sampling over :
   - k =  -0.357  0.500 -0.500
   - k =  -0.357  0.487 -0.500
   - k =  -0.357  0.475 -0.500
   - k =  -0.357  0.462 -0.500
   - k =  -0.357  0.449 -0.500
   - k =  -0.357  0.437 -0.500
   - k =  -0.357  0.424 -0.500
   - k =  -0.357  0.411 -0.500
   - k =  -0.357  0.399 -0.500
   - k =  -0.357  0.386 -0.500
   - k =  -0.357  0.373 -0.500
   - k =  -0.357  0.361 -0.500
   - k =  -0.357  0.348 -0.500
   - k =  -0.357  0.335 -0.500
   - k =  -0.357  0.323 -0.500
   - k =  -0.357  0.310 -0.500
   - k =  -0.357  0.297 -0.500
   - k =  -0.357  0.285 -0.500
   - k =  -0.357  0.272 -0.500
   - k =  -0.357  0.259 -0.500
   - k =  -0.357  0.247 -0.500
   - k =  -0.357  0.234 -0.500
   - k =  -0.357  0.222 -0.500
   - k =  -0.357  0.209 -0.500
   - k =  -0.357  0.196 -0.500
   - k =  -0.357  0.184 -0.500
   - k =  -0.357  0.171 -0.500
   - k =  -0.357  0.158 -0.500
   - k =  -0.357  0.146 -0.500
   - k =  -0.357  0.133 -0.500
   - k =  -0.357  0.120 -0.500
   - k =  -0.357  0.108 -0.500
   - k =  -0.357  0.095 -0.500
   - k =  -0.357  0.082 -0.500
   - k =  -0.357  0.070 -0.500
   - k =  -0.357  0.057 -0.500
   - k =  -0.357  0.044 -0.500
   - k =  -0.357  0.032 -0.500
   - k =  -0.357  0.019 -0.500
   - k =  -0.357  0.006 -0.500
   - k =  -0.357 -0.006 -0.500
   - k =  -0.357 -0.019 -0.500
   - k =  -0.357 -0.032 -0.500
   - k =  -0.357 -0.044 -0.500
   - k =  -0.357 -0.057 -0.500
   - k =  -0.357 -0.070 -0.500
   - k =  -0.357 -0.082 -0.500
   - k =  -0.357 -0.095 -0.500
   - k =  -0.357 -0.108 -0.500
   - k =  -0.357 -0.120 -0.500
   - k =  -0.357 -0.133 -0.500
   - k =  -0.357 -0.146 -0.500
   - k =  -0.357 -0.158 -0.500
   - k =  -0.357 -0.171 -0.500
   - k =  -0.357 -0.184 -0.500
   - k =  -0.357 -0.196 -0.500
   - k =  -0.357 -0.209 -0.500
   - k =  -0.357 -0.222 -0.500
   - k =  -0.357 -0.234 -0.500
   - k =  -0.357 -0.247 -0.500
   - k =  -0.357 -0.259 -0.500
   - k =  -0.357 -0.272 -0.500
   - k =  -0.357 -0.285 -0.500
   - k =  -0.357 -0.297 -0.500
   - k =  -0.357 -0.310 -0.500
   - k =  -0.357 -0.323 -0.500
   - k =  -0.357 -0.335 -0.500
   - k =  -0.357 -0.348 -0.500
   - k =  -0.357 -0.361 -0.500
   - k =  -0.357 -0.373 -0.500
   - k =  -0.357 -0.386 -0.500
   - k =  -0.357 -0.399 -0.500
   - k =  -0.357 -0.411 -0.500
   - k =  -0.357 -0.424 -0.500
   - k =  -0.357 -0.437 -0.500
   - k =  -0.357 -0.449 -0.500
   - k =  -0.357 -0.462 -0.500
   - k =  -0.357 -0.475 -0.500
   - k =  -0.357 -0.487 -0.500
   - k =  -0.357 -0.500 -0.500

  |-> Computing Wannier center evolution at k-point number:      9
 Using pol_lapack_version = 2
 Calculating Berry  term along reciprocal lattice vector 2:     0.000     0.840     0.000
 Calculating dipole term along reciprocal lattice vector 2:     0.000     0.840     0.000

  Treating all   80 k-points in band plot segment #  10:
   Sampling over :
   - k =  -0.357  0.500 -0.357
   - k =  -0.357  0.487 -0.357
   - k =  -0.357  0.475 -0.357
   - k =  -0.357  0.462 -0.357
   - k =  -0.357  0.449 -0.357
   - k =  -0.357  0.437 -0.357
   - k =  -0.357  0.424 -0.357
   - k =  -0.357  0.411 -0.357
   - k =  -0.357  0.399 -0.357
   - k =  -0.357  0.386 -0.357
   - k =  -0.357  0.373 -0.357
   - k =  -0.357  0.361 -0.357
   - k =  -0.357  0.348 -0.357
   - k =  -0.357  0.335 -0.357
   - k =  -0.357  0.323 -0.357
   - k =  -0.357  0.310 -0.357
   - k =  -0.357  0.297 -0.357
   - k =  -0.357  0.285 -0.357
   - k =  -0.357  0.272 -0.357
   - k =  -0.357  0.259 -0.357
   - k =  -0.357  0.247 -0.357
   - k =  -0.357  0.234 -0.357
   - k =  -0.357  0.222 -0.357
   - k =  -0.357  0.209 -0.357
   - k =  -0.357  0.196 -0.357
   - k =  -0.357  0.184 -0.357
   - k =  -0.357  0.171 -0.357
   - k =  -0.357  0.158 -0.357
   - k =  -0.357  0.146 -0.357
   - k =  -0.357  0.133 -0.357
   - k =  -0.357  0.120 -0.357
   - k =  -0.357  0.108 -0.357
   - k =  -0.357  0.095 -0.357
   - k =  -0.357  0.082 -0.357
   - k =  -0.357  0.070 -0.357
   - k =  -0.357  0.057 -0.357
   - k =  -0.357  0.044 -0.357
   - k =  -0.357  0.032 -0.357
   - k =  -0.357  0.019 -0.357
   - k =  -0.357  0.006 -0.357
   - k =  -0.357 -0.006 -0.357
   - k =  -0.357 -0.019 -0.357
   - k =  -0.357 -0.032 -0.357
   - k =  -0.357 -0.044 -0.357
   - k =  -0.357 -0.057 -0.357
   - k =  -0.357 -0.070 -0.357
   - k =  -0.357 -0.082 -0.357
   - k =  -0.357 -0.095 -0.357
   - k =  -0.357 -0.108 -0.357
   - k =  -0.357 -0.120 -0.357
   - k =  -0.357 -0.133 -0.357
   - k =  -0.357 -0.146 -0.357
   - k =  -0.357 -0.158 -0.357
   - k =  -0.357 -0.171 -0.357
   - k =  -0.357 -0.184 -0.357
   - k =  -0.357 -0.196 -0.357
   - k =  -0.357 -0.209 -0.357
   - k =  -0.357 -0.222 -0.357
   - k =  -0.357 -0.234 -0.357
   - k =  -0.357 -0.247 -0.357
   - k =  -0.357 -0.259 -0.357
   - k =  -0.357 -0.272 -0.357
   - k =  -0.357 -0.285 -0.357
   - k =  -0.357 -0.297 -0.357
   - k =  -0.357 -0.310 -0.357
   - k =  -0.357 -0.323 -0.357
   - k =  -0.357 -0.335 -0.357
   - k =  -0.357 -0.348 -0.357
   - k =  -0.357 -0.361 -0.357
   - k =  -0.357 -0.373 -0.357
   - k =  -0.357 -0.386 -0.357
   - k =  -0.357 -0.399 -0.357
   - k =  -0.357 -0.411 -0.357
   - k =  -0.357 -0.424 -0.357
   - k =  -0.357 -0.437 -0.357
   - k =  -0.357 -0.449 -0.357
   - k =  -0.357 -0.462 -0.357
   - k =  -0.357 -0.475 -0.357
   - k =  -0.357 -0.487 -0.357
   - k =  -0.357 -0.500 -0.357

  |-> Computing Wannier center evolution at k-point number:     10
 Using pol_lapack_version = 2
 Calculating Berry  term along reciprocal lattice vector 2:     0.000     0.840     0.000
 Calculating dipole term along reciprocal lattice vector 2:     0.000     0.840     0.000

  Treating all   80 k-points in band plot segment #  11:
   Sampling over :
   - k =  -0.357  0.500 -0.214
   - k =  -0.357  0.487 -0.214
   - k =  -0.357  0.475 -0.214
   - k =  -0.357  0.462 -0.214
   - k =  -0.357  0.449 -0.214
   - k =  -0.357  0.437 -0.214
   - k =  -0.357  0.424 -0.214
   - k =  -0.357  0.411 -0.214
   - k =  -0.357  0.399 -0.214
   - k =  -0.357  0.386 -0.214
   - k =  -0.357  0.373 -0.214
   - k =  -0.357  0.361 -0.214
   - k =  -0.357  0.348 -0.214
   - k =  -0.357  0.335 -0.214
   - k =  -0.357  0.323 -0.214
   - k =  -0.357  0.310 -0.214
   - k =  -0.357  0.297 -0.214
   - k =  -0.357  0.285 -0.214
   - k =  -0.357  0.272 -0.214
   - k =  -0.357  0.259 -0.214
   - k =  -0.357  0.247 -0.214
   - k =  -0.357  0.234 -0.214
   - k =  -0.357  0.222 -0.214
   - k =  -0.357  0.209 -0.214
   - k =  -0.357  0.196 -0.214
   - k =  -0.357  0.184 -0.214
   - k =  -0.357  0.171 -0.214
   - k =  -0.357  0.158 -0.214
   - k =  -0.357  0.146 -0.214
   - k =  -0.357  0.133 -0.214
   - k =  -0.357  0.120 -0.214
   - k =  -0.357  0.108 -0.214
   - k =  -0.357  0.095 -0.214
   - k =  -0.357  0.082 -0.214
   - k =  -0.357  0.070 -0.214
   - k =  -0.357  0.057 -0.214
   - k =  -0.357  0.044 -0.214
   - k =  -0.357  0.032 -0.214
   - k =  -0.357  0.019 -0.214
   - k =  -0.357  0.006 -0.214
   - k =  -0.357 -0.006 -0.214
   - k =  -0.357 -0.019 -0.214
   - k =  -0.357 -0.032 -0.214
   - k =  -0.357 -0.044 -0.214
   - k =  -0.357 -0.057 -0.214
   - k =  -0.357 -0.070 -0.214
   - k =  -0.357 -0.082 -0.214
   - k =  -0.357 -0.095 -0.214
   - k =  -0.357 -0.108 -0.214
   - k =  -0.357 -0.120 -0.214
   - k =  -0.357 -0.133 -0.214
   - k =  -0.357 -0.146 -0.214
   - k =  -0.357 -0.158 -0.214
   - k =  -0.357 -0.171 -0.214
   - k =  -0.357 -0.184 -0.214
   - k =  -0.357 -0.196 -0.214
   - k =  -0.357 -0.209 -0.214
   - k =  -0.357 -0.222 -0.214
   - k =  -0.357 -0.234 -0.214
   - k =  -0.357 -0.247 -0.214
   - k =  -0.357 -0.259 -0.214
   - k =  -0.357 -0.272 -0.214
   - k =  -0.357 -0.285 -0.214
   - k =  -0.357 -0.297 -0.214
   - k =  -0.357 -0.310 -0.214
   - k =  -0.357 -0.323 -0.214
   - k =  -0.357 -0.335 -0.214
   - k =  -0.357 -0.348 -0.214
   - k =  -0.357 -0.361 -0.214
   - k =  -0.357 -0.373 -0.214
   - k =  -0.357 -0.386 -0.214
   - k =  -0.357 -0.399 -0.214
   - k =  -0.357 -0.411 -0.214
   - k =  -0.357 -0.424 -0.214
   - k =  -0.357 -0.437 -0.214
   - k =  -0.357 -0.449 -0.214
   - k =  -0.357 -0.462 -0.214
   - k =  -0.357 -0.475 -0.214
   - k =  -0.357 -0.487 -0.214
   - k =  -0.357 -0.500 -0.214

  |-> Computing Wannier center evolution at k-point number:     11
 Using pol_lapack_version = 2
 Calculating Berry  term along reciprocal lattice vector 2:     0.000     0.840     0.000
 Calculating dipole term along reciprocal lattice vector 2:     0.000     0.840     0.000

  Treating all   80 k-points in band plot segment #  12:
   Sampling over :
   - k =  -0.357  0.500 -0.071
   - k =  -0.357  0.487 -0.071
   - k =  -0.357  0.475 -0.071
   - k =  -0.357  0.462 -0.071
   - k =  -0.357  0.449 -0.071
   - k =  -0.357  0.437 -0.071
   - k =  -0.357  0.424 -0.071
   - k =  -0.357  0.411 -0.071
   - k =  -0.357  0.399 -0.071
   - k =  -0.357  0.386 -0.071
   - k =  -0.357  0.373 -0.071
   - k =  -0.357  0.361 -0.071
   - k =  -0.357  0.348 -0.071
   - k =  -0.357  0.335 -0.071
   - k =  -0.357  0.323 -0.071
   - k =  -0.357  0.310 -0.071
   - k =  -0.357  0.297 -0.071
   - k =  -0.357  0.285 -0.071
   - k =  -0.357  0.272 -0.071
   - k =  -0.357  0.259 -0.071
   - k =  -0.357  0.247 -0.071
   - k =  -0.357  0.234 -0.071
   - k =  -0.357  0.222 -0.071
   - k =  -0.357  0.209 -0.071
   - k =  -0.357  0.196 -0.071
   - k =  -0.357  0.184 -0.071
   - k =  -0.357  0.171 -0.071
   - k =  -0.357  0.158 -0.071
   - k =  -0.357  0.146 -0.071
   - k =  -0.357  0.133 -0.071
   - k =  -0.357  0.120 -0.071
   - k =  -0.357  0.108 -0.071
   - k =  -0.357  0.095 -0.071
   - k =  -0.357  0.082 -0.071
   - k =  -0.357  0.070 -0.071
   - k =  -0.357  0.057 -0.071
   - k =  -0.357  0.044 -0.071
   - k =  -0.357  0.032 -0.071
   - k =  -0.357  0.019 -0.071
   - k =  -0.357  0.006 -0.071
   - k =  -0.357 -0.006 -0.071
   - k =  -0.357 -0.019 -0.071
   - k =  -0.357 -0.032 -0.071
   - k =  -0.357 -0.044 -0.071
   - k =  -0.357 -0.057 -0.071
   - k =  -0.357 -0.070 -0.071
   - k =  -0.357 -0.082 -0.071
   - k =  -0.357 -0.095 -0.071
   - k =  -0.357 -0.108 -0.071
   - k =  -0.357 -0.120 -0.071
   - k =  -0.357 -0.133 -0.071
   - k =  -0.357 -0.146 -0.071
   - k =  -0.357 -0.158 -0.071
   - k =  -0.357 -0.171 -0.071
   - k =  -0.357 -0.184 -0.071
   - k =  -0.357 -0.196 -0.071
   - k =  -0.357 -0.209 -0.071
   - k =  -0.357 -0.222 -0.071
   - k =  -0.357 -0.234 -0.071
   - k =  -0.357 -0.247 -0.071
   - k =  -0.357 -0.259 -0.071
   - k =  -0.357 -0.272 -0.071
   - k =  -0.357 -0.285 -0.071
   - k =  -0.357 -0.297 -0.071
   - k =  -0.357 -0.310 -0.071
   - k =  -0.357 -0.323 -0.071
   - k =  -0.357 -0.335 -0.071
   - k =  -0.357 -0.348 -0.071
   - k =  -0.357 -0.361 -0.071
   - k =  -0.357 -0.373 -0.071
   - k =  -0.357 -0.386 -0.071
   - k =  -0.357 -0.399 -0.071
   - k =  -0.357 -0.411 -0.071
   - k =  -0.357 -0.424 -0.071
   - k =  -0.357 -0.437 -0.071
   - k =  -0.357 -0.449 -0.071
   - k =  -0.357 -0.462 -0.071
   - k =  -0.357 -0.475 -0.071
   - k =  -0.357 -0.487 -0.071
   - k =  -0.357 -0.500 -0.071

  |-> Computing Wannier center evolution at k-point number:     12
 Using pol_lapack_version = 2
 Calculating Berry  term along reciprocal lattice vector 2:     0.000     0.840     0.000
 Calculating dipole term along reciprocal lattice vector 2:     0.000     0.840     0.000

  Treating all   80 k-points in band plot segment #  13:
   Sampling over :
   - k =  -0.357  0.500  0.071
   - k =  -0.357  0.487  0.071
   - k =  -0.357  0.475  0.071
   - k =  -0.357  0.462  0.071
   - k =  -0.357  0.449  0.071
   - k =  -0.357  0.437  0.071
   - k =  -0.357  0.424  0.071
   - k =  -0.357  0.411  0.071
   - k =  -0.357  0.399  0.071
   - k =  -0.357  0.386  0.071
   - k =  -0.357  0.373  0.071
   - k =  -0.357  0.361  0.071
   - k =  -0.357  0.348  0.071
   - k =  -0.357  0.335  0.071
   - k =  -0.357  0.323  0.071
   - k =  -0.357  0.310  0.071
   - k =  -0.357  0.297  0.071
   - k =  -0.357  0.285  0.071
   - k =  -0.357  0.272  0.071
   - k =  -0.357  0.259  0.071
   - k =  -0.357  0.247  0.071
   - k =  -0.357  0.234  0.071
   - k =  -0.357  0.222  0.071
   - k =  -0.357  0.209  0.071
   - k =  -0.357  0.196  0.071
   - k =  -0.357  0.184  0.071
   - k =  -0.357  0.171  0.071
   - k =  -0.357  0.158  0.071
   - k =  -0.357  0.146  0.071
   - k =  -0.357  0.133  0.071
   - k =  -0.357  0.120  0.071
   - k =  -0.357  0.108  0.071
   - k =  -0.357  0.095  0.071
   - k =  -0.357  0.082  0.071
   - k =  -0.357  0.070  0.071
   - k =  -0.357  0.057  0.071
   - k =  -0.357  0.044  0.071
   - k =  -0.357  0.032  0.071
   - k =  -0.357  0.019  0.071
   - k =  -0.357  0.006  0.071
   - k =  -0.357 -0.006  0.071
   - k =  -0.357 -0.019  0.071
   - k =  -0.357 -0.032  0.071
   - k =  -0.357 -0.044  0.071
   - k =  -0.357 -0.057  0.071
   - k =  -0.357 -0.070  0.071
   - k =  -0.357 -0.082  0.071
   - k =  -0.357 -0.095  0.071
   - k =  -0.357 -0.108  0.071
   - k =  -0.357 -0.120  0.071
   - k =  -0.357 -0.133  0.071
   - k =  -0.357 -0.146  0.071
   - k =  -0.357 -0.158  0.071
   - k =  -0.357 -0.171  0.071
   - k =  -0.357 -0.184  0.071
   - k =  -0.357 -0.196  0.071
   - k =  -0.357 -0.209  0.071
   - k =  -0.357 -0.222  0.071
   - k =  -0.357 -0.234  0.071
   - k =  -0.357 -0.247  0.071
   - k =  -0.357 -0.259  0.071
   - k =  -0.357 -0.272  0.071
   - k =  -0.357 -0.285  0.071
   - k =  -0.357 -0.297  0.071
   - k =  -0.357 -0.310  0.071
   - k =  -0.357 -0.323  0.071
   - k =  -0.357 -0.335  0.071
   - k =  -0.357 -0.348  0.071
   - k =  -0.357 -0.361  0.071
   - k =  -0.357 -0.373  0.071
   - k =  -0.357 -0.386  0.071
   - k =  -0.357 -0.399  0.071
   - k =  -0.357 -0.411  0.071
   - k =  -0.357 -0.424  0.071
   - k =  -0.357 -0.437  0.071
   - k =  -0.357 -0.449  0.071
   - k =  -0.357 -0.462  0.071
   - k =  -0.357 -0.475  0.071
   - k =  -0.357 -0.487  0.071
   - k =  -0.357 -0.500  0.071

  |-> Computing Wannier center evolution at k-point number:     13
 Using pol_lapack_version = 2
 Calculating Berry  term along reciprocal lattice vector 2:     0.000     0.840     0.000
 Calculating dipole term along reciprocal lattice vector 2:     0.000     0.840     0.000

  Treating all   80 k-points in band plot segment #  14:
   Sampling over :
   - k =  -0.357  0.500  0.214
   - k =  -0.357  0.487  0.214
   - k =  -0.357  0.475  0.214
   - k =  -0.357  0.462  0.214
   - k =  -0.357  0.449  0.214
   - k =  -0.357  0.437  0.214
   - k =  -0.357  0.424  0.214
   - k =  -0.357  0.411  0.214
   - k =  -0.357  0.399  0.214
   - k =  -0.357  0.386  0.214
   - k =  -0.357  0.373  0.214
   - k =  -0.357  0.361  0.214
   - k =  -0.357  0.348  0.214
   - k =  -0.357  0.335  0.214
   - k =  -0.357  0.323  0.214
   - k =  -0.357  0.310  0.214
   - k =  -0.357  0.297  0.214
   - k =  -0.357  0.285  0.214
   - k =  -0.357  0.272  0.214
   - k =  -0.357  0.259  0.214
   - k =  -0.357  0.247  0.214
   - k =  -0.357  0.234  0.214
   - k =  -0.357  0.222  0.214
   - k =  -0.357  0.209  0.214
   - k =  -0.357  0.196  0.214
   - k =  -0.357  0.184  0.214
   - k =  -0.357  0.171  0.214
   - k =  -0.357  0.158  0.214
   - k =  -0.357  0.146  0.214
   - k =  -0.357  0.133  0.214
   - k =  -0.357  0.120  0.214
   - k =  -0.357  0.108  0.214
   - k =  -0.357  0.095  0.214
   - k =  -0.357  0.082  0.214
   - k =  -0.357  0.070  0.214
   - k =  -0.357  0.057  0.214
   - k =  -0.357  0.044  0.214
   - k =  -0.357  0.032  0.214
   - k =  -0.357  0.019  0.214
   - k =  -0.357  0.006  0.214
   - k =  -0.357 -0.006  0.214
   - k =  -0.357 -0.019  0.214
   - k =  -0.357 -0.032  0.214
   - k =  -0.357 -0.044  0.214
   - k =  -0.357 -0.057  0.214
   - k =  -0.357 -0.070  0.214
   - k =  -0.357 -0.082  0.214
   - k =  -0.357 -0.095  0.214
   - k =  -0.357 -0.108  0.214
   - k =  -0.357 -0.120  0.214
   - k =  -0.357 -0.133  0.214
   - k =  -0.357 -0.146  0.214
   - k =  -0.357 -0.158  0.214
   - k =  -0.357 -0.171  0.214
   - k =  -0.357 -0.184  0.214
   - k =  -0.357 -0.196  0.214
   - k =  -0.357 -0.209  0.214
   - k =  -0.357 -0.222  0.214
   - k =  -0.357 -0.234  0.214
   - k =  -0.357 -0.247  0.214
   - k =  -0.357 -0.259  0.214
   - k =  -0.357 -0.272  0.214
   - k =  -0.357 -0.285  0.214
   - k =  -0.357 -0.297  0.214
   - k =  -0.357 -0.310  0.214
   - k =  -0.357 -0.323  0.214
   - k =  -0.357 -0.335  0.214
   - k =  -0.357 -0.348  0.214
   - k =  -0.357 -0.361  0.214
   - k =  -0.357 -0.373  0.214
   - k =  -0.357 -0.386  0.214
   - k =  -0.357 -0.399  0.214
   - k =  -0.357 -0.411  0.214
   - k =  -0.357 -0.424  0.214
   - k =  -0.357 -0.437  0.214
   - k =  -0.357 -0.449  0.214
   - k =  -0.357 -0.462  0.214
   - k =  -0.357 -0.475  0.214
   - k =  -0.357 -0.487  0.214
   - k =  -0.357 -0.500  0.214

  |-> Computing Wannier center evolution at k-point number:     14
 Using pol_lapack_version = 2
 Calculating Berry  term along reciprocal lattice vector 2:     0.000     0.840     0.000
 Calculating dipole term along reciprocal lattice vector 2:     0.000     0.840     0.000

  Treating all   80 k-points in band plot segment #  15:
   Sampling over :
   - k =  -0.357  0.500  0.357
   - k =  -0.357  0.487  0.357
   - k =  -0.357  0.475  0.357
   - k =  -0.357  0.462  0.357
   - k =  -0.357  0.449  0.357
   - k =  -0.357  0.437  0.357
   - k =  -0.357  0.424  0.357
   - k =  -0.357  0.411  0.357
   - k =  -0.357  0.399  0.357
   - k =  -0.357  0.386  0.357
   - k =  -0.357  0.373  0.357
   - k =  -0.357  0.361  0.357
   - k =  -0.357  0.348  0.357
   - k =  -0.357  0.335  0.357
   - k =  -0.357  0.323  0.357
   - k =  -0.357  0.310  0.357
   - k =  -0.357  0.297  0.357
   - k =  -0.357  0.285  0.357
   - k =  -0.357  0.272  0.357
   - k =  -0.357  0.259  0.357
   - k =  -0.357  0.247  0.357
   - k =  -0.357  0.234  0.357
   - k =  -0.357  0.222  0.357
   - k =  -0.357  0.209  0.357
   - k =  -0.357  0.196  0.357
   - k =  -0.357  0.184  0.357
   - k =  -0.357  0.171  0.357
   - k =  -0.357  0.158  0.357
   - k =  -0.357  0.146  0.357
   - k =  -0.357  0.133  0.357
   - k =  -0.357  0.120  0.357
   - k =  -0.357  0.108  0.357
   - k =  -0.357  0.095  0.357
   - k =  -0.357  0.082  0.357
   - k =  -0.357  0.070  0.357
   - k =  -0.357  0.057  0.357
   - k =  -0.357  0.044  0.357
   - k =  -0.357  0.032  0.357
   - k =  -0.357  0.019  0.357
   - k =  -0.357  0.006  0.357
   - k =  -0.357 -0.006  0.357
   - k =  -0.357 -0.019  0.357
   - k =  -0.357 -0.032  0.357
   - k =  -0.357 -0.044  0.357
   - k =  -0.357 -0.057  0.357
   - k =  -0.357 -0.070  0.357
   - k =  -0.357 -0.082  0.357
   - k =  -0.357 -0.095  0.357
   - k =  -0.357 -0.108  0.357
   - k =  -0.357 -0.120  0.357
   - k =  -0.357 -0.133  0.357
   - k =  -0.357 -0.146  0.357
   - k =  -0.357 -0.158  0.357
   - k =  -0.357 -0.171  0.357
   - k =  -0.357 -0.184  0.357
   - k =  -0.357 -0.196  0.357
   - k =  -0.357 -0.209  0.357
   - k =  -0.357 -0.222  0.357
   - k =  -0.357 -0.234  0.357
   - k =  -0.357 -0.247  0.357
   - k =  -0.357 -0.259  0.357
   - k =  -0.357 -0.272  0.357
   - k =  -0.357 -0.285  0.357
   - k =  -0.357 -0.297  0.357
   - k =  -0.357 -0.310  0.357
   - k =  -0.357 -0.323  0.357
   - k =  -0.357 -0.335  0.357
   - k =  -0.357 -0.348  0.357
   - k =  -0.357 -0.361  0.357
   - k =  -0.357 -0.373  0.357
   - k =  -0.357 -0.386  0.357
   - k =  -0.357 -0.399  0.357
   - k =  -0.357 -0.411  0.357
   - k =  -0.357 -0.424  0.357
   - k =  -0.357 -0.437  0.357
   - k =  -0.357 -0.449  0.357
   - k =  -0.357 -0.462  0.357
   - k =  -0.357 -0.475  0.357
   - k =  -0.357 -0.487  0.357
   - k =  -0.357 -0.500  0.357

  |-> Computing Wannier center evolution at k-point number:     15
 Using pol_lapack_version = 2
 Calculating Berry  term along reciprocal lattice vector 2:     0.000     0.840     0.000
 Calculating dipole term along reciprocal lattice vector 2:     0.000     0.840     0.000

  Treating all   80 k-points in band plot segment #  16:
   Sampling over :
   - k =  -0.357  0.500  0.500
   - k =  -0.357  0.487  0.500
   - k =  -0.357  0.475  0.500
   - k =  -0.357  0.462  0.500
   - k =  -0.357  0.449  0.500
   - k =  -0.357  0.437  0.500
   - k =  -0.357  0.424  0.500
   - k =  -0.357  0.411  0.500
   - k =  -0.357  0.399  0.500
   - k =  -0.357  0.386  0.500
   - k =  -0.357  0.373  0.500
   - k =  -0.357  0.361  0.500
   - k =  -0.357  0.348  0.500
   - k =  -0.357  0.335  0.500
   - k =  -0.357  0.323  0.500
   - k =  -0.357  0.310  0.500
   - k =  -0.357  0.297  0.500
   - k =  -0.357  0.285  0.500
   - k =  -0.357  0.272  0.500
   - k =  -0.357  0.259  0.500
   - k =  -0.357  0.247  0.500
   - k =  -0.357  0.234  0.500
   - k =  -0.357  0.222  0.500
   - k =  -0.357  0.209  0.500
   - k =  -0.357  0.196  0.500
   - k =  -0.357  0.184  0.500
   - k =  -0.357  0.171  0.500
   - k =  -0.357  0.158  0.500
   - k =  -0.357  0.146  0.500
   - k =  -0.357  0.133  0.500
   - k =  -0.357  0.120  0.500
   - k =  -0.357  0.108  0.500
   - k =  -0.357  0.095  0.500
   - k =  -0.357  0.082  0.500
   - k =  -0.357  0.070  0.500
   - k =  -0.357  0.057  0.500
   - k =  -0.357  0.044  0.500
   - k =  -0.357  0.032  0.500
   - k =  -0.357  0.019  0.500
   - k =  -0.357  0.006  0.500
   - k =  -0.357 -0.006  0.500
   - k =  -0.357 -0.019  0.500
   - k =  -0.357 -0.032  0.500
   - k =  -0.357 -0.044  0.500
   - k =  -0.357 -0.057  0.500
   - k =  -0.357 -0.070  0.500
   - k =  -0.357 -0.082  0.500
   - k =  -0.357 -0.095  0.500
   - k =  -0.357 -0.108  0.500
   - k =  -0.357 -0.120  0.500
   - k =  -0.357 -0.133  0.500
   - k =  -0.357 -0.146  0.500
   - k =  -0.357 -0.158  0.500
   - k =  -0.357 -0.171  0.500
   - k =  -0.357 -0.184  0.500
   - k =  -0.357 -0.196  0.500
   - k =  -0.357 -0.209  0.500
   - k =  -0.357 -0.222  0.500
   - k =  -0.357 -0.234  0.500
   - k =  -0.357 -0.247  0.500
   - k =  -0.357 -0.259  0.500
   - k =  -0.357 -0.272  0.500
   - k =  -0.357 -0.285  0.500
   - k =  -0.357 -0.297  0.500
   - k =  -0.357 -0.310  0.500
   - k =  -0.357 -0.323  0.500
   - k =  -0.357 -0.335  0.500
   - k =  -0.357 -0.348  0.500
   - k =  -0.357 -0.361  0.500
   - k =  -0.357 -0.373  0.500
   - k =  -0.357 -0.386  0.500
   - k =  -0.357 -0.399  0.500
   - k =  -0.357 -0.411  0.500
   - k =  -0.357 -0.424  0.500
   - k =  -0.357 -0.437  0.500
   - k =  -0.357 -0.449  0.500
   - k =  -0.357 -0.462  0.500
   - k =  -0.357 -0.475  0.500
   - k =  -0.357 -0.487  0.500
   - k =  -0.357 -0.500  0.500

  |-> Computing Wannier center evolution at k-point number:     16
 Using pol_lapack_version = 2
 Calculating Berry  term along reciprocal lattice vector 2:     0.000     0.840     0.000
 Calculating dipole term along reciprocal lattice vector 2:     0.000     0.840     0.000

  Treating all   80 k-points in band plot segment #  17:
   Sampling over :
   - k =  -0.214  0.500 -0.500
   - k =  -0.214  0.487 -0.500
   - k =  -0.214  0.475 -0.500
   - k =  -0.214  0.462 -0.500
   - k =  -0.214  0.449 -0.500
   - k =  -0.214  0.437 -0.500
   - k =  -0.214  0.424 -0.500
   - k =  -0.214  0.411 -0.500
   - k =  -0.214  0.399 -0.500
   - k =  -0.214  0.386 -0.500
   - k =  -0.214  0.373 -0.500
   - k =  -0.214  0.361 -0.500
   - k =  -0.214  0.348 -0.500
   - k =  -0.214  0.335 -0.500
   - k =  -0.214  0.323 -0.500
   - k =  -0.214  0.310 -0.500
   - k =  -0.214  0.297 -0.500
   - k =  -0.214  0.285 -0.500
   - k =  -0.214  0.272 -0.500
   - k =  -0.214  0.259 -0.500
   - k =  -0.214  0.247 -0.500
   - k =  -0.214  0.234 -0.500
   - k =  -0.214  0.222 -0.500
   - k =  -0.214  0.209 -0.500
   - k =  -0.214  0.196 -0.500
   - k =  -0.214  0.184 -0.500
   - k =  -0.214  0.171 -0.500
   - k =  -0.214  0.158 -0.500
   - k =  -0.214  0.146 -0.500
   - k =  -0.214  0.133 -0.500
   - k =  -0.214  0.120 -0.500
   - k =  -0.214  0.108 -0.500
   - k =  -0.214  0.095 -0.500
   - k =  -0.214  0.082 -0.500
   - k =  -0.214  0.070 -0.500
   - k =  -0.214  0.057 -0.500
   - k =  -0.214  0.044 -0.500
   - k =  -0.214  0.032 -0.500
   - k =  -0.214  0.019 -0.500
   - k =  -0.214  0.006 -0.500
   - k =  -0.214 -0.006 -0.500
   - k =  -0.214 -0.019 -0.500
   - k =  -0.214 -0.032 -0.500
   - k =  -0.214 -0.044 -0.500
   - k =  -0.214 -0.057 -0.500
   - k =  -0.214 -0.070 -0.500
   - k =  -0.214 -0.082 -0.500
   - k =  -0.214 -0.095 -0.500
   - k =  -0.214 -0.108 -0.500
   - k =  -0.214 -0.120 -0.500
   - k =  -0.214 -0.133 -0.500
   - k =  -0.214 -0.146 -0.500
   - k =  -0.214 -0.158 -0.500
   - k =  -0.214 -0.171 -0.500
   - k =  -0.214 -0.184 -0.500
   - k =  -0.214 -0.196 -0.500
   - k =  -0.214 -0.209 -0.500
   - k =  -0.214 -0.222 -0.500
   - k =  -0.214 -0.234 -0.500
   - k =  -0.214 -0.247 -0.500
   - k =  -0.214 -0.259 -0.500
   - k =  -0.214 -0.272 -0.500
   - k =  -0.214 -0.285 -0.500
   - k =  -0.214 -0.297 -0.500
   - k =  -0.214 -0.310 -0.500
   - k =  -0.214 -0.323 -0.500
   - k =  -0.214 -0.335 -0.500
   - k =  -0.214 -0.348 -0.500
   - k =  -0.214 -0.361 -0.500
   - k =  -0.214 -0.373 -0.500
   - k =  -0.214 -0.386 -0.500
   - k =  -0.214 -0.399 -0.500
   - k =  -0.214 -0.411 -0.500
   - k =  -0.214 -0.424 -0.500
   - k =  -0.214 -0.437 -0.500
   - k =  -0.214 -0.449 -0.500
   - k =  -0.214 -0.462 -0.500
   - k =  -0.214 -0.475 -0.500
   - k =  -0.214 -0.487 -0.500
   - k =  -0.214 -0.500 -0.500

  |-> Computing Wannier center evolution at k-point number:     17
 Using pol_lapack_version = 2
 Calculating Berry  term along reciprocal lattice vector 2:     0.000     0.840     0.000
 Calculating dipole term along reciprocal lattice vector 2:     0.000     0.840     0.000

  Treating all   80 k-points in band plot segment #  18:
   Sampling over :
   - k =  -0.214  0.500 -0.357
   - k =  -0.214  0.487 -0.357
   - k =  -0.214  0.475 -0.357
   - k =  -0.214  0.462 -0.357
   - k =  -0.214  0.449 -0.357
   - k =  -0.214  0.437 -0.357
   - k =  -0.214  0.424 -0.357
   - k =  -0.214  0.411 -0.357
   - k =  -0.214  0.399 -0.357
   - k =  -0.214  0.386 -0.357
   - k =  -0.214  0.373 -0.357
   - k =  -0.214  0.361 -0.357
   - k =  -0.214  0.348 -0.357
   - k =  -0.214  0.335 -0.357
   - k =  -0.214  0.323 -0.357
   - k =  -0.214  0.310 -0.357
   - k =  -0.214  0.297 -0.357
   - k =  -0.214  0.285 -0.357
   - k =  -0.214  0.272 -0.357
   - k =  -0.214  0.259 -0.357
   - k =  -0.214  0.247 -0.357
   - k =  -0.214  0.234 -0.357
   - k =  -0.214  0.222 -0.357
   - k =  -0.214  0.209 -0.357
   - k =  -0.214  0.196 -0.357
   - k =  -0.214  0.184 -0.357
   - k =  -0.214  0.171 -0.357
   - k =  -0.214  0.158 -0.357
   - k =  -0.214  0.146 -0.357
   - k =  -0.214  0.133 -0.357
   - k =  -0.214  0.120 -0.357
   - k =  -0.214  0.108 -0.357
   - k =  -0.214  0.095 -0.357
   - k =  -0.214  0.082 -0.357
   - k =  -0.214  0.070 -0.357
   - k =  -0.214  0.057 -0.357
   - k =  -0.214  0.044 -0.357
   - k =  -0.214  0.032 -0.357
   - k =  -0.214  0.019 -0.357
   - k =  -0.214  0.006 -0.357
   - k =  -0.214 -0.006 -0.357
   - k =  -0.214 -0.019 -0.357
   - k =  -0.214 -0.032 -0.357
   - k =  -0.214 -0.044 -0.357
   - k =  -0.214 -0.057 -0.357
   - k =  -0.214 -0.070 -0.357
   - k =  -0.214 -0.082 -0.357
   - k =  -0.214 -0.095 -0.357
   - k =  -0.214 -0.108 -0.357
   - k =  -0.214 -0.120 -0.357
   - k =  -0.214 -0.133 -0.357
   - k =  -0.214 -0.146 -0.357
   - k =  -0.214 -0.158 -0.357
   - k =  -0.214 -0.171 -0.357
   - k =  -0.214 -0.184 -0.357
   - k =  -0.214 -0.196 -0.357
   - k =  -0.214 -0.209 -0.357
   - k =  -0.214 -0.222 -0.357
   - k =  -0.214 -0.234 -0.357
   - k =  -0.214 -0.247 -0.357
   - k =  -0.214 -0.259 -0.357
   - k =  -0.214 -0.272 -0.357
   - k =  -0.214 -0.285 -0.357
   - k =  -0.214 -0.297 -0.357
   - k =  -0.214 -0.310 -0.357
   - k =  -0.214 -0.323 -0.357
   - k =  -0.214 -0.335 -0.357
   - k =  -0.214 -0.348 -0.357
   - k =  -0.214 -0.361 -0.357
   - k =  -0.214 -0.373 -0.357
   - k =  -0.214 -0.386 -0.357
   - k =  -0.214 -0.399 -0.357
   - k =  -0.214 -0.411 -0.357
   - k =  -0.214 -0.424 -0.357
   - k =  -0.214 -0.437 -0.357
   - k =  -0.214 -0.449 -0.357
   - k =  -0.214 -0.462 -0.357
   - k =  -0.214 -0.475 -0.357
   - k =  -0.214 -0.487 -0.357
   - k =  -0.214 -0.500 -0.357

  |-> Computing Wannier center evolution at k-point number:     18
 Using pol_lapack_version = 2
 Calculating Berry  term along reciprocal lattice vector 2:     0.000     0.840     0.000
 Calculating dipole term along reciprocal lattice vector 2:     0.000     0.840     0.000

  Treating all   80 k-points in band plot segment #  19:
   Sampling over :
   - k =  -0.214  0.500 -0.214
   - k =  -0.214  0.487 -0.214
   - k =  -0.214  0.475 -0.214
   - k =  -0.214  0.462 -0.214
   - k =  -0.214  0.449 -0.214
   - k =  -0.214  0.437 -0.214
   - k =  -0.214  0.424 -0.214
   - k =  -0.214  0.411 -0.214
   - k =  -0.214  0.399 -0.214
   - k =  -0.214  0.386 -0.214
   - k =  -0.214  0.373 -0.214
   - k =  -0.214  0.361 -0.214
   - k =  -0.214  0.348 -0.214
   - k =  -0.214  0.335 -0.214
   - k =  -0.214  0.323 -0.214
   - k =  -0.214  0.310 -0.214
   - k =  -0.214  0.297 -0.214
   - k =  -0.214  0.285 -0.214
   - k =  -0.214  0.272 -0.214
   - k =  -0.214  0.259 -0.214
   - k =  -0.214  0.247 -0.214
   - k =  -0.214  0.234 -0.214
   - k =  -0.214  0.222 -0.214
   - k =  -0.214  0.209 -0.214
   - k =  -0.214  0.196 -0.214
   - k =  -0.214  0.184 -0.214
   - k =  -0.214  0.171 -0.214
   - k =  -0.214  0.158 -0.214
   - k =  -0.214  0.146 -0.214
   - k =  -0.214  0.133 -0.214
   - k =  -0.214  0.120 -0.214
   - k =  -0.214  0.108 -0.214
   - k =  -0.214  0.095 -0.214
   - k =  -0.214  0.082 -0.214
   - k =  -0.214  0.070 -0.214
   - k =  -0.214  0.057 -0.214
   - k =  -0.214  0.044 -0.214
   - k =  -0.214  0.032 -0.214
   - k =  -0.214  0.019 -0.214
   - k =  -0.214  0.006 -0.214
   - k =  -0.214 -0.006 -0.214
   - k =  -0.214 -0.019 -0.214
   - k =  -0.214 -0.032 -0.214
   - k =  -0.214 -0.044 -0.214
   - k =  -0.214 -0.057 -0.214
   - k =  -0.214 -0.070 -0.214
   - k =  -0.214 -0.082 -0.214
   - k =  -0.214 -0.095 -0.214
   - k =  -0.214 -0.108 -0.214
   - k =  -0.214 -0.120 -0.214
   - k =  -0.214 -0.133 -0.214
   - k =  -0.214 -0.146 -0.214
   - k =  -0.214 -0.158 -0.214
   - k =  -0.214 -0.171 -0.214
   - k =  -0.214 -0.184 -0.214
   - k =  -0.214 -0.196 -0.214
   - k =  -0.214 -0.209 -0.214
   - k =  -0.214 -0.222 -0.214
   - k =  -0.214 -0.234 -0.214
   - k =  -0.214 -0.247 -0.214
   - k =  -0.214 -0.259 -0.214
   - k =  -0.214 -0.272 -0.214
   - k =  -0.214 -0.285 -0.214
   - k =  -0.214 -0.297 -0.214
   - k =  -0.214 -0.310 -0.214
   - k =  -0.214 -0.323 -0.214
   - k =  -0.214 -0.335 -0.214
   - k =  -0.214 -0.348 -0.214
   - k =  -0.214 -0.361 -0.214
   - k =  -0.214 -0.373 -0.214
   - k =  -0.214 -0.386 -0.214
   - k =  -0.214 -0.399 -0.214
   - k =  -0.214 -0.411 -0.214
   - k =  -0.214 -0.424 -0.214
   - k =  -0.214 -0.437 -0.214
   - k =  -0.214 -0.449 -0.214
   - k =  -0.214 -0.462 -0.214
   - k =  -0.214 -0.475 -0.214
   - k =  -0.214 -0.487 -0.214
   - k =  -0.214 -0.500 -0.214

  |-> Computing Wannier center evolution at k-point number:     19
 Using pol_lapack_version = 2
 Calculating Berry  term along reciprocal lattice vector 2:     0.000     0.840     0.000
 Calculating dipole term along reciprocal lattice vector 2:     0.000     0.840     0.000

  Treating all   80 k-points in band plot segment #  20:
   Sampling over :
   - k =  -0.214  0.500 -0.071
   - k =  -0.214  0.487 -0.071
   - k =  -0.214  0.475 -0.071
   - k =  -0.214  0.462 -0.071
   - k =  -0.214  0.449 -0.071
   - k =  -0.214  0.437 -0.071
   - k =  -0.214  0.424 -0.071
   - k =  -0.214  0.411 -0.071
   - k =  -0.214  0.399 -0.071
   - k =  -0.214  0.386 -0.071
   - k =  -0.214  0.373 -0.071
   - k =  -0.214  0.361 -0.071
   - k =  -0.214  0.348 -0.071
   - k =  -0.214  0.335 -0.071
   - k =  -0.214  0.323 -0.071
   - k =  -0.214  0.310 -0.071
   - k =  -0.214  0.297 -0.071
   - k =  -0.214  0.285 -0.071
   - k =  -0.214  0.272 -0.071
   - k =  -0.214  0.259 -0.071
   - k =  -0.214  0.247 -0.071
   - k =  -0.214  0.234 -0.071
   - k =  -0.214  0.222 -0.071
   - k =  -0.214  0.209 -0.071
   - k =  -0.214  0.196 -0.071
   - k =  -0.214  0.184 -0.071
   - k =  -0.214  0.171 -0.071
   - k =  -0.214  0.158 -0.071
   - k =  -0.214  0.146 -0.071
   - k =  -0.214  0.133 -0.071
   - k =  -0.214  0.120 -0.071
   - k =  -0.214  0.108 -0.071
   - k =  -0.214  0.095 -0.071
   - k =  -0.214  0.082 -0.071
   - k =  -0.214  0.070 -0.071
   - k =  -0.214  0.057 -0.071
   - k =  -0.214  0.044 -0.071
   - k =  -0.214  0.032 -0.071
   - k =  -0.214  0.019 -0.071
   - k =  -0.214  0.006 -0.071
   - k =  -0.214 -0.006 -0.071
   - k =  -0.214 -0.019 -0.071
   - k =  -0.214 -0.032 -0.071
   - k =  -0.214 -0.044 -0.071
   - k =  -0.214 -0.057 -0.071
   - k =  -0.214 -0.070 -0.071
   - k =  -0.214 -0.082 -0.071
   - k =  -0.214 -0.095 -0.071
   - k =  -0.214 -0.108 -0.071
   - k =  -0.214 -0.120 -0.071
   - k =  -0.214 -0.133 -0.071
   - k =  -0.214 -0.146 -0.071
   - k =  -0.214 -0.158 -0.071
   - k =  -0.214 -0.171 -0.071
   - k =  -0.214 -0.184 -0.071
   - k =  -0.214 -0.196 -0.071
   - k =  -0.214 -0.209 -0.071
   - k =  -0.214 -0.222 -0.071
   - k =  -0.214 -0.234 -0.071
   - k =  -0.214 -0.247 -0.071
   - k =  -0.214 -0.259 -0.071
   - k =  -0.214 -0.272 -0.071
   - k =  -0.214 -0.285 -0.071
   - k =  -0.214 -0.297 -0.071
   - k =  -0.214 -0.310 -0.071
   - k =  -0.214 -0.323 -0.071
   - k =  -0.214 -0.335 -0.071
   - k =  -0.214 -0.348 -0.071
   - k =  -0.214 -0.361 -0.071
   - k =  -0.214 -0.373 -0.071
   - k =  -0.214 -0.386 -0.071
   - k =  -0.214 -0.399 -0.071
   - k =  -0.214 -0.411 -0.071
   - k =  -0.214 -0.424 -0.071
   - k =  -0.214 -0.437 -0.071
   - k =  -0.214 -0.449 -0.071
   - k =  -0.214 -0.462 -0.071
   - k =  -0.214 -0.475 -0.071
   - k =  -0.214 -0.487 -0.071
   - k =  -0.214 -0.500 -0.071

  |-> Computing Wannier center evolution at k-point number:     20
 Using pol_lapack_version = 2
 Calculating Berry  term along reciprocal lattice vector 2:     0.000     0.840     0.000
 Calculating dipole term along reciprocal lattice vector 2:     0.000     0.840     0.000

  Treating all   80 k-points in band plot segment #  21:
   Sampling over :
   - k =  -0.214  0.500  0.071
   - k =  -0.214  0.487  0.071
   - k =  -0.214  0.475  0.071
   - k =  -0.214  0.462  0.071
   - k =  -0.214  0.449  0.071
   - k =  -0.214  0.437  0.071
   - k =  -0.214  0.424  0.071
   - k =  -0.214  0.411  0.071
   - k =  -0.214  0.399  0.071
   - k =  -0.214  0.386  0.071
   - k =  -0.214  0.373  0.071
   - k =  -0.214  0.361  0.071
   - k =  -0.214  0.348  0.071
   - k =  -0.214  0.335  0.071
   - k =  -0.214  0.323  0.071
   - k =  -0.214  0.310  0.071
   - k =  -0.214  0.297  0.071
   - k =  -0.214  0.285  0.071
   - k =  -0.214  0.272  0.071
   - k =  -0.214  0.259  0.071
   - k =  -0.214  0.247  0.071
   - k =  -0.214  0.234  0.071
   - k =  -0.214  0.222  0.071
   - k =  -0.214  0.209  0.071
   - k =  -0.214  0.196  0.071
   - k =  -0.214  0.184  0.071
   - k =  -0.214  0.171  0.071
   - k =  -0.214  0.158  0.071
   - k =  -0.214  0.146  0.071
   - k =  -0.214  0.133  0.071
   - k =  -0.214  0.120  0.071
   - k =  -0.214  0.108  0.071
   - k =  -0.214  0.095  0.071
   - k =  -0.214  0.082  0.071
   - k =  -0.214  0.070  0.071
   - k =  -0.214  0.057  0.071
   - k =  -0.214  0.044  0.071
   - k =  -0.214  0.032  0.071
   - k =  -0.214  0.019  0.071
   - k =  -0.214  0.006  0.071
   - k =  -0.214 -0.006  0.071
   - k =  -0.214 -0.019  0.071
   - k =  -0.214 -0.032  0.071
   - k =  -0.214 -0.044  0.071
   - k =  -0.214 -0.057  0.071
   - k =  -0.214 -0.070  0.071
   - k =  -0.214 -0.082  0.071
   - k =  -0.214 -0.095  0.071
   - k =  -0.214 -0.108  0.071
   - k =  -0.214 -0.120  0.071
   - k =  -0.214 -0.133  0.071
   - k =  -0.214 -0.146  0.071
   - k =  -0.214 -0.158  0.071
   - k =  -0.214 -0.171  0.071
   - k =  -0.214 -0.184  0.071
   - k =  -0.214 -0.196  0.071
   - k =  -0.214 -0.209  0.071
   - k =  -0.214 -0.222  0.071
   - k =  -0.214 -0.234  0.071
   - k =  -0.214 -0.247  0.071
   - k =  -0.214 -0.259  0.071
   - k =  -0.214 -0.272  0.071
   - k =  -0.214 -0.285  0.071
   - k =  -0.214 -0.297  0.071
   - k =  -0.214 -0.310  0.071
   - k =  -0.214 -0.323  0.071
   - k =  -0.214 -0.335  0.071
   - k =  -0.214 -0.348  0.071
   - k =  -0.214 -0.361  0.071
   - k =  -0.214 -0.373  0.071
   - k =  -0.214 -0.386  0.071
   - k =  -0.214 -0.399  0.071
   - k =  -0.214 -0.411  0.071
   - k =  -0.214 -0.424  0.071
   - k =  -0.214 -0.437  0.071
   - k =  -0.214 -0.449  0.071
   - k =  -0.214 -0.462  0.071
   - k =  -0.214 -0.475  0.071
   - k =  -0.214 -0.487  0.071
   - k =  -0.214 -0.500  0.071

  |-> Computing Wannier center evolution at k-point number:     21
 Using pol_lapack_version = 2
 Calculating Berry  term along reciprocal lattice vector 2:     0.000     0.840     0.000
 Calculating dipole term along reciprocal lattice vector 2:     0.000     0.840     0.000

  Treating all   80 k-points in band plot segment #  22:
   Sampling over :
   - k =  -0.214  0.500  0.214
   - k =  -0.214  0.487  0.214
   - k =  -0.214  0.475  0.214
   - k =  -0.214  0.462  0.214
   - k =  -0.214  0.449  0.214
   - k =  -0.214  0.437  0.214
   - k =  -0.214  0.424  0.214
   - k =  -0.214  0.411  0.214
   - k =  -0.214  0.399  0.214
   - k =  -0.214  0.386  0.214
   - k =  -0.214  0.373  0.214
   - k =  -0.214  0.361  0.214
   - k =  -0.214  0.348  0.214
   - k =  -0.214  0.335  0.214
   - k =  -0.214  0.323  0.214
   - k =  -0.214  0.310  0.214
   - k =  -0.214  0.297  0.214
   - k =  -0.214  0.285  0.214
   - k =  -0.214  0.272  0.214
   - k =  -0.214  0.259  0.214
   - k =  -0.214  0.247  0.214
   - k =  -0.214  0.234  0.214
   - k =  -0.214  0.222  0.214
   - k =  -0.214  0.209  0.214
   - k =  -0.214  0.196  0.214
   - k =  -0.214  0.184  0.214
   - k =  -0.214  0.171  0.214
   - k =  -0.214  0.158  0.214
   - k =  -0.214  0.146  0.214
   - k =  -0.214  0.133  0.214
   - k =  -0.214  0.120  0.214
   - k =  -0.214  0.108  0.214
   - k =  -0.214  0.095  0.214
   - k =  -0.214  0.082  0.214
   - k =  -0.214  0.070  0.214
   - k =  -0.214  0.057  0.214
   - k =  -0.214  0.044  0.214
   - k =  -0.214  0.032  0.214
   - k =  -0.214  0.019  0.214
   - k =  -0.214  0.006  0.214
   - k =  -0.214 -0.006  0.214
   - k =  -0.214 -0.019  0.214
   - k =  -0.214 -0.032  0.214
   - k =  -0.214 -0.044  0.214
   - k =  -0.214 -0.057  0.214
   - k =  -0.214 -0.070  0.214
   - k =  -0.214 -0.082  0.214
   - k =  -0.214 -0.095  0.214
   - k =  -0.214 -0.108  0.214
   - k =  -0.214 -0.120  0.214
   - k =  -0.214 -0.133  0.214
   - k =  -0.214 -0.146  0.214
   - k =  -0.214 -0.158  0.214
   - k =  -0.214 -0.171  0.214
   - k =  -0.214 -0.184  0.214
   - k =  -0.214 -0.196  0.214
   - k =  -0.214 -0.209  0.214
   - k =  -0.214 -0.222  0.214
   - k =  -0.214 -0.234  0.214
   - k =  -0.214 -0.247  0.214
   - k =  -0.214 -0.259  0.214
   - k =  -0.214 -0.272  0.214
   - k =  -0.214 -0.285  0.214
   - k =  -0.214 -0.297  0.214
   - k =  -0.214 -0.310  0.214
   - k =  -0.214 -0.323  0.214
   - k =  -0.214 -0.335  0.214
   - k =  -0.214 -0.348  0.214
   - k =  -0.214 -0.361  0.214
   - k =  -0.214 -0.373  0.214
   - k =  -0.214 -0.386  0.214
   - k =  -0.214 -0.399  0.214
   - k =  -0.214 -0.411  0.214
   - k =  -0.214 -0.424  0.214
   - k =  -0.214 -0.437  0.214
   - k =  -0.214 -0.449  0.214
   - k =  -0.214 -0.462  0.214
   - k =  -0.214 -0.475  0.214
   - k =  -0.214 -0.487  0.214
   - k =  -0.214 -0.500  0.214

  |-> Computing Wannier center evolution at k-point number:     22
 Using pol_lapack_version = 2
 Calculating Berry  term along reciprocal lattice vector 2:     0.000     0.840     0.000
 Calculating dipole term along reciprocal lattice vector 2:     0.000     0.840     0.000

  Treating all   80 k-points in band plot segment #  23:
   Sampling over :
   - k =  -0.214  0.500  0.357
   - k =  -0.214  0.487  0.357
   - k =  -0.214  0.475  0.357
   - k =  -0.214  0.462  0.357
   - k =  -0.214  0.449  0.357
   - k =  -0.214  0.437  0.357
   - k =  -0.214  0.424  0.357
   - k =  -0.214  0.411  0.357
   - k =  -0.214  0.399  0.357
   - k =  -0.214  0.386  0.357
   - k =  -0.214  0.373  0.357
   - k =  -0.214  0.361  0.357
   - k =  -0.214  0.348  0.357
   - k =  -0.214  0.335  0.357
   - k =  -0.214  0.323  0.357
   - k =  -0.214  0.310  0.357
   - k =  -0.214  0.297  0.357
   - k =  -0.214  0.285  0.357
   - k =  -0.214  0.272  0.357
   - k =  -0.214  0.259  0.357
   - k =  -0.214  0.247  0.357
   - k =  -0.214  0.234  0.357
   - k =  -0.214  0.222  0.357
   - k =  -0.214  0.209  0.357
   - k =  -0.214  0.196  0.357
   - k =  -0.214  0.184  0.357
   - k =  -0.214  0.171  0.357
   - k =  -0.214  0.158  0.357
   - k =  -0.214  0.146  0.357
   - k =  -0.214  0.133  0.357
   - k =  -0.214  0.120  0.357
   - k =  -0.214  0.108  0.357
   - k =  -0.214  0.095  0.357
   - k =  -0.214  0.082  0.357
   - k =  -0.214  0.070  0.357
   - k =  -0.214  0.057  0.357
   - k =  -0.214  0.044  0.357
   - k =  -0.214  0.032  0.357
   - k =  -0.214  0.019  0.357
   - k =  -0.214  0.006  0.357
   - k =  -0.214 -0.006  0.357
   - k =  -0.214 -0.019  0.357
   - k =  -0.214 -0.032  0.357
   - k =  -0.214 -0.044  0.357
   - k =  -0.214 -0.057  0.357
   - k =  -0.214 -0.070  0.357
   - k =  -0.214 -0.082  0.357
   - k =  -0.214 -0.095  0.357
   - k =  -0.214 -0.108  0.357
   - k =  -0.214 -0.120  0.357
   - k =  -0.214 -0.133  0.357
   - k =  -0.214 -0.146  0.357
   - k =  -0.214 -0.158  0.357
   - k =  -0.214 -0.171  0.357
   - k =  -0.214 -0.184  0.357
   - k =  -0.214 -0.196  0.357
   - k =  -0.214 -0.209  0.357
   - k =  -0.214 -0.222  0.357
   - k =  -0.214 -0.234  0.357
   - k =  -0.214 -0.247  0.357
   - k =  -0.214 -0.259  0.357
   - k =  -0.214 -0.272  0.357
   - k =  -0.214 -0.285  0.357
   - k =  -0.214 -0.297  0.357
   - k =  -0.214 -0.310  0.357
   - k =  -0.214 -0.323  0.357
   - k =  -0.214 -0.335  0.357
   - k =  -0.214 -0.348  0.357
   - k =  -0.214 -0.361  0.357
   - k =  -0.214 -0.373  0.357
   - k =  -0.214 -0.386  0.357
   - k =  -0.214 -0.399  0.357
   - k =  -0.214 -0.411  0.357
   - k =  -0.214 -0.424  0.357
   - k =  -0.214 -0.437  0.357
   - k =  -0.214 -0.449  0.357
   - k =  -0.214 -0.462  0.357
   - k =  -0.214 -0.475  0.357
   - k =  -0.214 -0.487  0.357
   - k =  -0.214 -0.500  0.357

  |-> Computing Wannier center evolution at k-point number:     23
 Using pol_lapack_version = 2
 Calculating Berry  term along reciprocal lattice vector 2:     0.000     0.840     0.000
 Calculating dipole term along reciprocal lattice vector 2:     0.000     0.840     0.000

  Treating all   80 k-points in band plot segment #  24:
   Sampling over :
   - k =  -0.214  0.500  0.500
   - k =  -0.214  0.487  0.500
   - k =  -0.214  0.475  0.500
   - k =  -0.214  0.462  0.500
   - k =  -0.214  0.449  0.500
   - k =  -0.214  0.437  0.500
   - k =  -0.214  0.424  0.500
   - k =  -0.214  0.411  0.500
   - k =  -0.214  0.399  0.500
   - k =  -0.214  0.386  0.500
   - k =  -0.214  0.373  0.500
   - k =  -0.214  0.361  0.500
   - k =  -0.214  0.348  0.500
   - k =  -0.214  0.335  0.500
   - k =  -0.214  0.323  0.500
   - k =  -0.214  0.310  0.500
   - k =  -0.214  0.297  0.500
   - k =  -0.214  0.285  0.500
   - k =  -0.214  0.272  0.500
   - k =  -0.214  0.259  0.500
   - k =  -0.214  0.247  0.500
   - k =  -0.214  0.234  0.500
   - k =  -0.214  0.222  0.500
   - k =  -0.214  0.209  0.500
   - k =  -0.214  0.196  0.500
   - k =  -0.214  0.184  0.500
   - k =  -0.214  0.171  0.500
   - k =  -0.214  0.158  0.500
   - k =  -0.214  0.146  0.500
   - k =  -0.214  0.133  0.500
   - k =  -0.214  0.120  0.500
   - k =  -0.214  0.108  0.500
   - k =  -0.214  0.095  0.500
   - k =  -0.214  0.082  0.500
   - k =  -0.214  0.070  0.500
   - k =  -0.214  0.057  0.500
   - k =  -0.214  0.044  0.500
   - k =  -0.214  0.032  0.500
   - k =  -0.214  0.019  0.500
   - k =  -0.214  0.006  0.500
   - k =  -0.214 -0.006  0.500
   - k =  -0.214 -0.019  0.500
   - k =  -0.214 -0.032  0.500
   - k =  -0.214 -0.044  0.500
   - k =  -0.214 -0.057  0.500
   - k =  -0.214 -0.070  0.500
   - k =  -0.214 -0.082  0.500
   - k =  -0.214 -0.095  0.500
   - k =  -0.214 -0.108  0.500
   - k =  -0.214 -0.120  0.500
   - k =  -0.214 -0.133  0.500
   - k =  -0.214 -0.146  0.500
   - k =  -0.214 -0.158  0.500
   - k =  -0.214 -0.171  0.500
   - k =  -0.214 -0.184  0.500
   - k =  -0.214 -0.196  0.500
   - k =  -0.214 -0.209  0.500
   - k =  -0.214 -0.222  0.500
   - k =  -0.214 -0.234  0.500
   - k =  -0.214 -0.247  0.500
   - k =  -0.214 -0.259  0.500
   - k =  -0.214 -0.272  0.500
   - k =  -0.214 -0.285  0.500
   - k =  -0.214 -0.297  0.500
   - k =  -0.214 -0.310  0.500
   - k =  -0.214 -0.323  0.500
   - k =  -0.214 -0.335  0.500
   - k =  -0.214 -0.348  0.500
   - k =  -0.214 -0.361  0.500
   - k =  -0.214 -0.373  0.500
   - k =  -0.214 -0.386  0.500
   - k =  -0.214 -0.399  0.500
   - k =  -0.214 -0.411  0.500
   - k =  -0.214 -0.424  0.500
   - k =  -0.214 -0.437  0.500
   - k =  -0.214 -0.449  0.500
   - k =  -0.214 -0.462  0.500
   - k =  -0.214 -0.475  0.500
   - k =  -0.214 -0.487  0.500
   - k =  -0.214 -0.500  0.500

  |-> Computing Wannier center evolution at k-point number:     24
 Using pol_lapack_version = 2
 Calculating Berry  term along reciprocal lattice vector 2:     0.000     0.840     0.000
 Calculating dipole term along reciprocal lattice vector 2:     0.000     0.840     0.000

  Treating all   80 k-points in band plot segment #  25:
   Sampling over :
   - k =  -0.071  0.500 -0.500
   - k =  -0.071  0.487 -0.500
   - k =  -0.071  0.475 -0.500
   - k =  -0.071  0.462 -0.500
   - k =  -0.071  0.449 -0.500
   - k =  -0.071  0.437 -0.500
   - k =  -0.071  0.424 -0.500
   - k =  -0.071  0.411 -0.500
   - k =  -0.071  0.399 -0.500
   - k =  -0.071  0.386 -0.500
   - k =  -0.071  0.373 -0.500
   - k =  -0.071  0.361 -0.500
   - k =  -0.071  0.348 -0.500
   - k =  -0.071  0.335 -0.500
   - k =  -0.071  0.323 -0.500
   - k =  -0.071  0.310 -0.500
   - k =  -0.071  0.297 -0.500
   - k =  -0.071  0.285 -0.500
   - k =  -0.071  0.272 -0.500
   - k =  -0.071  0.259 -0.500
   - k =  -0.071  0.247 -0.500
   - k =  -0.071  0.234 -0.500
   - k =  -0.071  0.222 -0.500
   - k =  -0.071  0.209 -0.500
   - k =  -0.071  0.196 -0.500
   - k =  -0.071  0.184 -0.500
   - k =  -0.071  0.171 -0.500
   - k =  -0.071  0.158 -0.500
   - k =  -0.071  0.146 -0.500
   - k =  -0.071  0.133 -0.500
   - k =  -0.071  0.120 -0.500
   - k =  -0.071  0.108 -0.500
   - k =  -0.071  0.095 -0.500
   - k =  -0.071  0.082 -0.500
   - k =  -0.071  0.070 -0.500
   - k =  -0.071  0.057 -0.500
   - k =  -0.071  0.044 -0.500
   - k =  -0.071  0.032 -0.500
   - k =  -0.071  0.019 -0.500
   - k =  -0.071  0.006 -0.500
   - k =  -0.071 -0.006 -0.500
   - k =  -0.071 -0.019 -0.500
   - k =  -0.071 -0.032 -0.500
   - k =  -0.071 -0.044 -0.500
   - k =  -0.071 -0.057 -0.500
   - k =  -0.071 -0.070 -0.500
   - k =  -0.071 -0.082 -0.500
   - k =  -0.071 -0.095 -0.500
   - k =  -0.071 -0.108 -0.500
   - k =  -0.071 -0.120 -0.500
   - k =  -0.071 -0.133 -0.500
   - k =  -0.071 -0.146 -0.500
   - k =  -0.071 -0.158 -0.500
   - k =  -0.071 -0.171 -0.500
   - k =  -0.071 -0.184 -0.500
   - k =  -0.071 -0.196 -0.500
   - k =  -0.071 -0.209 -0.500
   - k =  -0.071 -0.222 -0.500
   - k =  -0.071 -0.234 -0.500
   - k =  -0.071 -0.247 -0.500
   - k =  -0.071 -0.259 -0.500
   - k =  -0.071 -0.272 -0.500
   - k =  -0.071 -0.285 -0.500
   - k =  -0.071 -0.297 -0.500
   - k =  -0.071 -0.310 -0.500
   - k =  -0.071 -0.323 -0.500
   - k =  -0.071 -0.335 -0.500
   - k =  -0.071 -0.348 -0.500
   - k =  -0.071 -0.361 -0.500
   - k =  -0.071 -0.373 -0.500
   - k =  -0.071 -0.386 -0.500
   - k =  -0.071 -0.399 -0.500
   - k =  -0.071 -0.411 -0.500
   - k =  -0.071 -0.424 -0.500
   - k =  -0.071 -0.437 -0.500
   - k =  -0.071 -0.449 -0.500
   - k =  -0.071 -0.462 -0.500
   - k =  -0.071 -0.475 -0.500
   - k =  -0.071 -0.487 -0.500
   - k =  -0.071 -0.500 -0.500

  |-> Computing Wannier center evolution at k-point number:     25
 Using pol_lapack_version = 2
 Calculating Berry  term along reciprocal lattice vector 2:     0.000     0.840     0.000
 Calculating dipole term along reciprocal lattice vector 2:     0.000     0.840     0.000

  Treating all   80 k-points in band plot segment #  26:
   Sampling over :
   - k =  -0.071  0.500 -0.357
   - k =  -0.071  0.487 -0.357
   - k =  -0.071  0.475 -0.357
   - k =  -0.071  0.462 -0.357
   - k =  -0.071  0.449 -0.357
   - k =  -0.071  0.437 -0.357
   - k =  -0.071  0.424 -0.357
   - k =  -0.071  0.411 -0.357
   - k =  -0.071  0.399 -0.357
   - k =  -0.071  0.386 -0.357
   - k =  -0.071  0.373 -0.357
   - k =  -0.071  0.361 -0.357
   - k =  -0.071  0.348 -0.357
   - k =  -0.071  0.335 -0.357
   - k =  -0.071  0.323 -0.357
   - k =  -0.071  0.310 -0.357
   - k =  -0.071  0.297 -0.357
   - k =  -0.071  0.285 -0.357
   - k =  -0.071  0.272 -0.357
   - k =  -0.071  0.259 -0.357
   - k =  -0.071  0.247 -0.357
   - k =  -0.071  0.234 -0.357
   - k =  -0.071  0.222 -0.357
   - k =  -0.071  0.209 -0.357
   - k =  -0.071  0.196 -0.357
   - k =  -0.071  0.184 -0.357
   - k =  -0.071  0.171 -0.357
   - k =  -0.071  0.158 -0.357
   - k =  -0.071  0.146 -0.357
   - k =  -0.071  0.133 -0.357
   - k =  -0.071  0.120 -0.357
   - k =  -0.071  0.108 -0.357
   - k =  -0.071  0.095 -0.357
   - k =  -0.071  0.082 -0.357
   - k =  -0.071  0.070 -0.357
   - k =  -0.071  0.057 -0.357
   - k =  -0.071  0.044 -0.357
   - k =  -0.071  0.032 -0.357
   - k =  -0.071  0.019 -0.357
   - k =  -0.071  0.006 -0.357
   - k =  -0.071 -0.006 -0.357
   - k =  -0.071 -0.019 -0.357
   - k =  -0.071 -0.032 -0.357
   - k =  -0.071 -0.044 -0.357
   - k =  -0.071 -0.057 -0.357
   - k =  -0.071 -0.070 -0.357
   - k =  -0.071 -0.082 -0.357
   - k =  -0.071 -0.095 -0.357
   - k =  -0.071 -0.108 -0.357
   - k =  -0.071 -0.120 -0.357
   - k =  -0.071 -0.133 -0.357
   - k =  -0.071 -0.146 -0.357
   - k =  -0.071 -0.158 -0.357
   - k =  -0.071 -0.171 -0.357
   - k =  -0.071 -0.184 -0.357
   - k =  -0.071 -0.196 -0.357
   - k =  -0.071 -0.209 -0.357
   - k =  -0.071 -0.222 -0.357
   - k =  -0.071 -0.234 -0.357
   - k =  -0.071 -0.247 -0.357
   - k =  -0.071 -0.259 -0.357
   - k =  -0.071 -0.272 -0.357
   - k =  -0.071 -0.285 -0.357
   - k =  -0.071 -0.297 -0.357
   - k =  -0.071 -0.310 -0.357
   - k =  -0.071 -0.323 -0.357
   - k =  -0.071 -0.335 -0.357
   - k =  -0.071 -0.348 -0.357
   - k =  -0.071 -0.361 -0.357
   - k =  -0.071 -0.373 -0.357
   - k =  -0.071 -0.386 -0.357
   - k =  -0.071 -0.399 -0.357
   - k =  -0.071 -0.411 -0.357
   - k =  -0.071 -0.424 -0.357
   - k =  -0.071 -0.437 -0.357
   - k =  -0.071 -0.449 -0.357
   - k =  -0.071 -0.462 -0.357
   - k =  -0.071 -0.475 -0.357
   - k =  -0.071 -0.487 -0.357
   - k =  -0.071 -0.500 -0.357

  |-> Computing Wannier center evolution at k-point number:     26
 Using pol_lapack_version = 2
 Calculating Berry  term along reciprocal lattice vector 2:     0.000     0.840     0.000
 Calculating dipole term along reciprocal lattice vector 2:     0.000     0.840     0.000

  Treating all   80 k-points in band plot segment #  27:
   Sampling over :
   - k =  -0.071  0.500 -0.214
   - k =  -0.071  0.487 -0.214
   - k =  -0.071  0.475 -0.214
   - k =  -0.071  0.462 -0.214
   - k =  -0.071  0.449 -0.214
   - k =  -0.071  0.437 -0.214
   - k =  -0.071  0.424 -0.214
   - k =  -0.071  0.411 -0.214
   - k =  -0.071  0.399 -0.214
   - k =  -0.071  0.386 -0.214
   - k =  -0.071  0.373 -0.214
   - k =  -0.071  0.361 -0.214
   - k =  -0.071  0.348 -0.214
   - k =  -0.071  0.335 -0.214
   - k =  -0.071  0.323 -0.214
   - k =  -0.071  0.310 -0.214
   - k =  -0.071  0.297 -0.214
   - k =  -0.071  0.285 -0.214
   - k =  -0.071  0.272 -0.214
   - k =  -0.071  0.259 -0.214
   - k =  -0.071  0.247 -0.214
   - k =  -0.071  0.234 -0.214
   - k =  -0.071  0.222 -0.214
   - k =  -0.071  0.209 -0.214
   - k =  -0.071  0.196 -0.214
   - k =  -0.071  0.184 -0.214
   - k =  -0.071  0.171 -0.214
   - k =  -0.071  0.158 -0.214
   - k =  -0.071  0.146 -0.214
   - k =  -0.071  0.133 -0.214
   - k =  -0.071  0.120 -0.214
   - k =  -0.071  0.108 -0.214
   - k =  -0.071  0.095 -0.214
   - k =  -0.071  0.082 -0.214
   - k =  -0.071  0.070 -0.214
   - k =  -0.071  0.057 -0.214
   - k =  -0.071  0.044 -0.214
   - k =  -0.071  0.032 -0.214
   - k =  -0.071  0.019 -0.214
   - k =  -0.071  0.006 -0.214
   - k =  -0.071 -0.006 -0.214
   - k =  -0.071 -0.019 -0.214
   - k =  -0.071 -0.032 -0.214
   - k =  -0.071 -0.044 -0.214
   - k =  -0.071 -0.057 -0.214
   - k =  -0.071 -0.070 -0.214
   - k =  -0.071 -0.082 -0.214
   - k =  -0.071 -0.095 -0.214
   - k =  -0.071 -0.108 -0.214
   - k =  -0.071 -0.120 -0.214
   - k =  -0.071 -0.133 -0.214
   - k =  -0.071 -0.146 -0.214
   - k =  -0.071 -0.158 -0.214
   - k =  -0.071 -0.171 -0.214
   - k =  -0.071 -0.184 -0.214
   - k =  -0.071 -0.196 -0.214
   - k =  -0.071 -0.209 -0.214
   - k =  -0.071 -0.222 -0.214
   - k =  -0.071 -0.234 -0.214
   - k =  -0.071 -0.247 -0.214
   - k =  -0.071 -0.259 -0.214
   - k =  -0.071 -0.272 -0.214
   - k =  -0.071 -0.285 -0.214
   - k =  -0.071 -0.297 -0.214
   - k =  -0.071 -0.310 -0.214
   - k =  -0.071 -0.323 -0.214
   - k =  -0.071 -0.335 -0.214
   - k =  -0.071 -0.348 -0.214
   - k =  -0.071 -0.361 -0.214
   - k =  -0.071 -0.373 -0.214
   - k =  -0.071 -0.386 -0.214
   - k =  -0.071 -0.399 -0.214
   - k =  -0.071 -0.411 -0.214
   - k =  -0.071 -0.424 -0.214
   - k =  -0.071 -0.437 -0.214
   - k =  -0.071 -0.449 -0.214
   - k =  -0.071 -0.462 -0.214
   - k =  -0.071 -0.475 -0.214
   - k =  -0.071 -0.487 -0.214
   - k =  -0.071 -0.500 -0.214

  |-> Computing Wannier center evolution at k-point number:     27
 Using pol_lapack_version = 2
 Calculating Berry  term along reciprocal lattice vector 2:     0.000     0.840     0.000
 Calculating dipole term along reciprocal lattice vector 2:     0.000     0.840     0.000

  Treating all   80 k-points in band plot segment #  28:
   Sampling over :
   - k =  -0.071  0.500 -0.071
   - k =  -0.071  0.487 -0.071
   - k =  -0.071  0.475 -0.071
   - k =  -0.071  0.462 -0.071
   - k =  -0.071  0.449 -0.071
   - k =  -0.071  0.437 -0.071
   - k =  -0.071  0.424 -0.071
   - k =  -0.071  0.411 -0.071
   - k =  -0.071  0.399 -0.071
   - k =  -0.071  0.386 -0.071
   - k =  -0.071  0.373 -0.071
   - k =  -0.071  0.361 -0.071
   - k =  -0.071  0.348 -0.071
   - k =  -0.071  0.335 -0.071
   - k =  -0.071  0.323 -0.071
   - k =  -0.071  0.310 -0.071
   - k =  -0.071  0.297 -0.071
   - k =  -0.071  0.285 -0.071
   - k =  -0.071  0.272 -0.071
   - k =  -0.071  0.259 -0.071
   - k =  -0.071  0.247 -0.071
   - k =  -0.071  0.234 -0.071
   - k =  -0.071  0.222 -0.071
   - k =  -0.071  0.209 -0.071
   - k =  -0.071  0.196 -0.071
   - k =  -0.071  0.184 -0.071
   - k =  -0.071  0.171 -0.071
   - k =  -0.071  0.158 -0.071
   - k =  -0.071  0.146 -0.071
   - k =  -0.071  0.133 -0.071
   - k =  -0.071  0.120 -0.071
   - k =  -0.071  0.108 -0.071
   - k =  -0.071  0.095 -0.071
   - k =  -0.071  0.082 -0.071
   - k =  -0.071  0.070 -0.071
   - k =  -0.071  0.057 -0.071
   - k =  -0.071  0.044 -0.071
   - k =  -0.071  0.032 -0.071
   - k =  -0.071  0.019 -0.071
   - k =  -0.071  0.006 -0.071
   - k =  -0.071 -0.006 -0.071
   - k =  -0.071 -0.019 -0.071
   - k =  -0.071 -0.032 -0.071
   - k =  -0.071 -0.044 -0.071
   - k =  -0.071 -0.057 -0.071
   - k =  -0.071 -0.070 -0.071
   - k =  -0.071 -0.082 -0.071
   - k =  -0.071 -0.095 -0.071
   - k =  -0.071 -0.108 -0.071
   - k =  -0.071 -0.120 -0.071
   - k =  -0.071 -0.133 -0.071
   - k =  -0.071 -0.146 -0.071
   - k =  -0.071 -0.158 -0.071
   - k =  -0.071 -0.171 -0.071
   - k =  -0.071 -0.184 -0.071
   - k =  -0.071 -0.196 -0.071
   - k =  -0.071 -0.209 -0.071
   - k =  -0.071 -0.222 -0.071
   - k =  -0.071 -0.234 -0.071
   - k =  -0.071 -0.247 -0.071
   - k =  -0.071 -0.259 -0.071
   - k =  -0.071 -0.272 -0.071
   - k =  -0.071 -0.285 -0.071
   - k =  -0.071 -0.297 -0.071
   - k =  -0.071 -0.310 -0.071
   - k =  -0.071 -0.323 -0.071
   - k =  -0.071 -0.335 -0.071
   - k =  -0.071 -0.348 -0.071
   - k =  -0.071 -0.361 -0.071
   - k =  -0.071 -0.373 -0.071
   - k =  -0.071 -0.386 -0.071
   - k =  -0.071 -0.399 -0.071
   - k =  -0.071 -0.411 -0.071
   - k =  -0.071 -0.424 -0.071
   - k =  -0.071 -0.437 -0.071
   - k =  -0.071 -0.449 -0.071
   - k =  -0.071 -0.462 -0.071
   - k =  -0.071 -0.475 -0.071
   - k =  -0.071 -0.487 -0.071
   - k =  -0.071 -0.500 -0.071

  |-> Computing Wannier center evolution at k-point number:     28
 Using pol_lapack_version = 2
 Calculating Berry  term along reciprocal lattice vector 2:     0.000     0.840     0.000
 Calculating dipole term along reciprocal lattice vector 2:     0.000     0.840     0.000

  Treating all   80 k-points in band plot segment #  29:
   Sampling over :
   - k =  -0.071  0.500  0.071
   - k =  -0.071  0.487  0.071
   - k =  -0.071  0.475  0.071
   - k =  -0.071  0.462  0.071
   - k =  -0.071  0.449  0.071
   - k =  -0.071  0.437  0.071
   - k =  -0.071  0.424  0.071
   - k =  -0.071  0.411  0.071
   - k =  -0.071  0.399  0.071
   - k =  -0.071  0.386  0.071
   - k =  -0.071  0.373  0.071
   - k =  -0.071  0.361  0.071
   - k =  -0.071  0.348  0.071
   - k =  -0.071  0.335  0.071
   - k =  -0.071  0.323  0.071
   - k =  -0.071  0.310  0.071
   - k =  -0.071  0.297  0.071
   - k =  -0.071  0.285  0.071
   - k =  -0.071  0.272  0.071
   - k =  -0.071  0.259  0.071
   - k =  -0.071  0.247  0.071
   - k =  -0.071  0.234  0.071
   - k =  -0.071  0.222  0.071
   - k =  -0.071  0.209  0.071
   - k =  -0.071  0.196  0.071
   - k =  -0.071  0.184  0.071
   - k =  -0.071  0.171  0.071
   - k =  -0.071  0.158  0.071
   - k =  -0.071  0.146  0.071
   - k =  -0.071  0.133  0.071
   - k =  -0.071  0.120  0.071
   - k =  -0.071  0.108  0.071
   - k =  -0.071  0.095  0.071
   - k =  -0.071  0.082  0.071
   - k =  -0.071  0.070  0.071
   - k =  -0.071  0.057  0.071
   - k =  -0.071  0.044  0.071
   - k =  -0.071  0.032  0.071
   - k =  -0.071  0.019  0.071
   - k =  -0.071  0.006  0.071
   - k =  -0.071 -0.006  0.071
   - k =  -0.071 -0.019  0.071
   - k =  -0.071 -0.032  0.071
   - k =  -0.071 -0.044  0.071
   - k =  -0.071 -0.057  0.071
   - k =  -0.071 -0.070  0.071
   - k =  -0.071 -0.082  0.071
   - k =  -0.071 -0.095  0.071
   - k =  -0.071 -0.108  0.071
   - k =  -0.071 -0.120  0.071
   - k =  -0.071 -0.133  0.071
   - k =  -0.071 -0.146  0.071
   - k =  -0.071 -0.158  0.071
   - k =  -0.071 -0.171  0.071
   - k =  -0.071 -0.184  0.071
   - k =  -0.071 -0.196  0.071
   - k =  -0.071 -0.209  0.071
   - k =  -0.071 -0.222  0.071
   - k =  -0.071 -0.234  0.071
   - k =  -0.071 -0.247  0.071
   - k =  -0.071 -0.259  0.071
   - k =  -0.071 -0.272  0.071
   - k =  -0.071 -0.285  0.071
   - k =  -0.071 -0.297  0.071
   - k =  -0.071 -0.310  0.071
   - k =  -0.071 -0.323  0.071
   - k =  -0.071 -0.335  0.071
   - k =  -0.071 -0.348  0.071
   - k =  -0.071 -0.361  0.071
   - k =  -0.071 -0.373  0.071
   - k =  -0.071 -0.386  0.071
   - k =  -0.071 -0.399  0.071
   - k =  -0.071 -0.411  0.071
   - k =  -0.071 -0.424  0.071
   - k =  -0.071 -0.437  0.071
   - k =  -0.071 -0.449  0.071
   - k =  -0.071 -0.462  0.071
   - k =  -0.071 -0.475  0.071
   - k =  -0.071 -0.487  0.071
   - k =  -0.071 -0.500  0.071

  |-> Computing Wannier center evolution at k-point number:     29
 Using pol_lapack_version = 2
 Calculating Berry  term along reciprocal lattice vector 2:     0.000     0.840     0.000
 Calculating dipole term along reciprocal lattice vector 2:     0.000     0.840     0.000

  Treating all   80 k-points in band plot segment #  30:
   Sampling over :
   - k =  -0.071  0.500  0.214
   - k =  -0.071  0.487  0.214
   - k =  -0.071  0.475  0.214
   - k =  -0.071  0.462  0.214
   - k =  -0.071  0.449  0.214
   - k =  -0.071  0.437  0.214
   - k =  -0.071  0.424  0.214
   - k =  -0.071  0.411  0.214
   - k =  -0.071  0.399  0.214
   - k =  -0.071  0.386  0.214
   - k =  -0.071  0.373  0.214
   - k =  -0.071  0.361  0.214
   - k =  -0.071  0.348  0.214
   - k =  -0.071  0.335  0.214
   - k =  -0.071  0.323  0.214
   - k =  -0.071  0.310  0.214
   - k =  -0.071  0.297  0.214
   - k =  -0.071  0.285  0.214
   - k =  -0.071  0.272  0.214
   - k =  -0.071  0.259  0.214
   - k =  -0.071  0.247  0.214
   - k =  -0.071  0.234  0.214
   - k =  -0.071  0.222  0.214
   - k =  -0.071  0.209  0.214
   - k =  -0.071  0.196  0.214
   - k =  -0.071  0.184  0.214
   - k =  -0.071  0.171  0.214
   - k =  -0.071  0.158  0.214
   - k =  -0.071  0.146  0.214
   - k =  -0.071  0.133  0.214
   - k =  -0.071  0.120  0.214
   - k =  -0.071  0.108  0.214
   - k =  -0.071  0.095  0.214
   - k =  -0.071  0.082  0.214
   - k =  -0.071  0.070  0.214
   - k =  -0.071  0.057  0.214
   - k =  -0.071  0.044  0.214
   - k =  -0.071  0.032  0.214
   - k =  -0.071  0.019  0.214
   - k =  -0.071  0.006  0.214
   - k =  -0.071 -0.006  0.214
   - k =  -0.071 -0.019  0.214
   - k =  -0.071 -0.032  0.214
   - k =  -0.071 -0.044  0.214
   - k =  -0.071 -0.057  0.214
   - k =  -0.071 -0.070  0.214
   - k =  -0.071 -0.082  0.214
   - k =  -0.071 -0.095  0.214
   - k =  -0.071 -0.108  0.214
   - k =  -0.071 -0.120  0.214
   - k =  -0.071 -0.133  0.214
   - k =  -0.071 -0.146  0.214
   - k =  -0.071 -0.158  0.214
   - k =  -0.071 -0.171  0.214
   - k =  -0.071 -0.184  0.214
   - k =  -0.071 -0.196  0.214
   - k =  -0.071 -0.209  0.214
   - k =  -0.071 -0.222  0.214
   - k =  -0.071 -0.234  0.214
   - k =  -0.071 -0.247  0.214
   - k =  -0.071 -0.259  0.214
   - k =  -0.071 -0.272  0.214
   - k =  -0.071 -0.285  0.214
   - k =  -0.071 -0.297  0.214
   - k =  -0.071 -0.310  0.214
   - k =  -0.071 -0.323  0.214
   - k =  -0.071 -0.335  0.214
   - k =  -0.071 -0.348  0.214
   - k =  -0.071 -0.361  0.214
   - k =  -0.071 -0.373  0.214
   - k =  -0.071 -0.386  0.214
   - k =  -0.071 -0.399  0.214
   - k =  -0.071 -0.411  0.214
   - k =  -0.071 -0.424  0.214
   - k =  -0.071 -0.437  0.214
   - k =  -0.071 -0.449  0.214
   - k =  -0.071 -0.462  0.214
   - k =  -0.071 -0.475  0.214
   - k =  -0.071 -0.487  0.214
   - k =  -0.071 -0.500  0.214

  |-> Computing Wannier center evolution at k-point number:     30
 Using pol_lapack_version = 2
 Calculating Berry  term along reciprocal lattice vector 2:     0.000     0.840     0.000
 Calculating dipole term along reciprocal lattice vector 2:     0.000     0.840     0.000

  Treating all   80 k-points in band plot segment #  31:
   Sampling over :
   - k =  -0.071  0.500  0.357
   - k =  -0.071  0.487  0.357
   - k =  -0.071  0.475  0.357
   - k =  -0.071  0.462  0.357
   - k =  -0.071  0.449  0.357
   - k =  -0.071  0.437  0.357
   - k =  -0.071  0.424  0.357
   - k =  -0.071  0.411  0.357
   - k =  -0.071  0.399  0.357
   - k =  -0.071  0.386  0.357
   - k =  -0.071  0.373  0.357
   - k =  -0.071  0.361  0.357
   - k =  -0.071  0.348  0.357
   - k =  -0.071  0.335  0.357
   - k =  -0.071  0.323  0.357
   - k =  -0.071  0.310  0.357
   - k =  -0.071  0.297  0.357
   - k =  -0.071  0.285  0.357
   - k =  -0.071  0.272  0.357
   - k =  -0.071  0.259  0.357
   - k =  -0.071  0.247  0.357
   - k =  -0.071  0.234  0.357
   - k =  -0.071  0.222  0.357
   - k =  -0.071  0.209  0.357
   - k =  -0.071  0.196  0.357
   - k =  -0.071  0.184  0.357
   - k =  -0.071  0.171  0.357
   - k =  -0.071  0.158  0.357
   - k =  -0.071  0.146  0.357
   - k =  -0.071  0.133  0.357
   - k =  -0.071  0.120  0.357
   - k =  -0.071  0.108  0.357
   - k =  -0.071  0.095  0.357
   - k =  -0.071  0.082  0.357
   - k =  -0.071  0.070  0.357
   - k =  -0.071  0.057  0.357
   - k =  -0.071  0.044  0.357
   - k =  -0.071  0.032  0.357
   - k =  -0.071  0.019  0.357
   - k =  -0.071  0.006  0.357
   - k =  -0.071 -0.006  0.357
   - k =  -0.071 -0.019  0.357
   - k =  -0.071 -0.032  0.357
   - k =  -0.071 -0.044  0.357
   - k =  -0.071 -0.057  0.357
   - k =  -0.071 -0.070  0.357
   - k =  -0.071 -0.082  0.357
   - k =  -0.071 -0.095  0.357
   - k =  -0.071 -0.108  0.357
   - k =  -0.071 -0.120  0.357
   - k =  -0.071 -0.133  0.357
   - k =  -0.071 -0.146  0.357
   - k =  -0.071 -0.158  0.357
   - k =  -0.071 -0.171  0.357
   - k =  -0.071 -0.184  0.357
   - k =  -0.071 -0.196  0.357
   - k =  -0.071 -0.209  0.357
   - k =  -0.071 -0.222  0.357
   - k =  -0.071 -0.234  0.357
   - k =  -0.071 -0.247  0.357
   - k =  -0.071 -0.259  0.357
   - k =  -0.071 -0.272  0.357
   - k =  -0.071 -0.285  0.357
   - k =  -0.071 -0.297  0.357
   - k =  -0.071 -0.310  0.357
   - k =  -0.071 -0.323  0.357
   - k =  -0.071 -0.335  0.357
   - k =  -0.071 -0.348  0.357
   - k =  -0.071 -0.361  0.357
   - k =  -0.071 -0.373  0.357
   - k =  -0.071 -0.386  0.357
   - k =  -0.071 -0.399  0.357
   - k =  -0.071 -0.411  0.357
   - k =  -0.071 -0.424  0.357
   - k =  -0.071 -0.437  0.357
   - k =  -0.071 -0.449  0.357
   - k =  -0.071 -0.462  0.357
   - k =  -0.071 -0.475  0.357
   - k =  -0.071 -0.487  0.357
   - k =  -0.071 -0.500  0.357

  |-> Computing Wannier center evolution at k-point number:     31
 Using pol_lapack_version = 2
 Calculating Berry  term along reciprocal lattice vector 2:     0.000     0.840     0.000
 Calculating dipole term along reciprocal lattice vector 2:     0.000     0.840     0.000

  Treating all   80 k-points in band plot segment #  32:
   Sampling over :
   - k =  -0.071  0.500  0.500
   - k =  -0.071  0.487  0.500
   - k =  -0.071  0.475  0.500
   - k =  -0.071  0.462  0.500
   - k =  -0.071  0.449  0.500
   - k =  -0.071  0.437  0.500
   - k =  -0.071  0.424  0.500
   - k =  -0.071  0.411  0.500
   - k =  -0.071  0.399  0.500
   - k =  -0.071  0.386  0.500
   - k =  -0.071  0.373  0.500
   - k =  -0.071  0.361  0.500
   - k =  -0.071  0.348  0.500
   - k =  -0.071  0.335  0.500
   - k =  -0.071  0.323  0.500
   - k =  -0.071  0.310  0.500
   - k =  -0.071  0.297  0.500
   - k =  -0.071  0.285  0.500
   - k =  -0.071  0.272  0.500
   - k =  -0.071  0.259  0.500
   - k =  -0.071  0.247  0.500
   - k =  -0.071  0.234  0.500
   - k =  -0.071  0.222  0.500
   - k =  -0.071  0.209  0.500
   - k =  -0.071  0.196  0.500
   - k =  -0.071  0.184  0.500
   - k =  -0.071  0.171  0.500
   - k =  -0.071  0.158  0.500
   - k =  -0.071  0.146  0.500
   - k =  -0.071  0.133  0.500
   - k =  -0.071  0.120  0.500
   - k =  -0.071  0.108  0.500
   - k =  -0.071  0.095  0.500
   - k =  -0.071  0.082  0.500
   - k =  -0.071  0.070  0.500
   - k =  -0.071  0.057  0.500
   - k =  -0.071  0.044  0.500
   - k =  -0.071  0.032  0.500
   - k =  -0.071  0.019  0.500
   - k =  -0.071  0.006  0.500
   - k =  -0.071 -0.006  0.500
   - k =  -0.071 -0.019  0.500
   - k =  -0.071 -0.032  0.500
   - k =  -0.071 -0.044  0.500
   - k =  -0.071 -0.057  0.500
   - k =  -0.071 -0.070  0.500
   - k =  -0.071 -0.082  0.500
   - k =  -0.071 -0.095  0.500
   - k =  -0.071 -0.108  0.500
   - k =  -0.071 -0.120  0.500
   - k =  -0.071 -0.133  0.500
   - k =  -0.071 -0.146  0.500
   - k =  -0.071 -0.158  0.500
   - k =  -0.071 -0.171  0.500
   - k =  -0.071 -0.184  0.500
   - k =  -0.071 -0.196  0.500
   - k =  -0.071 -0.209  0.500
   - k =  -0.071 -0.222  0.500
   - k =  -0.071 -0.234  0.500
   - k =  -0.071 -0.247  0.500
   - k =  -0.071 -0.259  0.500
   - k =  -0.071 -0.272  0.500
   - k =  -0.071 -0.285  0.500
   - k =  -0.071 -0.297  0.500
   - k =  -0.071 -0.310  0.500
   - k =  -0.071 -0.323  0.500
   - k =  -0.071 -0.335  0.500
   - k =  -0.071 -0.348  0.500
   - k =  -0.071 -0.361  0.500
   - k =  -0.071 -0.373  0.500
   - k =  -0.071 -0.386  0.500
   - k =  -0.071 -0.399  0.500
   - k =  -0.071 -0.411  0.500
   - k =  -0.071 -0.424  0.500
   - k =  -0.071 -0.437  0.500
   - k =  -0.071 -0.449  0.500
   - k =  -0.071 -0.462  0.500
   - k =  -0.071 -0.475  0.500
   - k =  -0.071 -0.487  0.500
   - k =  -0.071 -0.500  0.500

  |-> Computing Wannier center evolution at k-point number:     32
 Using pol_lapack_version = 2
 Calculating Berry  term along reciprocal lattice vector 2:     0.000     0.840     0.000
 Calculating dipole term along reciprocal lattice vector 2:     0.000     0.840     0.000

  Treating all   80 k-points in band plot segment #  33:
   Sampling over :
   - k =   0.071  0.500 -0.500
   - k =   0.071  0.487 -0.500
   - k =   0.071  0.475 -0.500
   - k =   0.071  0.462 -0.500
   - k =   0.071  0.449 -0.500
   - k =   0.071  0.437 -0.500
   - k =   0.071  0.424 -0.500
   - k =   0.071  0.411 -0.500
   - k =   0.071  0.399 -0.500
   - k =   0.071  0.386 -0.500
   - k =   0.071  0.373 -0.500
   - k =   0.071  0.361 -0.500
   - k =   0.071  0.348 -0.500
   - k =   0.071  0.335 -0.500
   - k =   0.071  0.323 -0.500
   - k =   0.071  0.310 -0.500
   - k =   0.071  0.297 -0.500
   - k =   0.071  0.285 -0.500
   - k =   0.071  0.272 -0.500
   - k =   0.071  0.259 -0.500
   - k =   0.071  0.247 -0.500
   - k =   0.071  0.234 -0.500
   - k =   0.071  0.222 -0.500
   - k =   0.071  0.209 -0.500
   - k =   0.071  0.196 -0.500
   - k =   0.071  0.184 -0.500
   - k =   0.071  0.171 -0.500
   - k =   0.071  0.158 -0.500
   - k =   0.071  0.146 -0.500
   - k =   0.071  0.133 -0.500
   - k =   0.071  0.120 -0.500
   - k =   0.071  0.108 -0.500
   - k =   0.071  0.095 -0.500
   - k =   0.071  0.082 -0.500
   - k =   0.071  0.070 -0.500
   - k =   0.071  0.057 -0.500
   - k =   0.071  0.044 -0.500
   - k =   0.071  0.032 -0.500
   - k =   0.071  0.019 -0.500
   - k =   0.071  0.006 -0.500
   - k =   0.071 -0.006 -0.500
   - k =   0.071 -0.019 -0.500
   - k =   0.071 -0.032 -0.500
   - k =   0.071 -0.044 -0.500
   - k =   0.071 -0.057 -0.500
   - k =   0.071 -0.070 -0.500
   - k =   0.071 -0.082 -0.500
   - k =   0.071 -0.095 -0.500
   - k =   0.071 -0.108 -0.500
   - k =   0.071 -0.120 -0.500
   - k =   0.071 -0.133 -0.500
   - k =   0.071 -0.146 -0.500
   - k =   0.071 -0.158 -0.500
   - k =   0.071 -0.171 -0.500
   - k =   0.071 -0.184 -0.500
   - k =   0.071 -0.196 -0.500
   - k =   0.071 -0.209 -0.500
   - k =   0.071 -0.222 -0.500
   - k =   0.071 -0.234 -0.500
   - k =   0.071 -0.247 -0.500
   - k =   0.071 -0.259 -0.500
   - k =   0.071 -0.272 -0.500
   - k =   0.071 -0.285 -0.500
   - k =   0.071 -0.297 -0.500
   - k =   0.071 -0.310 -0.500
   - k =   0.071 -0.323 -0.500
   - k =   0.071 -0.335 -0.500
   - k =   0.071 -0.348 -0.500
   - k =   0.071 -0.361 -0.500
   - k =   0.071 -0.373 -0.500
   - k =   0.071 -0.386 -0.500
   - k =   0.071 -0.399 -0.500
   - k =   0.071 -0.411 -0.500
   - k =   0.071 -0.424 -0.500
   - k =   0.071 -0.437 -0.500
   - k =   0.071 -0.449 -0.500
   - k =   0.071 -0.462 -0.500
   - k =   0.071 -0.475 -0.500
   - k =   0.071 -0.487 -0.500
   - k =   0.071 -0.500 -0.500

  |-> Computing Wannier center evolution at k-point number:     33
 Using pol_lapack_version = 2
 Calculating Berry  term along reciprocal lattice vector 2:     0.000     0.840     0.000
 Calculating dipole term along reciprocal lattice vector 2:     0.000     0.840     0.000

  Treating all   80 k-points in band plot segment #  34:
   Sampling over :
   - k =   0.071  0.500 -0.357
   - k =   0.071  0.487 -0.357
   - k =   0.071  0.475 -0.357
   - k =   0.071  0.462 -0.357
   - k =   0.071  0.449 -0.357
   - k =   0.071  0.437 -0.357
   - k =   0.071  0.424 -0.357
   - k =   0.071  0.411 -0.357
   - k =   0.071  0.399 -0.357
   - k =   0.071  0.386 -0.357
   - k =   0.071  0.373 -0.357
   - k =   0.071  0.361 -0.357
   - k =   0.071  0.348 -0.357
   - k =   0.071  0.335 -0.357
   - k =   0.071  0.323 -0.357
   - k =   0.071  0.310 -0.357
   - k =   0.071  0.297 -0.357
   - k =   0.071  0.285 -0.357
   - k =   0.071  0.272 -0.357
   - k =   0.071  0.259 -0.357
   - k =   0.071  0.247 -0.357
   - k =   0.071  0.234 -0.357
   - k =   0.071  0.222 -0.357
   - k =   0.071  0.209 -0.357
   - k =   0.071  0.196 -0.357
   - k =   0.071  0.184 -0.357
   - k =   0.071  0.171 -0.357
   - k =   0.071  0.158 -0.357
   - k =   0.071  0.146 -0.357
   - k =   0.071  0.133 -0.357
   - k =   0.071  0.120 -0.357
   - k =   0.071  0.108 -0.357
   - k =   0.071  0.095 -0.357
   - k =   0.071  0.082 -0.357
   - k =   0.071  0.070 -0.357
   - k =   0.071  0.057 -0.357
   - k =   0.071  0.044 -0.357
   - k =   0.071  0.032 -0.357
   - k =   0.071  0.019 -0.357
   - k =   0.071  0.006 -0.357
   - k =   0.071 -0.006 -0.357
   - k =   0.071 -0.019 -0.357
   - k =   0.071 -0.032 -0.357
   - k =   0.071 -0.044 -0.357
   - k =   0.071 -0.057 -0.357
   - k =   0.071 -0.070 -0.357
   - k =   0.071 -0.082 -0.357
   - k =   0.071 -0.095 -0.357
   - k =   0.071 -0.108 -0.357
   - k =   0.071 -0.120 -0.357
   - k =   0.071 -0.133 -0.357
   - k =   0.071 -0.146 -0.357
   - k =   0.071 -0.158 -0.357
   - k =   0.071 -0.171 -0.357
   - k =   0.071 -0.184 -0.357
   - k =   0.071 -0.196 -0.357
   - k =   0.071 -0.209 -0.357
   - k =   0.071 -0.222 -0.357
   - k =   0.071 -0.234 -0.357
   - k =   0.071 -0.247 -0.357
   - k =   0.071 -0.259 -0.357
   - k =   0.071 -0.272 -0.357
   - k =   0.071 -0.285 -0.357
   - k =   0.071 -0.297 -0.357
   - k =   0.071 -0.310 -0.357
   - k =   0.071 -0.323 -0.357
   - k =   0.071 -0.335 -0.357
   - k =   0.071 -0.348 -0.357
   - k =   0.071 -0.361 -0.357
   - k =   0.071 -0.373 -0.357
   - k =   0.071 -0.386 -0.357
   - k =   0.071 -0.399 -0.357
   - k =   0.071 -0.411 -0.357
   - k =   0.071 -0.424 -0.357
   - k =   0.071 -0.437 -0.357
   - k =   0.071 -0.449 -0.357
   - k =   0.071 -0.462 -0.357
   - k =   0.071 -0.475 -0.357
   - k =   0.071 -0.487 -0.357
   - k =   0.071 -0.500 -0.357

  |-> Computing Wannier center evolution at k-point number:     34
 Using pol_lapack_version = 2
 Calculating Berry  term along reciprocal lattice vector 2:     0.000     0.840     0.000
 Calculating dipole term along reciprocal lattice vector 2:     0.000     0.840     0.000

  Treating all   80 k-points in band plot segment #  35:
   Sampling over :
   - k =   0.071  0.500 -0.214
   - k =   0.071  0.487 -0.214
   - k =   0.071  0.475 -0.214
   - k =   0.071  0.462 -0.214
   - k =   0.071  0.449 -0.214
   - k =   0.071  0.437 -0.214
   - k =   0.071  0.424 -0.214
   - k =   0.071  0.411 -0.214
   - k =   0.071  0.399 -0.214
   - k =   0.071  0.386 -0.214
   - k =   0.071  0.373 -0.214
   - k =   0.071  0.361 -0.214
   - k =   0.071  0.348 -0.214
   - k =   0.071  0.335 -0.214
   - k =   0.071  0.323 -0.214
   - k =   0.071  0.310 -0.214
   - k =   0.071  0.297 -0.214
   - k =   0.071  0.285 -0.214
   - k =   0.071  0.272 -0.214
   - k =   0.071  0.259 -0.214
   - k =   0.071  0.247 -0.214
   - k =   0.071  0.234 -0.214
   - k =   0.071  0.222 -0.214
   - k =   0.071  0.209 -0.214
   - k =   0.071  0.196 -0.214
   - k =   0.071  0.184 -0.214
   - k =   0.071  0.171 -0.214
   - k =   0.071  0.158 -0.214
   - k =   0.071  0.146 -0.214
   - k =   0.071  0.133 -0.214
   - k =   0.071  0.120 -0.214
   - k =   0.071  0.108 -0.214
   - k =   0.071  0.095 -0.214
   - k =   0.071  0.082 -0.214
   - k =   0.071  0.070 -0.214
   - k =   0.071  0.057 -0.214
   - k =   0.071  0.044 -0.214
   - k =   0.071  0.032 -0.214
   - k =   0.071  0.019 -0.214
   - k =   0.071  0.006 -0.214
   - k =   0.071 -0.006 -0.214
   - k =   0.071 -0.019 -0.214
   - k =   0.071 -0.032 -0.214
   - k =   0.071 -0.044 -0.214
   - k =   0.071 -0.057 -0.214
   - k =   0.071 -0.070 -0.214
   - k =   0.071 -0.082 -0.214
   - k =   0.071 -0.095 -0.214
   - k =   0.071 -0.108 -0.214
   - k =   0.071 -0.120 -0.214
   - k =   0.071 -0.133 -0.214
   - k =   0.071 -0.146 -0.214
   - k =   0.071 -0.158 -0.214
   - k =   0.071 -0.171 -0.214
   - k =   0.071 -0.184 -0.214
   - k =   0.071 -0.196 -0.214
   - k =   0.071 -0.209 -0.214
   - k =   0.071 -0.222 -0.214
   - k =   0.071 -0.234 -0.214
   - k =   0.071 -0.247 -0.214
   - k =   0.071 -0.259 -0.214
   - k =   0.071 -0.272 -0.214
   - k =   0.071 -0.285 -0.214
   - k =   0.071 -0.297 -0.214
   - k =   0.071 -0.310 -0.214
   - k =   0.071 -0.323 -0.214
   - k =   0.071 -0.335 -0.214
   - k =   0.071 -0.348 -0.214
   - k =   0.071 -0.361 -0.214
   - k =   0.071 -0.373 -0.214
   - k =   0.071 -0.386 -0.214
   - k =   0.071 -0.399 -0.214
   - k =   0.071 -0.411 -0.214
   - k =   0.071 -0.424 -0.214
   - k =   0.071 -0.437 -0.214
   - k =   0.071 -0.449 -0.214
   - k =   0.071 -0.462 -0.214
   - k =   0.071 -0.475 -0.214
   - k =   0.071 -0.487 -0.214
   - k =   0.071 -0.500 -0.214

  |-> Computing Wannier center evolution at k-point number:     35
 Using pol_lapack_version = 2
 Calculating Berry  term along reciprocal lattice vector 2:     0.000     0.840     0.000
 Calculating dipole term along reciprocal lattice vector 2:     0.000     0.840     0.000

  Treating all   80 k-points in band plot segment #  36:
   Sampling over :
   - k =   0.071  0.500 -0.071
   - k =   0.071  0.487 -0.071
   - k =   0.071  0.475 -0.071
   - k =   0.071  0.462 -0.071
   - k =   0.071  0.449 -0.071
   - k =   0.071  0.437 -0.071
   - k =   0.071  0.424 -0.071
   - k =   0.071  0.411 -0.071
   - k =   0.071  0.399 -0.071
   - k =   0.071  0.386 -0.071
   - k =   0.071  0.373 -0.071
   - k =   0.071  0.361 -0.071
   - k =   0.071  0.348 -0.071
   - k =   0.071  0.335 -0.071
   - k =   0.071  0.323 -0.071
   - k =   0.071  0.310 -0.071
   - k =   0.071  0.297 -0.071
   - k =   0.071  0.285 -0.071
   - k =   0.071  0.272 -0.071
   - k =   0.071  0.259 -0.071
   - k =   0.071  0.247 -0.071
   - k =   0.071  0.234 -0.071
   - k =   0.071  0.222 -0.071
   - k =   0.071  0.209 -0.071
   - k =   0.071  0.196 -0.071
   - k =   0.071  0.184 -0.071
   - k =   0.071  0.171 -0.071
   - k =   0.071  0.158 -0.071
   - k =   0.071  0.146 -0.071
   - k =   0.071  0.133 -0.071
   - k =   0.071  0.120 -0.071
   - k =   0.071  0.108 -0.071
   - k =   0.071  0.095 -0.071
   - k =   0.071  0.082 -0.071
   - k =   0.071  0.070 -0.071
   - k =   0.071  0.057 -0.071
   - k =   0.071  0.044 -0.071
   - k =   0.071  0.032 -0.071
   - k =   0.071  0.019 -0.071
   - k =   0.071  0.006 -0.071
   - k =   0.071 -0.006 -0.071
   - k =   0.071 -0.019 -0.071
   - k =   0.071 -0.032 -0.071
   - k =   0.071 -0.044 -0.071
   - k =   0.071 -0.057 -0.071
   - k =   0.071 -0.070 -0.071
   - k =   0.071 -0.082 -0.071
   - k =   0.071 -0.095 -0.071
   - k =   0.071 -0.108 -0.071
   - k =   0.071 -0.120 -0.071
   - k =   0.071 -0.133 -0.071
   - k =   0.071 -0.146 -0.071
   - k =   0.071 -0.158 -0.071
   - k =   0.071 -0.171 -0.071
   - k =   0.071 -0.184 -0.071
   - k =   0.071 -0.196 -0.071
   - k =   0.071 -0.209 -0.071
   - k =   0.071 -0.222 -0.071
   - k =   0.071 -0.234 -0.071
   - k =   0.071 -0.247 -0.071
   - k =   0.071 -0.259 -0.071
   - k =   0.071 -0.272 -0.071
   - k =   0.071 -0.285 -0.071
   - k =   0.071 -0.297 -0.071
   - k =   0.071 -0.310 -0.071
   - k =   0.071 -0.323 -0.071
   - k =   0.071 -0.335 -0.071
   - k =   0.071 -0.348 -0.071
   - k =   0.071 -0.361 -0.071
   - k =   0.071 -0.373 -0.071
   - k =   0.071 -0.386 -0.071
   - k =   0.071 -0.399 -0.071
   - k =   0.071 -0.411 -0.071
   - k =   0.071 -0.424 -0.071
   - k =   0.071 -0.437 -0.071
   - k =   0.071 -0.449 -0.071
   - k =   0.071 -0.462 -0.071
   - k =   0.071 -0.475 -0.071
   - k =   0.071 -0.487 -0.071
   - k =   0.071 -0.500 -0.071

  |-> Computing Wannier center evolution at k-point number:     36
 Using pol_lapack_version = 2
 Calculating Berry  term along reciprocal lattice vector 2:     0.000     0.840     0.000
 Calculating dipole term along reciprocal lattice vector 2:     0.000     0.840     0.000

  Treating all   80 k-points in band plot segment #  37:
   Sampling over :
   - k =   0.071  0.500  0.071
   - k =   0.071  0.487  0.071
   - k =   0.071  0.475  0.071
   - k =   0.071  0.462  0.071
   - k =   0.071  0.449  0.071
   - k =   0.071  0.437  0.071
   - k =   0.071  0.424  0.071
   - k =   0.071  0.411  0.071
   - k =   0.071  0.399  0.071
   - k =   0.071  0.386  0.071
   - k =   0.071  0.373  0.071
   - k =   0.071  0.361  0.071
   - k =   0.071  0.348  0.071
   - k =   0.071  0.335  0.071
   - k =   0.071  0.323  0.071
   - k =   0.071  0.310  0.071
   - k =   0.071  0.297  0.071
   - k =   0.071  0.285  0.071
   - k =   0.071  0.272  0.071
   - k =   0.071  0.259  0.071
   - k =   0.071  0.247  0.071
   - k =   0.071  0.234  0.071
   - k =   0.071  0.222  0.071
   - k =   0.071  0.209  0.071
   - k =   0.071  0.196  0.071
   - k =   0.071  0.184  0.071
   - k =   0.071  0.171  0.071
   - k =   0.071  0.158  0.071
   - k =   0.071  0.146  0.071
   - k =   0.071  0.133  0.071
   - k =   0.071  0.120  0.071
   - k =   0.071  0.108  0.071
   - k =   0.071  0.095  0.071
   - k =   0.071  0.082  0.071
   - k =   0.071  0.070  0.071
   - k =   0.071  0.057  0.071
   - k =   0.071  0.044  0.071
   - k =   0.071  0.032  0.071
   - k =   0.071  0.019  0.071
   - k =   0.071  0.006  0.071
   - k =   0.071 -0.006  0.071
   - k =   0.071 -0.019  0.071
   - k =   0.071 -0.032  0.071
   - k =   0.071 -0.044  0.071
   - k =   0.071 -0.057  0.071
   - k =   0.071 -0.070  0.071
   - k =   0.071 -0.082  0.071
   - k =   0.071 -0.095  0.071
   - k =   0.071 -0.108  0.071
   - k =   0.071 -0.120  0.071
   - k =   0.071 -0.133  0.071
   - k =   0.071 -0.146  0.071
   - k =   0.071 -0.158  0.071
   - k =   0.071 -0.171  0.071
   - k =   0.071 -0.184  0.071
   - k =   0.071 -0.196  0.071
   - k =   0.071 -0.209  0.071
   - k =   0.071 -0.222  0.071
   - k =   0.071 -0.234  0.071
   - k =   0.071 -0.247  0.071
   - k =   0.071 -0.259  0.071
   - k =   0.071 -0.272  0.071
   - k =   0.071 -0.285  0.071
   - k =   0.071 -0.297  0.071
   - k =   0.071 -0.310  0.071
   - k =   0.071 -0.323  0.071
   - k =   0.071 -0.335  0.071
   - k =   0.071 -0.348  0.071
   - k =   0.071 -0.361  0.071
   - k =   0.071 -0.373  0.071
   - k =   0.071 -0.386  0.071
   - k =   0.071 -0.399  0.071
   - k =   0.071 -0.411  0.071
   - k =   0.071 -0.424  0.071
   - k =   0.071 -0.437  0.071
   - k =   0.071 -0.449  0.071
   - k =   0.071 -0.462  0.071
   - k =   0.071 -0.475  0.071
   - k =   0.071 -0.487  0.071
   - k =   0.071 -0.500  0.071

  |-> Computing Wannier center evolution at k-point number:     37
 Using pol_lapack_version = 2
 Calculating Berry  term along reciprocal lattice vector 2:     0.000     0.840     0.000
 Calculating dipole term along reciprocal lattice vector 2:     0.000     0.840     0.000

  Treating all   80 k-points in band plot segment #  38:
   Sampling over :
   - k =   0.071  0.500  0.214
   - k =   0.071  0.487  0.214
   - k =   0.071  0.475  0.214
   - k =   0.071  0.462  0.214
   - k =   0.071  0.449  0.214
   - k =   0.071  0.437  0.214
   - k =   0.071  0.424  0.214
   - k =   0.071  0.411  0.214
   - k =   0.071  0.399  0.214
   - k =   0.071  0.386  0.214
   - k =   0.071  0.373  0.214
   - k =   0.071  0.361  0.214
   - k =   0.071  0.348  0.214
   - k =   0.071  0.335  0.214
   - k =   0.071  0.323  0.214
   - k =   0.071  0.310  0.214
   - k =   0.071  0.297  0.214
   - k =   0.071  0.285  0.214
   - k =   0.071  0.272  0.214
   - k =   0.071  0.259  0.214
   - k =   0.071  0.247  0.214
   - k =   0.071  0.234  0.214
   - k =   0.071  0.222  0.214
   - k =   0.071  0.209  0.214
   - k =   0.071  0.196  0.214
   - k =   0.071  0.184  0.214
   - k =   0.071  0.171  0.214
   - k =   0.071  0.158  0.214
   - k =   0.071  0.146  0.214
   - k =   0.071  0.133  0.214
   - k =   0.071  0.120  0.214
   - k =   0.071  0.108  0.214
   - k =   0.071  0.095  0.214
   - k =   0.071  0.082  0.214
   - k =   0.071  0.070  0.214
   - k =   0.071  0.057  0.214
   - k =   0.071  0.044  0.214
   - k =   0.071  0.032  0.214
   - k =   0.071  0.019  0.214
   - k =   0.071  0.006  0.214
   - k =   0.071 -0.006  0.214
   - k =   0.071 -0.019  0.214
   - k =   0.071 -0.032  0.214
   - k =   0.071 -0.044  0.214
   - k =   0.071 -0.057  0.214
   - k =   0.071 -0.070  0.214
   - k =   0.071 -0.082  0.214
   - k =   0.071 -0.095  0.214
   - k =   0.071 -0.108  0.214
   - k =   0.071 -0.120  0.214
   - k =   0.071 -0.133  0.214
   - k =   0.071 -0.146  0.214
   - k =   0.071 -0.158  0.214
   - k =   0.071 -0.171  0.214
   - k =   0.071 -0.184  0.214
   - k =   0.071 -0.196  0.214
   - k =   0.071 -0.209  0.214
   - k =   0.071 -0.222  0.214
   - k =   0.071 -0.234  0.214
   - k =   0.071 -0.247  0.214
   - k =   0.071 -0.259  0.214
   - k =   0.071 -0.272  0.214
   - k =   0.071 -0.285  0.214
   - k =   0.071 -0.297  0.214
   - k =   0.071 -0.310  0.214
   - k =   0.071 -0.323  0.214
   - k =   0.071 -0.335  0.214
   - k =   0.071 -0.348  0.214
   - k =   0.071 -0.361  0.214
   - k =   0.071 -0.373  0.214
   - k =   0.071 -0.386  0.214
   - k =   0.071 -0.399  0.214
   - k =   0.071 -0.411  0.214
   - k =   0.071 -0.424  0.214
   - k =   0.071 -0.437  0.214
   - k =   0.071 -0.449  0.214
   - k =   0.071 -0.462  0.214
   - k =   0.071 -0.475  0.214
   - k =   0.071 -0.487  0.214
   - k =   0.071 -0.500  0.214

  |-> Computing Wannier center evolution at k-point number:     38
 Using pol_lapack_version = 2
 Calculating Berry  term along reciprocal lattice vector 2:     0.000     0.840     0.000
 Calculating dipole term along reciprocal lattice vector 2:     0.000     0.840     0.000

  Treating all   80 k-points in band plot segment #  39:
   Sampling over :
   - k =   0.071  0.500  0.357
   - k =   0.071  0.487  0.357
   - k =   0.071  0.475  0.357
   - k =   0.071  0.462  0.357
   - k =   0.071  0.449  0.357
   - k =   0.071  0.437  0.357
   - k =   0.071  0.424  0.357
   - k =   0.071  0.411  0.357
   - k =   0.071  0.399  0.357
   - k =   0.071  0.386  0.357
   - k =   0.071  0.373  0.357
   - k =   0.071  0.361  0.357
   - k =   0.071  0.348  0.357
   - k =   0.071  0.335  0.357
   - k =   0.071  0.323  0.357
   - k =   0.071  0.310  0.357
   - k =   0.071  0.297  0.357
   - k =   0.071  0.285  0.357
   - k =   0.071  0.272  0.357
   - k =   0.071  0.259  0.357
   - k =   0.071  0.247  0.357
   - k =   0.071  0.234  0.357
   - k =   0.071  0.222  0.357
   - k =   0.071  0.209  0.357
   - k =   0.071  0.196  0.357
   - k =   0.071  0.184  0.357
   - k =   0.071  0.171  0.357
   - k =   0.071  0.158  0.357
   - k =   0.071  0.146  0.357
   - k =   0.071  0.133  0.357
   - k =   0.071  0.120  0.357
   - k =   0.071  0.108  0.357
   - k =   0.071  0.095  0.357
   - k =   0.071  0.082  0.357
   - k =   0.071  0.070  0.357
   - k =   0.071  0.057  0.357
   - k =   0.071  0.044  0.357
   - k =   0.071  0.032  0.357
   - k =   0.071  0.019  0.357
   - k =   0.071  0.006  0.357
   - k =   0.071 -0.006  0.357
   - k =   0.071 -0.019  0.357
   - k =   0.071 -0.032  0.357
   - k =   0.071 -0.044  0.357
   - k =   0.071 -0.057  0.357
   - k =   0.071 -0.070  0.357
   - k =   0.071 -0.082  0.357
   - k =   0.071 -0.095  0.357
   - k =   0.071 -0.108  0.357
   - k =   0.071 -0.120  0.357
   - k =   0.071 -0.133  0.357
   - k =   0.071 -0.146  0.357
   - k =   0.071 -0.158  0.357
   - k =   0.071 -0.171  0.357
   - k =   0.071 -0.184  0.357
   - k =   0.071 -0.196  0.357
   - k =   0.071 -0.209  0.357
   - k =   0.071 -0.222  0.357
   - k =   0.071 -0.234  0.357
   - k =   0.071 -0.247  0.357
   - k =   0.071 -0.259  0.357
   - k =   0.071 -0.272  0.357
   - k =   0.071 -0.285  0.357
   - k =   0.071 -0.297  0.357
   - k =   0.071 -0.310  0.357
   - k =   0.071 -0.323  0.357
   - k =   0.071 -0.335  0.357
   - k =   0.071 -0.348  0.357
   - k =   0.071 -0.361  0.357
   - k =   0.071 -0.373  0.357
   - k =   0.071 -0.386  0.357
   - k =   0.071 -0.399  0.357
   - k =   0.071 -0.411  0.357
   - k =   0.071 -0.424  0.357
   - k =   0.071 -0.437  0.357
   - k =   0.071 -0.449  0.357
   - k =   0.071 -0.462  0.357
   - k =   0.071 -0.475  0.357
   - k =   0.071 -0.487  0.357
   - k =   0.071 -0.500  0.357

  |-> Computing Wannier center evolution at k-point number:     39
 Using pol_lapack_version = 2
 Calculating Berry  term along reciprocal lattice vector 2:     0.000     0.840     0.000
 Calculating dipole term along reciprocal lattice vector 2:     0.000     0.840     0.000

  Treating all   80 k-points in band plot segment #  40:
   Sampling over :
   - k =   0.071  0.500  0.500
   - k =   0.071  0.487  0.500
   - k =   0.071  0.475  0.500
   - k =   0.071  0.462  0.500
   - k =   0.071  0.449  0.500
   - k =   0.071  0.437  0.500
   - k =   0.071  0.424  0.500
   - k =   0.071  0.411  0.500
   - k =   0.071  0.399  0.500
   - k =   0.071  0.386  0.500
   - k =   0.071  0.373  0.500
   - k =   0.071  0.361  0.500
   - k =   0.071  0.348  0.500
   - k =   0.071  0.335  0.500
   - k =   0.071  0.323  0.500
   - k =   0.071  0.310  0.500
   - k =   0.071  0.297  0.500
   - k =   0.071  0.285  0.500
   - k =   0.071  0.272  0.500
   - k =   0.071  0.259  0.500
   - k =   0.071  0.247  0.500
   - k =   0.071  0.234  0.500
   - k =   0.071  0.222  0.500
   - k =   0.071  0.209  0.500
   - k =   0.071  0.196  0.500
   - k =   0.071  0.184  0.500
   - k =   0.071  0.171  0.500
   - k =   0.071  0.158  0.500
   - k =   0.071  0.146  0.500
   - k =   0.071  0.133  0.500
   - k =   0.071  0.120  0.500
   - k =   0.071  0.108  0.500
   - k =   0.071  0.095  0.500
   - k =   0.071  0.082  0.500
   - k =   0.071  0.070  0.500
   - k =   0.071  0.057  0.500
   - k =   0.071  0.044  0.500
   - k =   0.071  0.032  0.500
   - k =   0.071  0.019  0.500
   - k =   0.071  0.006  0.500
   - k =   0.071 -0.006  0.500
   - k =   0.071 -0.019  0.500
   - k =   0.071 -0.032  0.500
   - k =   0.071 -0.044  0.500
   - k =   0.071 -0.057  0.500
   - k =   0.071 -0.070  0.500
   - k =   0.071 -0.082  0.500
   - k =   0.071 -0.095  0.500
   - k =   0.071 -0.108  0.500
   - k =   0.071 -0.120  0.500
   - k =   0.071 -0.133  0.500
   - k =   0.071 -0.146  0.500
   - k =   0.071 -0.158  0.500
   - k =   0.071 -0.171  0.500
   - k =   0.071 -0.184  0.500
   - k =   0.071 -0.196  0.500
   - k =   0.071 -0.209  0.500
   - k =   0.071 -0.222  0.500
   - k =   0.071 -0.234  0.500
   - k =   0.071 -0.247  0.500
   - k =   0.071 -0.259  0.500
   - k =   0.071 -0.272  0.500
   - k =   0.071 -0.285  0.500
   - k =   0.071 -0.297  0.500
   - k =   0.071 -0.310  0.500
   - k =   0.071 -0.323  0.500
   - k =   0.071 -0.335  0.500
   - k =   0.071 -0.348  0.500
   - k =   0.071 -0.361  0.500
   - k =   0.071 -0.373  0.500
   - k =   0.071 -0.386  0.500
   - k =   0.071 -0.399  0.500
   - k =   0.071 -0.411  0.500
   - k =   0.071 -0.424  0.500
   - k =   0.071 -0.437  0.500
   - k =   0.071 -0.449  0.500
   - k =   0.071 -0.462  0.500
   - k =   0.071 -0.475  0.500
   - k =   0.071 -0.487  0.500
   - k =   0.071 -0.500  0.500

  |-> Computing Wannier center evolution at k-point number:     40
 Using pol_lapack_version = 2
 Calculating Berry  term along reciprocal lattice vector 2:     0.000     0.840     0.000
 Calculating dipole term along reciprocal lattice vector 2:     0.000     0.840     0.000

  Treating all   80 k-points in band plot segment #  41:
   Sampling over :
   - k =   0.214  0.500 -0.500
   - k =   0.214  0.487 -0.500
   - k =   0.214  0.475 -0.500
   - k =   0.214  0.462 -0.500
   - k =   0.214  0.449 -0.500
   - k =   0.214  0.437 -0.500
   - k =   0.214  0.424 -0.500
   - k =   0.214  0.411 -0.500
   - k =   0.214  0.399 -0.500
   - k =   0.214  0.386 -0.500
   - k =   0.214  0.373 -0.500
   - k =   0.214  0.361 -0.500
   - k =   0.214  0.348 -0.500
   - k =   0.214  0.335 -0.500
   - k =   0.214  0.323 -0.500
   - k =   0.214  0.310 -0.500
   - k =   0.214  0.297 -0.500
   - k =   0.214  0.285 -0.500
   - k =   0.214  0.272 -0.500
   - k =   0.214  0.259 -0.500
   - k =   0.214  0.247 -0.500
   - k =   0.214  0.234 -0.500
   - k =   0.214  0.222 -0.500
   - k =   0.214  0.209 -0.500
   - k =   0.214  0.196 -0.500
   - k =   0.214  0.184 -0.500
   - k =   0.214  0.171 -0.500
   - k =   0.214  0.158 -0.500
   - k =   0.214  0.146 -0.500
   - k =   0.214  0.133 -0.500
   - k =   0.214  0.120 -0.500
   - k =   0.214  0.108 -0.500
   - k =   0.214  0.095 -0.500
   - k =   0.214  0.082 -0.500
   - k =   0.214  0.070 -0.500
   - k =   0.214  0.057 -0.500
   - k =   0.214  0.044 -0.500
   - k =   0.214  0.032 -0.500
   - k =   0.214  0.019 -0.500
   - k =   0.214  0.006 -0.500
   - k =   0.214 -0.006 -0.500
   - k =   0.214 -0.019 -0.500
   - k =   0.214 -0.032 -0.500
   - k =   0.214 -0.044 -0.500
   - k =   0.214 -0.057 -0.500
   - k =   0.214 -0.070 -0.500
   - k =   0.214 -0.082 -0.500
   - k =   0.214 -0.095 -0.500
   - k =   0.214 -0.108 -0.500
   - k =   0.214 -0.120 -0.500
   - k =   0.214 -0.133 -0.500
   - k =   0.214 -0.146 -0.500
   - k =   0.214 -0.158 -0.500
   - k =   0.214 -0.171 -0.500
   - k =   0.214 -0.184 -0.500
   - k =   0.214 -0.196 -0.500
   - k =   0.214 -0.209 -0.500
   - k =   0.214 -0.222 -0.500
   - k =   0.214 -0.234 -0.500
   - k =   0.214 -0.247 -0.500
   - k =   0.214 -0.259 -0.500
   - k =   0.214 -0.272 -0.500
   - k =   0.214 -0.285 -0.500
   - k =   0.214 -0.297 -0.500
   - k =   0.214 -0.310 -0.500
   - k =   0.214 -0.323 -0.500
   - k =   0.214 -0.335 -0.500
   - k =   0.214 -0.348 -0.500
   - k =   0.214 -0.361 -0.500
   - k =   0.214 -0.373 -0.500
   - k =   0.214 -0.386 -0.500
   - k =   0.214 -0.399 -0.500
   - k =   0.214 -0.411 -0.500
   - k =   0.214 -0.424 -0.500
   - k =   0.214 -0.437 -0.500
   - k =   0.214 -0.449 -0.500
   - k =   0.214 -0.462 -0.500
   - k =   0.214 -0.475 -0.500
   - k =   0.214 -0.487 -0.500
   - k =   0.214 -0.500 -0.500

  |-> Computing Wannier center evolution at k-point number:     41
 Using pol_lapack_version = 2
 Calculating Berry  term along reciprocal lattice vector 2:     0.000     0.840     0.000
 Calculating dipole term along reciprocal lattice vector 2:     0.000     0.840     0.000

  Treating all   80 k-points in band plot segment #  42:
   Sampling over :
   - k =   0.214  0.500 -0.357
   - k =   0.214  0.487 -0.357
   - k =   0.214  0.475 -0.357
   - k =   0.214  0.462 -0.357
   - k =   0.214  0.449 -0.357
   - k =   0.214  0.437 -0.357
   - k =   0.214  0.424 -0.357
   - k =   0.214  0.411 -0.357
   - k =   0.214  0.399 -0.357
   - k =   0.214  0.386 -0.357
   - k =   0.214  0.373 -0.357
   - k =   0.214  0.361 -0.357
   - k =   0.214  0.348 -0.357
   - k =   0.214  0.335 -0.357
   - k =   0.214  0.323 -0.357
   - k =   0.214  0.310 -0.357
   - k =   0.214  0.297 -0.357
   - k =   0.214  0.285 -0.357
   - k =   0.214  0.272 -0.357
   - k =   0.214  0.259 -0.357
   - k =   0.214  0.247 -0.357
   - k =   0.214  0.234 -0.357
   - k =   0.214  0.222 -0.357
   - k =   0.214  0.209 -0.357
   - k =   0.214  0.196 -0.357
   - k =   0.214  0.184 -0.357
   - k =   0.214  0.171 -0.357
   - k =   0.214  0.158 -0.357
   - k =   0.214  0.146 -0.357
   - k =   0.214  0.133 -0.357
   - k =   0.214  0.120 -0.357
   - k =   0.214  0.108 -0.357
   - k =   0.214  0.095 -0.357
   - k =   0.214  0.082 -0.357
   - k =   0.214  0.070 -0.357
   - k =   0.214  0.057 -0.357
   - k =   0.214  0.044 -0.357
   - k =   0.214  0.032 -0.357
   - k =   0.214  0.019 -0.357
   - k =   0.214  0.006 -0.357
   - k =   0.214 -0.006 -0.357
   - k =   0.214 -0.019 -0.357
   - k =   0.214 -0.032 -0.357
   - k =   0.214 -0.044 -0.357
   - k =   0.214 -0.057 -0.357
   - k =   0.214 -0.070 -0.357
   - k =   0.214 -0.082 -0.357
   - k =   0.214 -0.095 -0.357
   - k =   0.214 -0.108 -0.357
   - k =   0.214 -0.120 -0.357
   - k =   0.214 -0.133 -0.357
   - k =   0.214 -0.146 -0.357
   - k =   0.214 -0.158 -0.357
   - k =   0.214 -0.171 -0.357
   - k =   0.214 -0.184 -0.357
   - k =   0.214 -0.196 -0.357
   - k =   0.214 -0.209 -0.357
   - k =   0.214 -0.222 -0.357
   - k =   0.214 -0.234 -0.357
   - k =   0.214 -0.247 -0.357
   - k =   0.214 -0.259 -0.357
   - k =   0.214 -0.272 -0.357
   - k =   0.214 -0.285 -0.357
   - k =   0.214 -0.297 -0.357
   - k =   0.214 -0.310 -0.357
   - k =   0.214 -0.323 -0.357
   - k =   0.214 -0.335 -0.357
   - k =   0.214 -0.348 -0.357
   - k =   0.214 -0.361 -0.357
   - k =   0.214 -0.373 -0.357
   - k =   0.214 -0.386 -0.357
   - k =   0.214 -0.399 -0.357
   - k =   0.214 -0.411 -0.357
   - k =   0.214 -0.424 -0.357
   - k =   0.214 -0.437 -0.357
   - k =   0.214 -0.449 -0.357
   - k =   0.214 -0.462 -0.357
   - k =   0.214 -0.475 -0.357
   - k =   0.214 -0.487 -0.357
   - k =   0.214 -0.500 -0.357

  |-> Computing Wannier center evolution at k-point number:     42
 Using pol_lapack_version = 2
 Calculating Berry  term along reciprocal lattice vector 2:     0.000     0.840     0.000
 Calculating dipole term along reciprocal lattice vector 2:     0.000     0.840     0.000

  Treating all   80 k-points in band plot segment #  43:
   Sampling over :
   - k =   0.214  0.500 -0.214
   - k =   0.214  0.487 -0.214
   - k =   0.214  0.475 -0.214
   - k =   0.214  0.462 -0.214
   - k =   0.214  0.449 -0.214
   - k =   0.214  0.437 -0.214
   - k =   0.214  0.424 -0.214
   - k =   0.214  0.411 -0.214
   - k =   0.214  0.399 -0.214
   - k =   0.214  0.386 -0.214
   - k =   0.214  0.373 -0.214
   - k =   0.214  0.361 -0.214
   - k =   0.214  0.348 -0.214
   - k =   0.214  0.335 -0.214
   - k =   0.214  0.323 -0.214
   - k =   0.214  0.310 -0.214
   - k =   0.214  0.297 -0.214
   - k =   0.214  0.285 -0.214
   - k =   0.214  0.272 -0.214
   - k =   0.214  0.259 -0.214
   - k =   0.214  0.247 -0.214
   - k =   0.214  0.234 -0.214
   - k =   0.214  0.222 -0.214
   - k =   0.214  0.209 -0.214
   - k =   0.214  0.196 -0.214
   - k =   0.214  0.184 -0.214
   - k =   0.214  0.171 -0.214
   - k =   0.214  0.158 -0.214
   - k =   0.214  0.146 -0.214
   - k =   0.214  0.133 -0.214
   - k =   0.214  0.120 -0.214
   - k =   0.214  0.108 -0.214
   - k =   0.214  0.095 -0.214
   - k =   0.214  0.082 -0.214
   - k =   0.214  0.070 -0.214
   - k =   0.214  0.057 -0.214
   - k =   0.214  0.044 -0.214
   - k =   0.214  0.032 -0.214
   - k =   0.214  0.019 -0.214
   - k =   0.214  0.006 -0.214
   - k =   0.214 -0.006 -0.214
   - k =   0.214 -0.019 -0.214
   - k =   0.214 -0.032 -0.214
   - k =   0.214 -0.044 -0.214
   - k =   0.214 -0.057 -0.214
   - k =   0.214 -0.070 -0.214
   - k =   0.214 -0.082 -0.214
   - k =   0.214 -0.095 -0.214
   - k =   0.214 -0.108 -0.214
   - k =   0.214 -0.120 -0.214
   - k =   0.214 -0.133 -0.214
   - k =   0.214 -0.146 -0.214
   - k =   0.214 -0.158 -0.214
   - k =   0.214 -0.171 -0.214
   - k =   0.214 -0.184 -0.214
   - k =   0.214 -0.196 -0.214
   - k =   0.214 -0.209 -0.214
   - k =   0.214 -0.222 -0.214
   - k =   0.214 -0.234 -0.214
   - k =   0.214 -0.247 -0.214
   - k =   0.214 -0.259 -0.214
   - k =   0.214 -0.272 -0.214
   - k =   0.214 -0.285 -0.214
   - k =   0.214 -0.297 -0.214
   - k =   0.214 -0.310 -0.214
   - k =   0.214 -0.323 -0.214
   - k =   0.214 -0.335 -0.214
   - k =   0.214 -0.348 -0.214
   - k =   0.214 -0.361 -0.214
   - k =   0.214 -0.373 -0.214
   - k =   0.214 -0.386 -0.214
   - k =   0.214 -0.399 -0.214
   - k =   0.214 -0.411 -0.214
   - k =   0.214 -0.424 -0.214
   - k =   0.214 -0.437 -0.214
   - k =   0.214 -0.449 -0.214
   - k =   0.214 -0.462 -0.214
   - k =   0.214 -0.475 -0.214
   - k =   0.214 -0.487 -0.214
   - k =   0.214 -0.500 -0.214

  |-> Computing Wannier center evolution at k-point number:     43
 Using pol_lapack_version = 2
 Calculating Berry  term along reciprocal lattice vector 2:     0.000     0.840     0.000
 Calculating dipole term along reciprocal lattice vector 2:     0.000     0.840     0.000

  Treating all   80 k-points in band plot segment #  44:
   Sampling over :
   - k =   0.214  0.500 -0.071
   - k =   0.214  0.487 -0.071
   - k =   0.214  0.475 -0.071
   - k =   0.214  0.462 -0.071
   - k =   0.214  0.449 -0.071
   - k =   0.214  0.437 -0.071
   - k =   0.214  0.424 -0.071
   - k =   0.214  0.411 -0.071
   - k =   0.214  0.399 -0.071
   - k =   0.214  0.386 -0.071
   - k =   0.214  0.373 -0.071
   - k =   0.214  0.361 -0.071
   - k =   0.214  0.348 -0.071
   - k =   0.214  0.335 -0.071
   - k =   0.214  0.323 -0.071
   - k =   0.214  0.310 -0.071
   - k =   0.214  0.297 -0.071
   - k =   0.214  0.285 -0.071
   - k =   0.214  0.272 -0.071
   - k =   0.214  0.259 -0.071
   - k =   0.214  0.247 -0.071
   - k =   0.214  0.234 -0.071
   - k =   0.214  0.222 -0.071
   - k =   0.214  0.209 -0.071
   - k =   0.214  0.196 -0.071
   - k =   0.214  0.184 -0.071
   - k =   0.214  0.171 -0.071
   - k =   0.214  0.158 -0.071
   - k =   0.214  0.146 -0.071
   - k =   0.214  0.133 -0.071
   - k =   0.214  0.120 -0.071
   - k =   0.214  0.108 -0.071
   - k =   0.214  0.095 -0.071
   - k =   0.214  0.082 -0.071
   - k =   0.214  0.070 -0.071
   - k =   0.214  0.057 -0.071
   - k =   0.214  0.044 -0.071
   - k =   0.214  0.032 -0.071
   - k =   0.214  0.019 -0.071
   - k =   0.214  0.006 -0.071
   - k =   0.214 -0.006 -0.071
   - k =   0.214 -0.019 -0.071
   - k =   0.214 -0.032 -0.071
   - k =   0.214 -0.044 -0.071
   - k =   0.214 -0.057 -0.071
   - k =   0.214 -0.070 -0.071
   - k =   0.214 -0.082 -0.071
   - k =   0.214 -0.095 -0.071
   - k =   0.214 -0.108 -0.071
   - k =   0.214 -0.120 -0.071
   - k =   0.214 -0.133 -0.071
   - k =   0.214 -0.146 -0.071
   - k =   0.214 -0.158 -0.071
   - k =   0.214 -0.171 -0.071
   - k =   0.214 -0.184 -0.071
   - k =   0.214 -0.196 -0.071
   - k =   0.214 -0.209 -0.071
   - k =   0.214 -0.222 -0.071
   - k =   0.214 -0.234 -0.071
   - k =   0.214 -0.247 -0.071
   - k =   0.214 -0.259 -0.071
   - k =   0.214 -0.272 -0.071
   - k =   0.214 -0.285 -0.071
   - k =   0.214 -0.297 -0.071
   - k =   0.214 -0.310 -0.071
   - k =   0.214 -0.323 -0.071
   - k =   0.214 -0.335 -0.071
   - k =   0.214 -0.348 -0.071
   - k =   0.214 -0.361 -0.071
   - k =   0.214 -0.373 -0.071
   - k =   0.214 -0.386 -0.071
   - k =   0.214 -0.399 -0.071
   - k =   0.214 -0.411 -0.071
   - k =   0.214 -0.424 -0.071
   - k =   0.214 -0.437 -0.071
   - k =   0.214 -0.449 -0.071
   - k =   0.214 -0.462 -0.071
   - k =   0.214 -0.475 -0.071
   - k =   0.214 -0.487 -0.071
   - k =   0.214 -0.500 -0.071

  |-> Computing Wannier center evolution at k-point number:     44
 Using pol_lapack_version = 2
 Calculating Berry  term along reciprocal lattice vector 2:     0.000     0.840     0.000
 Calculating dipole term along reciprocal lattice vector 2:     0.000     0.840     0.000

  Treating all   80 k-points in band plot segment #  45:
   Sampling over :
   - k =   0.214  0.500  0.071
   - k =   0.214  0.487  0.071
   - k =   0.214  0.475  0.071
   - k =   0.214  0.462  0.071
   - k =   0.214  0.449  0.071
   - k =   0.214  0.437  0.071
   - k =   0.214  0.424  0.071
   - k =   0.214  0.411  0.071
   - k =   0.214  0.399  0.071
   - k =   0.214  0.386  0.071
   - k =   0.214  0.373  0.071
   - k =   0.214  0.361  0.071
   - k =   0.214  0.348  0.071
   - k =   0.214  0.335  0.071
   - k =   0.214  0.323  0.071
   - k =   0.214  0.310  0.071
   - k =   0.214  0.297  0.071
   - k =   0.214  0.285  0.071
   - k =   0.214  0.272  0.071
   - k =   0.214  0.259  0.071
   - k =   0.214  0.247  0.071
   - k =   0.214  0.234  0.071
   - k =   0.214  0.222  0.071
   - k =   0.214  0.209  0.071
   - k =   0.214  0.196  0.071
   - k =   0.214  0.184  0.071
   - k =   0.214  0.171  0.071
   - k =   0.214  0.158  0.071
   - k =   0.214  0.146  0.071
   - k =   0.214  0.133  0.071
   - k =   0.214  0.120  0.071
   - k =   0.214  0.108  0.071
   - k =   0.214  0.095  0.071
   - k =   0.214  0.082  0.071
   - k =   0.214  0.070  0.071
   - k =   0.214  0.057  0.071
   - k =   0.214  0.044  0.071
   - k =   0.214  0.032  0.071
   - k =   0.214  0.019  0.071
   - k =   0.214  0.006  0.071
   - k =   0.214 -0.006  0.071
   - k =   0.214 -0.019  0.071
   - k =   0.214 -0.032  0.071
   - k =   0.214 -0.044  0.071
   - k =   0.214 -0.057  0.071
   - k =   0.214 -0.070  0.071
   - k =   0.214 -0.082  0.071
   - k =   0.214 -0.095  0.071
   - k =   0.214 -0.108  0.071
   - k =   0.214 -0.120  0.071
   - k =   0.214 -0.133  0.071
   - k =   0.214 -0.146  0.071
   - k =   0.214 -0.158  0.071
   - k =   0.214 -0.171  0.071
   - k =   0.214 -0.184  0.071
   - k =   0.214 -0.196  0.071
   - k =   0.214 -0.209  0.071
   - k =   0.214 -0.222  0.071
   - k =   0.214 -0.234  0.071
   - k =   0.214 -0.247  0.071
   - k =   0.214 -0.259  0.071
   - k =   0.214 -0.272  0.071
   - k =   0.214 -0.285  0.071
   - k =   0.214 -0.297  0.071
   - k =   0.214 -0.310  0.071
   - k =   0.214 -0.323  0.071
   - k =   0.214 -0.335  0.071
   - k =   0.214 -0.348  0.071
   - k =   0.214 -0.361  0.071
   - k =   0.214 -0.373  0.071
   - k =   0.214 -0.386  0.071
   - k =   0.214 -0.399  0.071
   - k =   0.214 -0.411  0.071
   - k =   0.214 -0.424  0.071
   - k =   0.214 -0.437  0.071
   - k =   0.214 -0.449  0.071
   - k =   0.214 -0.462  0.071
   - k =   0.214 -0.475  0.071
   - k =   0.214 -0.487  0.071
   - k =   0.214 -0.500  0.071

  |-> Computing Wannier center evolution at k-point number:     45
 Using pol_lapack_version = 2
 Calculating Berry  term along reciprocal lattice vector 2:     0.000     0.840     0.000
 Calculating dipole term along reciprocal lattice vector 2:     0.000     0.840     0.000

  Treating all   80 k-points in band plot segment #  46:
   Sampling over :
   - k =   0.214  0.500  0.214
   - k =   0.214  0.487  0.214
   - k =   0.214  0.475  0.214
   - k =   0.214  0.462  0.214
   - k =   0.214  0.449  0.214
   - k =   0.214  0.437  0.214
   - k =   0.214  0.424  0.214
   - k =   0.214  0.411  0.214
   - k =   0.214  0.399  0.214
   - k =   0.214  0.386  0.214
   - k =   0.214  0.373  0.214
   - k =   0.214  0.361  0.214
   - k =   0.214  0.348  0.214
   - k =   0.214  0.335  0.214
   - k =   0.214  0.323  0.214
   - k =   0.214  0.310  0.214
   - k =   0.214  0.297  0.214
   - k =   0.214  0.285  0.214
   - k =   0.214  0.272  0.214
   - k =   0.214  0.259  0.214
   - k =   0.214  0.247  0.214
   - k =   0.214  0.234  0.214
   - k =   0.214  0.222  0.214
   - k =   0.214  0.209  0.214
   - k =   0.214  0.196  0.214
   - k =   0.214  0.184  0.214
   - k =   0.214  0.171  0.214
   - k =   0.214  0.158  0.214
   - k =   0.214  0.146  0.214
   - k =   0.214  0.133  0.214
   - k =   0.214  0.120  0.214
   - k =   0.214  0.108  0.214
   - k =   0.214  0.095  0.214
   - k =   0.214  0.082  0.214
   - k =   0.214  0.070  0.214
   - k =   0.214  0.057  0.214
   - k =   0.214  0.044  0.214
   - k =   0.214  0.032  0.214
   - k =   0.214  0.019  0.214
   - k =   0.214  0.006  0.214
   - k =   0.214 -0.006  0.214
   - k =   0.214 -0.019  0.214
   - k =   0.214 -0.032  0.214
   - k =   0.214 -0.044  0.214
   - k =   0.214 -0.057  0.214
   - k =   0.214 -0.070  0.214
   - k =   0.214 -0.082  0.214
   - k =   0.214 -0.095  0.214
   - k =   0.214 -0.108  0.214
   - k =   0.214 -0.120  0.214
   - k =   0.214 -0.133  0.214
   - k =   0.214 -0.146  0.214
   - k =   0.214 -0.158  0.214
   - k =   0.214 -0.171  0.214
   - k =   0.214 -0.184  0.214
   - k =   0.214 -0.196  0.214
   - k =   0.214 -0.209  0.214
   - k =   0.214 -0.222  0.214
   - k =   0.214 -0.234  0.214
   - k =   0.214 -0.247  0.214
   - k =   0.214 -0.259  0.214
   - k =   0.214 -0.272  0.214
   - k =   0.214 -0.285  0.214
   - k =   0.214 -0.297  0.214
   - k =   0.214 -0.310  0.214
   - k =   0.214 -0.323  0.214
   - k =   0.214 -0.335  0.214
   - k =   0.214 -0.348  0.214
   - k =   0.214 -0.361  0.214
   - k =   0.214 -0.373  0.214
   - k =   0.214 -0.386  0.214
   - k =   0.214 -0.399  0.214
   - k =   0.214 -0.411  0.214
   - k =   0.214 -0.424  0.214
   - k =   0.214 -0.437  0.214
   - k =   0.214 -0.449  0.214
   - k =   0.214 -0.462  0.214
   - k =   0.214 -0.475  0.214
   - k =   0.214 -0.487  0.214
   - k =   0.214 -0.500  0.214

  |-> Computing Wannier center evolution at k-point number:     46
 Using pol_lapack_version = 2
 Calculating Berry  term along reciprocal lattice vector 2:     0.000     0.840     0.000
 Calculating dipole term along reciprocal lattice vector 2:     0.000     0.840     0.000

  Treating all   80 k-points in band plot segment #  47:
   Sampling over :
   - k =   0.214  0.500  0.357
   - k =   0.214  0.487  0.357
   - k =   0.214  0.475  0.357
   - k =   0.214  0.462  0.357
   - k =   0.214  0.449  0.357
   - k =   0.214  0.437  0.357
   - k =   0.214  0.424  0.357
   - k =   0.214  0.411  0.357
   - k =   0.214  0.399  0.357
   - k =   0.214  0.386  0.357
   - k =   0.214  0.373  0.357
   - k =   0.214  0.361  0.357
   - k =   0.214  0.348  0.357
   - k =   0.214  0.335  0.357
   - k =   0.214  0.323  0.357
   - k =   0.214  0.310  0.357
   - k =   0.214  0.297  0.357
   - k =   0.214  0.285  0.357
   - k =   0.214  0.272  0.357
   - k =   0.214  0.259  0.357
   - k =   0.214  0.247  0.357
   - k =   0.214  0.234  0.357
   - k =   0.214  0.222  0.357
   - k =   0.214  0.209  0.357
   - k =   0.214  0.196  0.357
   - k =   0.214  0.184  0.357
   - k =   0.214  0.171  0.357
   - k =   0.214  0.158  0.357
   - k =   0.214  0.146  0.357
   - k =   0.214  0.133  0.357
   - k =   0.214  0.120  0.357
   - k =   0.214  0.108  0.357
   - k =   0.214  0.095  0.357
   - k =   0.214  0.082  0.357
   - k =   0.214  0.070  0.357
   - k =   0.214  0.057  0.357
   - k =   0.214  0.044  0.357
   - k =   0.214  0.032  0.357
   - k =   0.214  0.019  0.357
   - k =   0.214  0.006  0.357
   - k =   0.214 -0.006  0.357
   - k =   0.214 -0.019  0.357
   - k =   0.214 -0.032  0.357
   - k =   0.214 -0.044  0.357
   - k =   0.214 -0.057  0.357
   - k =   0.214 -0.070  0.357
   - k =   0.214 -0.082  0.357
   - k =   0.214 -0.095  0.357
   - k =   0.214 -0.108  0.357
   - k =   0.214 -0.120  0.357
   - k =   0.214 -0.133  0.357
   - k =   0.214 -0.146  0.357
   - k =   0.214 -0.158  0.357
   - k =   0.214 -0.171  0.357
   - k =   0.214 -0.184  0.357
   - k =   0.214 -0.196  0.357
   - k =   0.214 -0.209  0.357
   - k =   0.214 -0.222  0.357
   - k =   0.214 -0.234  0.357
   - k =   0.214 -0.247  0.357
   - k =   0.214 -0.259  0.357
   - k =   0.214 -0.272  0.357
   - k =   0.214 -0.285  0.357
   - k =   0.214 -0.297  0.357
   - k =   0.214 -0.310  0.357
   - k =   0.214 -0.323  0.357
   - k =   0.214 -0.335  0.357
   - k =   0.214 -0.348  0.357
   - k =   0.214 -0.361  0.357
   - k =   0.214 -0.373  0.357
   - k =   0.214 -0.386  0.357
   - k =   0.214 -0.399  0.357
   - k =   0.214 -0.411  0.357
   - k =   0.214 -0.424  0.357
   - k =   0.214 -0.437  0.357
   - k =   0.214 -0.449  0.357
   - k =   0.214 -0.462  0.357
   - k =   0.214 -0.475  0.357
   - k =   0.214 -0.487  0.357
   - k =   0.214 -0.500  0.357

  |-> Computing Wannier center evolution at k-point number:     47
 Using pol_lapack_version = 2
 Calculating Berry  term along reciprocal lattice vector 2:     0.000     0.840     0.000
 Calculating dipole term along reciprocal lattice vector 2:     0.000     0.840     0.000

  Treating all   80 k-points in band plot segment #  48:
   Sampling over :
   - k =   0.214  0.500  0.500
   - k =   0.214  0.487  0.500
   - k =   0.214  0.475  0.500
   - k =   0.214  0.462  0.500
   - k =   0.214  0.449  0.500
   - k =   0.214  0.437  0.500
   - k =   0.214  0.424  0.500
   - k =   0.214  0.411  0.500
   - k =   0.214  0.399  0.500
   - k =   0.214  0.386  0.500
   - k =   0.214  0.373  0.500
   - k =   0.214  0.361  0.500
   - k =   0.214  0.348  0.500
   - k =   0.214  0.335  0.500
   - k =   0.214  0.323  0.500
   - k =   0.214  0.310  0.500
   - k =   0.214  0.297  0.500
   - k =   0.214  0.285  0.500
   - k =   0.214  0.272  0.500
   - k =   0.214  0.259  0.500
   - k =   0.214  0.247  0.500
   - k =   0.214  0.234  0.500
   - k =   0.214  0.222  0.500
   - k =   0.214  0.209  0.500
   - k =   0.214  0.196  0.500
   - k =   0.214  0.184  0.500
   - k =   0.214  0.171  0.500
   - k =   0.214  0.158  0.500
   - k =   0.214  0.146  0.500
   - k =   0.214  0.133  0.500
   - k =   0.214  0.120  0.500
   - k =   0.214  0.108  0.500
   - k =   0.214  0.095  0.500
   - k =   0.214  0.082  0.500
   - k =   0.214  0.070  0.500
   - k =   0.214  0.057  0.500
   - k =   0.214  0.044  0.500
   - k =   0.214  0.032  0.500
   - k =   0.214  0.019  0.500
   - k =   0.214  0.006  0.500
   - k =   0.214 -0.006  0.500
   - k =   0.214 -0.019  0.500
   - k =   0.214 -0.032  0.500
   - k =   0.214 -0.044  0.500
   - k =   0.214 -0.057  0.500
   - k =   0.214 -0.070  0.500
   - k =   0.214 -0.082  0.500
   - k =   0.214 -0.095  0.500
   - k =   0.214 -0.108  0.500
   - k =   0.214 -0.120  0.500
   - k =   0.214 -0.133  0.500
   - k =   0.214 -0.146  0.500
   - k =   0.214 -0.158  0.500
   - k =   0.214 -0.171  0.500
   - k =   0.214 -0.184  0.500
   - k =   0.214 -0.196  0.500
   - k =   0.214 -0.209  0.500
   - k =   0.214 -0.222  0.500
   - k =   0.214 -0.234  0.500
   - k =   0.214 -0.247  0.500
   - k =   0.214 -0.259  0.500
   - k =   0.214 -0.272  0.500
   - k =   0.214 -0.285  0.500
   - k =   0.214 -0.297  0.500
   - k =   0.214 -0.310  0.500
   - k =   0.214 -0.323  0.500
   - k =   0.214 -0.335  0.500
   - k =   0.214 -0.348  0.500
   - k =   0.214 -0.361  0.500
   - k =   0.214 -0.373  0.500
   - k =   0.214 -0.386  0.500
   - k =   0.214 -0.399  0.500
   - k =   0.214 -0.411  0.500
   - k =   0.214 -0.424  0.500
   - k =   0.214 -0.437  0.500
   - k =   0.214 -0.449  0.500
   - k =   0.214 -0.462  0.500
   - k =   0.214 -0.475  0.500
   - k =   0.214 -0.487  0.500
   - k =   0.214 -0.500  0.500

  |-> Computing Wannier center evolution at k-point number:     48
 Using pol_lapack_version = 2
 Calculating Berry  term along reciprocal lattice vector 2:     0.000     0.840     0.000
 Calculating dipole term along reciprocal lattice vector 2:     0.000     0.840     0.000

  Treating all   80 k-points in band plot segment #  49:
   Sampling over :
   - k =   0.357  0.500 -0.500
   - k =   0.357  0.487 -0.500
   - k =   0.357  0.475 -0.500
   - k =   0.357  0.462 -0.500
   - k =   0.357  0.449 -0.500
   - k =   0.357  0.437 -0.500
   - k =   0.357  0.424 -0.500
   - k =   0.357  0.411 -0.500
   - k =   0.357  0.399 -0.500
   - k =   0.357  0.386 -0.500
   - k =   0.357  0.373 -0.500
   - k =   0.357  0.361 -0.500
   - k =   0.357  0.348 -0.500
   - k =   0.357  0.335 -0.500
   - k =   0.357  0.323 -0.500
   - k =   0.357  0.310 -0.500
   - k =   0.357  0.297 -0.500
   - k =   0.357  0.285 -0.500
   - k =   0.357  0.272 -0.500
   - k =   0.357  0.259 -0.500
   - k =   0.357  0.247 -0.500
   - k =   0.357  0.234 -0.500
   - k =   0.357  0.222 -0.500
   - k =   0.357  0.209 -0.500
   - k =   0.357  0.196 -0.500
   - k =   0.357  0.184 -0.500
   - k =   0.357  0.171 -0.500
   - k =   0.357  0.158 -0.500
   - k =   0.357  0.146 -0.500
   - k =   0.357  0.133 -0.500
   - k =   0.357  0.120 -0.500
   - k =   0.357  0.108 -0.500
   - k =   0.357  0.095 -0.500
   - k =   0.357  0.082 -0.500
   - k =   0.357  0.070 -0.500
   - k =   0.357  0.057 -0.500
   - k =   0.357  0.044 -0.500
   - k =   0.357  0.032 -0.500
   - k =   0.357  0.019 -0.500
   - k =   0.357  0.006 -0.500
   - k =   0.357 -0.006 -0.500
   - k =   0.357 -0.019 -0.500
   - k =   0.357 -0.032 -0.500
   - k =   0.357 -0.044 -0.500
   - k =   0.357 -0.057 -0.500
   - k =   0.357 -0.070 -0.500
   - k =   0.357 -0.082 -0.500
   - k =   0.357 -0.095 -0.500
   - k =   0.357 -0.108 -0.500
   - k =   0.357 -0.120 -0.500
   - k =   0.357 -0.133 -0.500
   - k =   0.357 -0.146 -0.500
   - k =   0.357 -0.158 -0.500
   - k =   0.357 -0.171 -0.500
   - k =   0.357 -0.184 -0.500
   - k =   0.357 -0.196 -0.500
   - k =   0.357 -0.209 -0.500
   - k =   0.357 -0.222 -0.500
   - k =   0.357 -0.234 -0.500
   - k =   0.357 -0.247 -0.500
   - k =   0.357 -0.259 -0.500
   - k =   0.357 -0.272 -0.500
   - k =   0.357 -0.285 -0.500
   - k =   0.357 -0.297 -0.500
   - k =   0.357 -0.310 -0.500
   - k =   0.357 -0.323 -0.500
   - k =   0.357 -0.335 -0.500
   - k =   0.357 -0.348 -0.500
   - k =   0.357 -0.361 -0.500
   - k =   0.357 -0.373 -0.500
   - k =   0.357 -0.386 -0.500
   - k =   0.357 -0.399 -0.500
   - k =   0.357 -0.411 -0.500
   - k =   0.357 -0.424 -0.500
   - k =   0.357 -0.437 -0.500
   - k =   0.357 -0.449 -0.500
   - k =   0.357 -0.462 -0.500
   - k =   0.357 -0.475 -0.500
   - k =   0.357 -0.487 -0.500
   - k =   0.357 -0.500 -0.500

  |-> Computing Wannier center evolution at k-point number:     49
 Using pol_lapack_version = 2
 Calculating Berry  term along reciprocal lattice vector 2:     0.000     0.840     0.000
 Calculating dipole term along reciprocal lattice vector 2:     0.000     0.840     0.000

  Treating all   80 k-points in band plot segment #  50:
   Sampling over :
   - k =   0.357  0.500 -0.357
   - k =   0.357  0.487 -0.357
   - k =   0.357  0.475 -0.357
   - k =   0.357  0.462 -0.357
   - k =   0.357  0.449 -0.357
   - k =   0.357  0.437 -0.357
   - k =   0.357  0.424 -0.357
   - k =   0.357  0.411 -0.357
   - k =   0.357  0.399 -0.357
   - k =   0.357  0.386 -0.357
   - k =   0.357  0.373 -0.357
   - k =   0.357  0.361 -0.357
   - k =   0.357  0.348 -0.357
   - k =   0.357  0.335 -0.357
   - k =   0.357  0.323 -0.357
   - k =   0.357  0.310 -0.357
   - k =   0.357  0.297 -0.357
   - k =   0.357  0.285 -0.357
   - k =   0.357  0.272 -0.357
   - k =   0.357  0.259 -0.357
   - k =   0.357  0.247 -0.357
   - k =   0.357  0.234 -0.357
   - k =   0.357  0.222 -0.357
   - k =   0.357  0.209 -0.357
   - k =   0.357  0.196 -0.357
   - k =   0.357  0.184 -0.357
   - k =   0.357  0.171 -0.357
   - k =   0.357  0.158 -0.357
   - k =   0.357  0.146 -0.357
   - k =   0.357  0.133 -0.357
   - k =   0.357  0.120 -0.357
   - k =   0.357  0.108 -0.357
   - k =   0.357  0.095 -0.357
   - k =   0.357  0.082 -0.357
   - k =   0.357  0.070 -0.357
   - k =   0.357  0.057 -0.357
   - k =   0.357  0.044 -0.357
   - k =   0.357  0.032 -0.357
   - k =   0.357  0.019 -0.357
   - k =   0.357  0.006 -0.357
   - k =   0.357 -0.006 -0.357
   - k =   0.357 -0.019 -0.357
   - k =   0.357 -0.032 -0.357
   - k =   0.357 -0.044 -0.357
   - k =   0.357 -0.057 -0.357
   - k =   0.357 -0.070 -0.357
   - k =   0.357 -0.082 -0.357
   - k =   0.357 -0.095 -0.357
   - k =   0.357 -0.108 -0.357
   - k =   0.357 -0.120 -0.357
   - k =   0.357 -0.133 -0.357
   - k =   0.357 -0.146 -0.357
   - k =   0.357 -0.158 -0.357
   - k =   0.357 -0.171 -0.357
   - k =   0.357 -0.184 -0.357
   - k =   0.357 -0.196 -0.357
   - k =   0.357 -0.209 -0.357
   - k =   0.357 -0.222 -0.357
   - k =   0.357 -0.234 -0.357
   - k =   0.357 -0.247 -0.357
   - k =   0.357 -0.259 -0.357
   - k =   0.357 -0.272 -0.357
   - k =   0.357 -0.285 -0.357
   - k =   0.357 -0.297 -0.357
   - k =   0.357 -0.310 -0.357
   - k =   0.357 -0.323 -0.357
   - k =   0.357 -0.335 -0.357
   - k =   0.357 -0.348 -0.357
   - k =   0.357 -0.361 -0.357
   - k =   0.357 -0.373 -0.357
   - k =   0.357 -0.386 -0.357
   - k =   0.357 -0.399 -0.357
   - k =   0.357 -0.411 -0.357
   - k =   0.357 -0.424 -0.357
   - k =   0.357 -0.437 -0.357
   - k =   0.357 -0.449 -0.357
   - k =   0.357 -0.462 -0.357
   - k =   0.357 -0.475 -0.357
   - k =   0.357 -0.487 -0.357
   - k =   0.357 -0.500 -0.357

  |-> Computing Wannier center evolution at k-point number:     50
 Using pol_lapack_version = 2
 Calculating Berry  term along reciprocal lattice vector 2:     0.000     0.840     0.000
 Calculating dipole term along reciprocal lattice vector 2:     0.000     0.840     0.000

  Treating all   80 k-points in band plot segment #  51:
   Sampling over :
   - k =   0.357  0.500 -0.214
   - k =   0.357  0.487 -0.214
   - k =   0.357  0.475 -0.214
   - k =   0.357  0.462 -0.214
   - k =   0.357  0.449 -0.214
   - k =   0.357  0.437 -0.214
   - k =   0.357  0.424 -0.214
   - k =   0.357  0.411 -0.214
   - k =   0.357  0.399 -0.214
   - k =   0.357  0.386 -0.214
   - k =   0.357  0.373 -0.214
   - k =   0.357  0.361 -0.214
   - k =   0.357  0.348 -0.214
   - k =   0.357  0.335 -0.214
   - k =   0.357  0.323 -0.214
   - k =   0.357  0.310 -0.214
   - k =   0.357  0.297 -0.214
   - k =   0.357  0.285 -0.214
   - k =   0.357  0.272 -0.214
   - k =   0.357  0.259 -0.214
   - k =   0.357  0.247 -0.214
   - k =   0.357  0.234 -0.214
   - k =   0.357  0.222 -0.214
   - k =   0.357  0.209 -0.214
   - k =   0.357  0.196 -0.214
   - k =   0.357  0.184 -0.214
   - k =   0.357  0.171 -0.214
   - k =   0.357  0.158 -0.214
   - k =   0.357  0.146 -0.214
   - k =   0.357  0.133 -0.214
   - k =   0.357  0.120 -0.214
   - k =   0.357  0.108 -0.214
   - k =   0.357  0.095 -0.214
   - k =   0.357  0.082 -0.214
   - k =   0.357  0.070 -0.214
   - k =   0.357  0.057 -0.214
   - k =   0.357  0.044 -0.214
   - k =   0.357  0.032 -0.214
   - k =   0.357  0.019 -0.214
   - k =   0.357  0.006 -0.214
   - k =   0.357 -0.006 -0.214
   - k =   0.357 -0.019 -0.214
   - k =   0.357 -0.032 -0.214
   - k =   0.357 -0.044 -0.214
   - k =   0.357 -0.057 -0.214
   - k =   0.357 -0.070 -0.214
   - k =   0.357 -0.082 -0.214
   - k =   0.357 -0.095 -0.214
   - k =   0.357 -0.108 -0.214
   - k =   0.357 -0.120 -0.214
   - k =   0.357 -0.133 -0.214
   - k =   0.357 -0.146 -0.214
   - k =   0.357 -0.158 -0.214
   - k =   0.357 -0.171 -0.214
   - k =   0.357 -0.184 -0.214
   - k =   0.357 -0.196 -0.214
   - k =   0.357 -0.209 -0.214
   - k =   0.357 -0.222 -0.214
   - k =   0.357 -0.234 -0.214
   - k =   0.357 -0.247 -0.214
   - k =   0.357 -0.259 -0.214
   - k =   0.357 -0.272 -0.214
   - k =   0.357 -0.285 -0.214
   - k =   0.357 -0.297 -0.214
   - k =   0.357 -0.310 -0.214
   - k =   0.357 -0.323 -0.214
   - k =   0.357 -0.335 -0.214
   - k =   0.357 -0.348 -0.214
   - k =   0.357 -0.361 -0.214
   - k =   0.357 -0.373 -0.214
   - k =   0.357 -0.386 -0.214
   - k =   0.357 -0.399 -0.214
   - k =   0.357 -0.411 -0.214
   - k =   0.357 -0.424 -0.214
   - k =   0.357 -0.437 -0.214
   - k =   0.357 -0.449 -0.214
   - k =   0.357 -0.462 -0.214
   - k =   0.357 -0.475 -0.214
   - k =   0.357 -0.487 -0.214
   - k =   0.357 -0.500 -0.214

  |-> Computing Wannier center evolution at k-point number:     51
 Using pol_lapack_version = 2
 Calculating Berry  term along reciprocal lattice vector 2:     0.000     0.840     0.000
 Calculating dipole term along reciprocal lattice vector 2:     0.000     0.840     0.000

  Treating all   80 k-points in band plot segment #  52:
   Sampling over :
   - k =   0.357  0.500 -0.071
   - k =   0.357  0.487 -0.071
   - k =   0.357  0.475 -0.071
   - k =   0.357  0.462 -0.071
   - k =   0.357  0.449 -0.071
   - k =   0.357  0.437 -0.071
   - k =   0.357  0.424 -0.071
   - k =   0.357  0.411 -0.071
   - k =   0.357  0.399 -0.071
   - k =   0.357  0.386 -0.071
   - k =   0.357  0.373 -0.071
   - k =   0.357  0.361 -0.071
   - k =   0.357  0.348 -0.071
   - k =   0.357  0.335 -0.071
   - k =   0.357  0.323 -0.071
   - k =   0.357  0.310 -0.071
   - k =   0.357  0.297 -0.071
   - k =   0.357  0.285 -0.071
   - k =   0.357  0.272 -0.071
   - k =   0.357  0.259 -0.071
   - k =   0.357  0.247 -0.071
   - k =   0.357  0.234 -0.071
   - k =   0.357  0.222 -0.071
   - k =   0.357  0.209 -0.071
   - k =   0.357  0.196 -0.071
   - k =   0.357  0.184 -0.071
   - k =   0.357  0.171 -0.071
   - k =   0.357  0.158 -0.071
   - k =   0.357  0.146 -0.071
   - k =   0.357  0.133 -0.071
   - k =   0.357  0.120 -0.071
   - k =   0.357  0.108 -0.071
   - k =   0.357  0.095 -0.071
   - k =   0.357  0.082 -0.071
   - k =   0.357  0.070 -0.071
   - k =   0.357  0.057 -0.071
   - k =   0.357  0.044 -0.071
   - k =   0.357  0.032 -0.071
   - k =   0.357  0.019 -0.071
   - k =   0.357  0.006 -0.071
   - k =   0.357 -0.006 -0.071
   - k =   0.357 -0.019 -0.071
   - k =   0.357 -0.032 -0.071
   - k =   0.357 -0.044 -0.071
   - k =   0.357 -0.057 -0.071
   - k =   0.357 -0.070 -0.071
   - k =   0.357 -0.082 -0.071
   - k =   0.357 -0.095 -0.071
   - k =   0.357 -0.108 -0.071
   - k =   0.357 -0.120 -0.071
   - k =   0.357 -0.133 -0.071
   - k =   0.357 -0.146 -0.071
   - k =   0.357 -0.158 -0.071
   - k =   0.357 -0.171 -0.071
   - k =   0.357 -0.184 -0.071
   - k =   0.357 -0.196 -0.071
   - k =   0.357 -0.209 -0.071
   - k =   0.357 -0.222 -0.071
   - k =   0.357 -0.234 -0.071
   - k =   0.357 -0.247 -0.071
   - k =   0.357 -0.259 -0.071
   - k =   0.357 -0.272 -0.071
   - k =   0.357 -0.285 -0.071
   - k =   0.357 -0.297 -0.071
   - k =   0.357 -0.310 -0.071
   - k =   0.357 -0.323 -0.071
   - k =   0.357 -0.335 -0.071
   - k =   0.357 -0.348 -0.071
   - k =   0.357 -0.361 -0.071
   - k =   0.357 -0.373 -0.071
   - k =   0.357 -0.386 -0.071
   - k =   0.357 -0.399 -0.071
   - k =   0.357 -0.411 -0.071
   - k =   0.357 -0.424 -0.071
   - k =   0.357 -0.437 -0.071
   - k =   0.357 -0.449 -0.071
   - k =   0.357 -0.462 -0.071
   - k =   0.357 -0.475 -0.071
   - k =   0.357 -0.487 -0.071
   - k =   0.357 -0.500 -0.071

  |-> Computing Wannier center evolution at k-point number:     52
 Using pol_lapack_version = 2
 Calculating Berry  term along reciprocal lattice vector 2:     0.000     0.840     0.000
 Calculating dipole term along reciprocal lattice vector 2:     0.000     0.840     0.000

  Treating all   80 k-points in band plot segment #  53:
   Sampling over :
   - k =   0.357  0.500  0.071
   - k =   0.357  0.487  0.071
   - k =   0.357  0.475  0.071
   - k =   0.357  0.462  0.071
   - k =   0.357  0.449  0.071
   - k =   0.357  0.437  0.071
   - k =   0.357  0.424  0.071
   - k =   0.357  0.411  0.071
   - k =   0.357  0.399  0.071
   - k =   0.357  0.386  0.071
   - k =   0.357  0.373  0.071
   - k =   0.357  0.361  0.071
   - k =   0.357  0.348  0.071
   - k =   0.357  0.335  0.071
   - k =   0.357  0.323  0.071
   - k =   0.357  0.310  0.071
   - k =   0.357  0.297  0.071
   - k =   0.357  0.285  0.071
   - k =   0.357  0.272  0.071
   - k =   0.357  0.259  0.071
   - k =   0.357  0.247  0.071
   - k =   0.357  0.234  0.071
   - k =   0.357  0.222  0.071
   - k =   0.357  0.209  0.071
   - k =   0.357  0.196  0.071
   - k =   0.357  0.184  0.071
   - k =   0.357  0.171  0.071
   - k =   0.357  0.158  0.071
   - k =   0.357  0.146  0.071
   - k =   0.357  0.133  0.071
   - k =   0.357  0.120  0.071
   - k =   0.357  0.108  0.071
   - k =   0.357  0.095  0.071
   - k =   0.357  0.082  0.071
   - k =   0.357  0.070  0.071
   - k =   0.357  0.057  0.071
   - k =   0.357  0.044  0.071
   - k =   0.357  0.032  0.071
   - k =   0.357  0.019  0.071
   - k =   0.357  0.006  0.071
   - k =   0.357 -0.006  0.071
   - k =   0.357 -0.019  0.071
   - k =   0.357 -0.032  0.071
   - k =   0.357 -0.044  0.071
   - k =   0.357 -0.057  0.071
   - k =   0.357 -0.070  0.071
   - k =   0.357 -0.082  0.071
   - k =   0.357 -0.095  0.071
   - k =   0.357 -0.108  0.071
   - k =   0.357 -0.120  0.071
   - k =   0.357 -0.133  0.071
   - k =   0.357 -0.146  0.071
   - k =   0.357 -0.158  0.071
   - k =   0.357 -0.171  0.071
   - k =   0.357 -0.184  0.071
   - k =   0.357 -0.196  0.071
   - k =   0.357 -0.209  0.071
   - k =   0.357 -0.222  0.071
   - k =   0.357 -0.234  0.071
   - k =   0.357 -0.247  0.071
   - k =   0.357 -0.259  0.071
   - k =   0.357 -0.272  0.071
   - k =   0.357 -0.285  0.071
   - k =   0.357 -0.297  0.071
   - k =   0.357 -0.310  0.071
   - k =   0.357 -0.323  0.071
   - k =   0.357 -0.335  0.071
   - k =   0.357 -0.348  0.071
   - k =   0.357 -0.361  0.071
   - k =   0.357 -0.373  0.071
   - k =   0.357 -0.386  0.071
   - k =   0.357 -0.399  0.071
   - k =   0.357 -0.411  0.071
   - k =   0.357 -0.424  0.071
   - k =   0.357 -0.437  0.071
   - k =   0.357 -0.449  0.071
   - k =   0.357 -0.462  0.071
   - k =   0.357 -0.475  0.071
   - k =   0.357 -0.487  0.071
   - k =   0.357 -0.500  0.071

  |-> Computing Wannier center evolution at k-point number:     53
 Using pol_lapack_version = 2
 Calculating Berry  term along reciprocal lattice vector 2:     0.000     0.840     0.000
 Calculating dipole term along reciprocal lattice vector 2:     0.000     0.840     0.000

  Treating all   80 k-points in band plot segment #  54:
   Sampling over :
   - k =   0.357  0.500  0.214
   - k =   0.357  0.487  0.214
   - k =   0.357  0.475  0.214
   - k =   0.357  0.462  0.214
   - k =   0.357  0.449  0.214
   - k =   0.357  0.437  0.214
   - k =   0.357  0.424  0.214
   - k =   0.357  0.411  0.214
   - k =   0.357  0.399  0.214
   - k =   0.357  0.386  0.214
   - k =   0.357  0.373  0.214
   - k =   0.357  0.361  0.214
   - k =   0.357  0.348  0.214
   - k =   0.357  0.335  0.214
   - k =   0.357  0.323  0.214
   - k =   0.357  0.310  0.214
   - k =   0.357  0.297  0.214
   - k =   0.357  0.285  0.214
   - k =   0.357  0.272  0.214
   - k =   0.357  0.259  0.214
   - k =   0.357  0.247  0.214
   - k =   0.357  0.234  0.214
   - k =   0.357  0.222  0.214
   - k =   0.357  0.209  0.214
   - k =   0.357  0.196  0.214
   - k =   0.357  0.184  0.214
   - k =   0.357  0.171  0.214
   - k =   0.357  0.158  0.214
   - k =   0.357  0.146  0.214
   - k =   0.357  0.133  0.214
   - k =   0.357  0.120  0.214
   - k =   0.357  0.108  0.214
   - k =   0.357  0.095  0.214
   - k =   0.357  0.082  0.214
   - k =   0.357  0.070  0.214
   - k =   0.357  0.057  0.214
   - k =   0.357  0.044  0.214
   - k =   0.357  0.032  0.214
   - k =   0.357  0.019  0.214
   - k =   0.357  0.006  0.214
   - k =   0.357 -0.006  0.214
   - k =   0.357 -0.019  0.214
   - k =   0.357 -0.032  0.214
   - k =   0.357 -0.044  0.214
   - k =   0.357 -0.057  0.214
   - k =   0.357 -0.070  0.214
   - k =   0.357 -0.082  0.214
   - k =   0.357 -0.095  0.214
   - k =   0.357 -0.108  0.214
   - k =   0.357 -0.120  0.214
   - k =   0.357 -0.133  0.214
   - k =   0.357 -0.146  0.214
   - k =   0.357 -0.158  0.214
   - k =   0.357 -0.171  0.214
   - k =   0.357 -0.184  0.214
   - k =   0.357 -0.196  0.214
   - k =   0.357 -0.209  0.214
   - k =   0.357 -0.222  0.214
   - k =   0.357 -0.234  0.214
   - k =   0.357 -0.247  0.214
   - k =   0.357 -0.259  0.214
   - k =   0.357 -0.272  0.214
   - k =   0.357 -0.285  0.214
   - k =   0.357 -0.297  0.214
   - k =   0.357 -0.310  0.214
   - k =   0.357 -0.323  0.214
   - k =   0.357 -0.335  0.214
   - k =   0.357 -0.348  0.214
   - k =   0.357 -0.361  0.214
   - k =   0.357 -0.373  0.214
   - k =   0.357 -0.386  0.214
   - k =   0.357 -0.399  0.214
   - k =   0.357 -0.411  0.214
   - k =   0.357 -0.424  0.214
   - k =   0.357 -0.437  0.214
   - k =   0.357 -0.449  0.214
   - k =   0.357 -0.462  0.214
   - k =   0.357 -0.475  0.214
   - k =   0.357 -0.487  0.214
   - k =   0.357 -0.500  0.214

  |-> Computing Wannier center evolution at k-point number:     54
 Using pol_lapack_version = 2
 Calculating Berry  term along reciprocal lattice vector 2:     0.000     0.840     0.000
 Calculating dipole term along reciprocal lattice vector 2:     0.000     0.840     0.000

  Treating all   80 k-points in band plot segment #  55:
   Sampling over :
   - k =   0.357  0.500  0.357
   - k =   0.357  0.487  0.357
   - k =   0.357  0.475  0.357
   - k =   0.357  0.462  0.357
   - k =   0.357  0.449  0.357
   - k =   0.357  0.437  0.357
   - k =   0.357  0.424  0.357
   - k =   0.357  0.411  0.357
   - k =   0.357  0.399  0.357
   - k =   0.357  0.386  0.357
   - k =   0.357  0.373  0.357
   - k =   0.357  0.361  0.357
   - k =   0.357  0.348  0.357
   - k =   0.357  0.335  0.357
   - k =   0.357  0.323  0.357
   - k =   0.357  0.310  0.357
   - k =   0.357  0.297  0.357
   - k =   0.357  0.285  0.357
   - k =   0.357  0.272  0.357
   - k =   0.357  0.259  0.357
   - k =   0.357  0.247  0.357
   - k =   0.357  0.234  0.357
   - k =   0.357  0.222  0.357
   - k =   0.357  0.209  0.357
   - k =   0.357  0.196  0.357
   - k =   0.357  0.184  0.357
   - k =   0.357  0.171  0.357
   - k =   0.357  0.158  0.357
   - k =   0.357  0.146  0.357
   - k =   0.357  0.133  0.357
   - k =   0.357  0.120  0.357
   - k =   0.357  0.108  0.357
   - k =   0.357  0.095  0.357
   - k =   0.357  0.082  0.357
   - k =   0.357  0.070  0.357
   - k =   0.357  0.057  0.357
   - k =   0.357  0.044  0.357
   - k =   0.357  0.032  0.357
   - k =   0.357  0.019  0.357
   - k =   0.357  0.006  0.357
   - k =   0.357 -0.006  0.357
   - k =   0.357 -0.019  0.357
   - k =   0.357 -0.032  0.357
   - k =   0.357 -0.044  0.357
   - k =   0.357 -0.057  0.357
   - k =   0.357 -0.070  0.357
   - k =   0.357 -0.082  0.357
   - k =   0.357 -0.095  0.357
   - k =   0.357 -0.108  0.357
   - k =   0.357 -0.120  0.357
   - k =   0.357 -0.133  0.357
   - k =   0.357 -0.146  0.357
   - k =   0.357 -0.158  0.357
   - k =   0.357 -0.171  0.357
   - k =   0.357 -0.184  0.357
   - k =   0.357 -0.196  0.357
   - k =   0.357 -0.209  0.357
   - k =   0.357 -0.222  0.357
   - k =   0.357 -0.234  0.357
   - k =   0.357 -0.247  0.357
   - k =   0.357 -0.259  0.357
   - k =   0.357 -0.272  0.357
   - k =   0.357 -0.285  0.357
   - k =   0.357 -0.297  0.357
   - k =   0.357 -0.310  0.357
   - k =   0.357 -0.323  0.357
   - k =   0.357 -0.335  0.357
   - k =   0.357 -0.348  0.357
   - k =   0.357 -0.361  0.357
   - k =   0.357 -0.373  0.357
   - k =   0.357 -0.386  0.357
   - k =   0.357 -0.399  0.357
   - k =   0.357 -0.411  0.357
   - k =   0.357 -0.424  0.357
   - k =   0.357 -0.437  0.357
   - k =   0.357 -0.449  0.357
   - k =   0.357 -0.462  0.357
   - k =   0.357 -0.475  0.357
   - k =   0.357 -0.487  0.357
   - k =   0.357 -0.500  0.357

  |-> Computing Wannier center evolution at k-point number:     55
 Using pol_lapack_version = 2
 Calculating Berry  term along reciprocal lattice vector 2:     0.000     0.840     0.000
 Calculating dipole term along reciprocal lattice vector 2:     0.000     0.840     0.000

  Treating all   80 k-points in band plot segment #  56:
   Sampling over :
   - k =   0.357  0.500  0.500
   - k =   0.357  0.487  0.500
   - k =   0.357  0.475  0.500
   - k =   0.357  0.462  0.500
   - k =   0.357  0.449  0.500
   - k =   0.357  0.437  0.500
   - k =   0.357  0.424  0.500
   - k =   0.357  0.411  0.500
   - k =   0.357  0.399  0.500
   - k =   0.357  0.386  0.500
   - k =   0.357  0.373  0.500
   - k =   0.357  0.361  0.500
   - k =   0.357  0.348  0.500
   - k =   0.357  0.335  0.500
   - k =   0.357  0.323  0.500
   - k =   0.357  0.310  0.500
   - k =   0.357  0.297  0.500
   - k =   0.357  0.285  0.500
   - k =   0.357  0.272  0.500
   - k =   0.357  0.259  0.500
   - k =   0.357  0.247  0.500
   - k =   0.357  0.234  0.500
   - k =   0.357  0.222  0.500
   - k =   0.357  0.209  0.500
   - k =   0.357  0.196  0.500
   - k =   0.357  0.184  0.500
   - k =   0.357  0.171  0.500
   - k =   0.357  0.158  0.500
   - k =   0.357  0.146  0.500
   - k =   0.357  0.133  0.500
   - k =   0.357  0.120  0.500
   - k =   0.357  0.108  0.500
   - k =   0.357  0.095  0.500
   - k =   0.357  0.082  0.500
   - k =   0.357  0.070  0.500
   - k =   0.357  0.057  0.500
   - k =   0.357  0.044  0.500
   - k =   0.357  0.032  0.500
   - k =   0.357  0.019  0.500
   - k =   0.357  0.006  0.500
   - k =   0.357 -0.006  0.500
   - k =   0.357 -0.019  0.500
   - k =   0.357 -0.032  0.500
   - k =   0.357 -0.044  0.500
   - k =   0.357 -0.057  0.500
   - k =   0.357 -0.070  0.500
   - k =   0.357 -0.082  0.500
   - k =   0.357 -0.095  0.500
   - k =   0.357 -0.108  0.500
   - k =   0.357 -0.120  0.500
   - k =   0.357 -0.133  0.500
   - k =   0.357 -0.146  0.500
   - k =   0.357 -0.158  0.500
   - k =   0.357 -0.171  0.500
   - k =   0.357 -0.184  0.500
   - k =   0.357 -0.196  0.500
   - k =   0.357 -0.209  0.500
   - k =   0.357 -0.222  0.500
   - k =   0.357 -0.234  0.500
   - k =   0.357 -0.247  0.500
   - k =   0.357 -0.259  0.500
   - k =   0.357 -0.272  0.500
   - k =   0.357 -0.285  0.500
   - k =   0.357 -0.297  0.500
   - k =   0.357 -0.310  0.500
   - k =   0.357 -0.323  0.500
   - k =   0.357 -0.335  0.500
   - k =   0.357 -0.348  0.500
   - k =   0.357 -0.361  0.500
   - k =   0.357 -0.373  0.500
   - k =   0.357 -0.386  0.500
   - k =   0.357 -0.399  0.500
   - k =   0.357 -0.411  0.500
   - k =   0.357 -0.424  0.500
   - k =   0.357 -0.437  0.500
   - k =   0.357 -0.449  0.500
   - k =   0.357 -0.462  0.500
   - k =   0.357 -0.475  0.500
   - k =   0.357 -0.487  0.500
   - k =   0.357 -0.500  0.500

  |-> Computing Wannier center evolution at k-point number:     56
 Using pol_lapack_version = 2
 Calculating Berry  term along reciprocal lattice vector 2:     0.000     0.840     0.000
 Calculating dipole term along reciprocal lattice vector 2:     0.000     0.840     0.000

  Treating all   80 k-points in band plot segment #  57:
   Sampling over :
   - k =   0.500  0.500 -0.500
   - k =   0.500  0.487 -0.500
   - k =   0.500  0.475 -0.500
   - k =   0.500  0.462 -0.500
   - k =   0.500  0.449 -0.500
   - k =   0.500  0.437 -0.500
   - k =   0.500  0.424 -0.500
   - k =   0.500  0.411 -0.500
   - k =   0.500  0.399 -0.500
   - k =   0.500  0.386 -0.500
   - k =   0.500  0.373 -0.500
   - k =   0.500  0.361 -0.500
   - k =   0.500  0.348 -0.500
   - k =   0.500  0.335 -0.500
   - k =   0.500  0.323 -0.500
   - k =   0.500  0.310 -0.500
   - k =   0.500  0.297 -0.500
   - k =   0.500  0.285 -0.500
   - k =   0.500  0.272 -0.500
   - k =   0.500  0.259 -0.500
   - k =   0.500  0.247 -0.500
   - k =   0.500  0.234 -0.500
   - k =   0.500  0.222 -0.500
   - k =   0.500  0.209 -0.500
   - k =   0.500  0.196 -0.500
   - k =   0.500  0.184 -0.500
   - k =   0.500  0.171 -0.500
   - k =   0.500  0.158 -0.500
   - k =   0.500  0.146 -0.500
   - k =   0.500  0.133 -0.500
   - k =   0.500  0.120 -0.500
   - k =   0.500  0.108 -0.500
   - k =   0.500  0.095 -0.500
   - k =   0.500  0.082 -0.500
   - k =   0.500  0.070 -0.500
   - k =   0.500  0.057 -0.500
   - k =   0.500  0.044 -0.500
   - k =   0.500  0.032 -0.500
   - k =   0.500  0.019 -0.500
   - k =   0.500  0.006 -0.500
   - k =   0.500 -0.006 -0.500
   - k =   0.500 -0.019 -0.500
   - k =   0.500 -0.032 -0.500
   - k =   0.500 -0.044 -0.500
   - k =   0.500 -0.057 -0.500
   - k =   0.500 -0.070 -0.500
   - k =   0.500 -0.082 -0.500
   - k =   0.500 -0.095 -0.500
   - k =   0.500 -0.108 -0.500
   - k =   0.500 -0.120 -0.500
   - k =   0.500 -0.133 -0.500
   - k =   0.500 -0.146 -0.500
   - k =   0.500 -0.158 -0.500
   - k =   0.500 -0.171 -0.500
   - k =   0.500 -0.184 -0.500
   - k =   0.500 -0.196 -0.500
   - k =   0.500 -0.209 -0.500
   - k =   0.500 -0.222 -0.500
   - k =   0.500 -0.234 -0.500
   - k =   0.500 -0.247 -0.500
   - k =   0.500 -0.259 -0.500
   - k =   0.500 -0.272 -0.500
   - k =   0.500 -0.285 -0.500
   - k =   0.500 -0.297 -0.500
   - k =   0.500 -0.310 -0.500
   - k =   0.500 -0.323 -0.500
   - k =   0.500 -0.335 -0.500
   - k =   0.500 -0.348 -0.500
   - k =   0.500 -0.361 -0.500
   - k =   0.500 -0.373 -0.500
   - k =   0.500 -0.386 -0.500
   - k =   0.500 -0.399 -0.500
   - k =   0.500 -0.411 -0.500
   - k =   0.500 -0.424 -0.500
   - k =   0.500 -0.437 -0.500
   - k =   0.500 -0.449 -0.500
   - k =   0.500 -0.462 -0.500
   - k =   0.500 -0.475 -0.500
   - k =   0.500 -0.487 -0.500
   - k =   0.500 -0.500 -0.500

  |-> Computing Wannier center evolution at k-point number:     57
 Using pol_lapack_version = 2
 Calculating Berry  term along reciprocal lattice vector 2:     0.000     0.840     0.000
 Calculating dipole term along reciprocal lattice vector 2:     0.000     0.840     0.000

  Treating all   80 k-points in band plot segment #  58:
   Sampling over :
   - k =   0.500  0.500 -0.357
   - k =   0.500  0.487 -0.357
   - k =   0.500  0.475 -0.357
   - k =   0.500  0.462 -0.357
   - k =   0.500  0.449 -0.357
   - k =   0.500  0.437 -0.357
   - k =   0.500  0.424 -0.357
   - k =   0.500  0.411 -0.357
   - k =   0.500  0.399 -0.357
   - k =   0.500  0.386 -0.357
   - k =   0.500  0.373 -0.357
   - k =   0.500  0.361 -0.357
   - k =   0.500  0.348 -0.357
   - k =   0.500  0.335 -0.357
   - k =   0.500  0.323 -0.357
   - k =   0.500  0.310 -0.357
   - k =   0.500  0.297 -0.357
   - k =   0.500  0.285 -0.357
   - k =   0.500  0.272 -0.357
   - k =   0.500  0.259 -0.357
   - k =   0.500  0.247 -0.357
   - k =   0.500  0.234 -0.357
   - k =   0.500  0.222 -0.357
   - k =   0.500  0.209 -0.357
   - k =   0.500  0.196 -0.357
   - k =   0.500  0.184 -0.357
   - k =   0.500  0.171 -0.357
   - k =   0.500  0.158 -0.357
   - k =   0.500  0.146 -0.357
   - k =   0.500  0.133 -0.357
   - k =   0.500  0.120 -0.357
   - k =   0.500  0.108 -0.357
   - k =   0.500  0.095 -0.357
   - k =   0.500  0.082 -0.357
   - k =   0.500  0.070 -0.357
   - k =   0.500  0.057 -0.357
   - k =   0.500  0.044 -0.357
   - k =   0.500  0.032 -0.357
   - k =   0.500  0.019 -0.357
   - k =   0.500  0.006 -0.357
   - k =   0.500 -0.006 -0.357
   - k =   0.500 -0.019 -0.357
   - k =   0.500 -0.032 -0.357
   - k =   0.500 -0.044 -0.357
   - k =   0.500 -0.057 -0.357
   - k =   0.500 -0.070 -0.357
   - k =   0.500 -0.082 -0.357
   - k =   0.500 -0.095 -0.357
   - k =   0.500 -0.108 -0.357
   - k =   0.500 -0.120 -0.357
   - k =   0.500 -0.133 -0.357
   - k =   0.500 -0.146 -0.357
   - k =   0.500 -0.158 -0.357
   - k =   0.500 -0.171 -0.357
   - k =   0.500 -0.184 -0.357
   - k =   0.500 -0.196 -0.357
   - k =   0.500 -0.209 -0.357
   - k =   0.500 -0.222 -0.357
   - k =   0.500 -0.234 -0.357
   - k =   0.500 -0.247 -0.357
   - k =   0.500 -0.259 -0.357
   - k =   0.500 -0.272 -0.357
   - k =   0.500 -0.285 -0.357
   - k =   0.500 -0.297 -0.357
   - k =   0.500 -0.310 -0.357
   - k =   0.500 -0.323 -0.357
   - k =   0.500 -0.335 -0.357
   - k =   0.500 -0.348 -0.357
   - k =   0.500 -0.361 -0.357
   - k =   0.500 -0.373 -0.357
   - k =   0.500 -0.386 -0.357
   - k =   0.500 -0.399 -0.357
   - k =   0.500 -0.411 -0.357
   - k =   0.500 -0.424 -0.357
   - k =   0.500 -0.437 -0.357
   - k =   0.500 -0.449 -0.357
   - k =   0.500 -0.462 -0.357
   - k =   0.500 -0.475 -0.357
   - k =   0.500 -0.487 -0.357
   - k =   0.500 -0.500 -0.357

  |-> Computing Wannier center evolution at k-point number:     58
 Using pol_lapack_version = 2
 Calculating Berry  term along reciprocal lattice vector 2:     0.000     0.840     0.000
 Calculating dipole term along reciprocal lattice vector 2:     0.000     0.840     0.000

  Treating all   80 k-points in band plot segment #  59:
   Sampling over :
   - k =   0.500  0.500 -0.214
   - k =   0.500  0.487 -0.214
   - k =   0.500  0.475 -0.214
   - k =   0.500  0.462 -0.214
   - k =   0.500  0.449 -0.214
   - k =   0.500  0.437 -0.214
   - k =   0.500  0.424 -0.214
   - k =   0.500  0.411 -0.214
   - k =   0.500  0.399 -0.214
   - k =   0.500  0.386 -0.214
   - k =   0.500  0.373 -0.214
   - k =   0.500  0.361 -0.214
   - k =   0.500  0.348 -0.214
   - k =   0.500  0.335 -0.214
   - k =   0.500  0.323 -0.214
   - k =   0.500  0.310 -0.214
   - k =   0.500  0.297 -0.214
   - k =   0.500  0.285 -0.214
   - k =   0.500  0.272 -0.214
   - k =   0.500  0.259 -0.214
   - k =   0.500  0.247 -0.214
   - k =   0.500  0.234 -0.214
   - k =   0.500  0.222 -0.214
   - k =   0.500  0.209 -0.214
   - k =   0.500  0.196 -0.214
   - k =   0.500  0.184 -0.214
   - k =   0.500  0.171 -0.214
   - k =   0.500  0.158 -0.214
   - k =   0.500  0.146 -0.214
   - k =   0.500  0.133 -0.214
   - k =   0.500  0.120 -0.214
   - k =   0.500  0.108 -0.214
   - k =   0.500  0.095 -0.214
   - k =   0.500  0.082 -0.214
   - k =   0.500  0.070 -0.214
   - k =   0.500  0.057 -0.214
   - k =   0.500  0.044 -0.214
   - k =   0.500  0.032 -0.214
   - k =   0.500  0.019 -0.214
   - k =   0.500  0.006 -0.214
   - k =   0.500 -0.006 -0.214
   - k =   0.500 -0.019 -0.214
   - k =   0.500 -0.032 -0.214
   - k =   0.500 -0.044 -0.214
   - k =   0.500 -0.057 -0.214
   - k =   0.500 -0.070 -0.214
   - k =   0.500 -0.082 -0.214
   - k =   0.500 -0.095 -0.214
   - k =   0.500 -0.108 -0.214
   - k =   0.500 -0.120 -0.214
   - k =   0.500 -0.133 -0.214
   - k =   0.500 -0.146 -0.214
   - k =   0.500 -0.158 -0.214
   - k =   0.500 -0.171 -0.214
   - k =   0.500 -0.184 -0.214
   - k =   0.500 -0.196 -0.214
   - k =   0.500 -0.209 -0.214
   - k =   0.500 -0.222 -0.214
   - k =   0.500 -0.234 -0.214
   - k =   0.500 -0.247 -0.214
   - k =   0.500 -0.259 -0.214
   - k =   0.500 -0.272 -0.214
   - k =   0.500 -0.285 -0.214
   - k =   0.500 -0.297 -0.214
   - k =   0.500 -0.310 -0.214
   - k =   0.500 -0.323 -0.214
   - k =   0.500 -0.335 -0.214
   - k =   0.500 -0.348 -0.214
   - k =   0.500 -0.361 -0.214
   - k =   0.500 -0.373 -0.214
   - k =   0.500 -0.386 -0.214
   - k =   0.500 -0.399 -0.214
   - k =   0.500 -0.411 -0.214
   - k =   0.500 -0.424 -0.214
   - k =   0.500 -0.437 -0.214
   - k =   0.500 -0.449 -0.214
   - k =   0.500 -0.462 -0.214
   - k =   0.500 -0.475 -0.214
   - k =   0.500 -0.487 -0.214
   - k =   0.500 -0.500 -0.214

  |-> Computing Wannier center evolution at k-point number:     59
 Using pol_lapack_version = 2
 Calculating Berry  term along reciprocal lattice vector 2:     0.000     0.840     0.000
 Calculating dipole term along reciprocal lattice vector 2:     0.000     0.840     0.000

  Treating all   80 k-points in band plot segment #  60:
   Sampling over :
   - k =   0.500  0.500 -0.071
   - k =   0.500  0.487 -0.071
   - k =   0.500  0.475 -0.071
   - k =   0.500  0.462 -0.071
   - k =   0.500  0.449 -0.071
   - k =   0.500  0.437 -0.071
   - k =   0.500  0.424 -0.071
   - k =   0.500  0.411 -0.071
   - k =   0.500  0.399 -0.071
   - k =   0.500  0.386 -0.071
   - k =   0.500  0.373 -0.071
   - k =   0.500  0.361 -0.071
   - k =   0.500  0.348 -0.071
   - k =   0.500  0.335 -0.071
   - k =   0.500  0.323 -0.071
   - k =   0.500  0.310 -0.071
   - k =   0.500  0.297 -0.071
   - k =   0.500  0.285 -0.071
   - k =   0.500  0.272 -0.071
   - k =   0.500  0.259 -0.071
   - k =   0.500  0.247 -0.071
   - k =   0.500  0.234 -0.071
   - k =   0.500  0.222 -0.071
   - k =   0.500  0.209 -0.071
   - k =   0.500  0.196 -0.071
   - k =   0.500  0.184 -0.071
   - k =   0.500  0.171 -0.071
   - k =   0.500  0.158 -0.071
   - k =   0.500  0.146 -0.071
   - k =   0.500  0.133 -0.071
   - k =   0.500  0.120 -0.071
   - k =   0.500  0.108 -0.071
   - k =   0.500  0.095 -0.071
   - k =   0.500  0.082 -0.071
   - k =   0.500  0.070 -0.071
   - k =   0.500  0.057 -0.071
   - k =   0.500  0.044 -0.071
   - k =   0.500  0.032 -0.071
   - k =   0.500  0.019 -0.071
   - k =   0.500  0.006 -0.071
   - k =   0.500 -0.006 -0.071
   - k =   0.500 -0.019 -0.071
   - k =   0.500 -0.032 -0.071
   - k =   0.500 -0.044 -0.071
   - k =   0.500 -0.057 -0.071
   - k =   0.500 -0.070 -0.071
   - k =   0.500 -0.082 -0.071
   - k =   0.500 -0.095 -0.071
   - k =   0.500 -0.108 -0.071
   - k =   0.500 -0.120 -0.071
   - k =   0.500 -0.133 -0.071
   - k =   0.500 -0.146 -0.071
   - k =   0.500 -0.158 -0.071
   - k =   0.500 -0.171 -0.071
   - k =   0.500 -0.184 -0.071
   - k =   0.500 -0.196 -0.071
   - k =   0.500 -0.209 -0.071
   - k =   0.500 -0.222 -0.071
   - k =   0.500 -0.234 -0.071
   - k =   0.500 -0.247 -0.071
   - k =   0.500 -0.259 -0.071
   - k =   0.500 -0.272 -0.071
   - k =   0.500 -0.285 -0.071
   - k =   0.500 -0.297 -0.071
   - k =   0.500 -0.310 -0.071
   - k =   0.500 -0.323 -0.071
   - k =   0.500 -0.335 -0.071
   - k =   0.500 -0.348 -0.071
   - k =   0.500 -0.361 -0.071
   - k =   0.500 -0.373 -0.071
   - k =   0.500 -0.386 -0.071
   - k =   0.500 -0.399 -0.071
   - k =   0.500 -0.411 -0.071
   - k =   0.500 -0.424 -0.071
   - k =   0.500 -0.437 -0.071
   - k =   0.500 -0.449 -0.071
   - k =   0.500 -0.462 -0.071
   - k =   0.500 -0.475 -0.071
   - k =   0.500 -0.487 -0.071
   - k =   0.500 -0.500 -0.071

  |-> Computing Wannier center evolution at k-point number:     60
 Using pol_lapack_version = 2
 Calculating Berry  term along reciprocal lattice vector 2:     0.000     0.840     0.000
 Calculating dipole term along reciprocal lattice vector 2:     0.000     0.840     0.000

  Treating all   80 k-points in band plot segment #  61:
   Sampling over :
   - k =   0.500  0.500  0.071
   - k =   0.500  0.487  0.071
   - k =   0.500  0.475  0.071
   - k =   0.500  0.462  0.071
   - k =   0.500  0.449  0.071
   - k =   0.500  0.437  0.071
   - k =   0.500  0.424  0.071
   - k =   0.500  0.411  0.071
   - k =   0.500  0.399  0.071
   - k =   0.500  0.386  0.071
   - k =   0.500  0.373  0.071
   - k =   0.500  0.361  0.071
   - k =   0.500  0.348  0.071
   - k =   0.500  0.335  0.071
   - k =   0.500  0.323  0.071
   - k =   0.500  0.310  0.071
   - k =   0.500  0.297  0.071
   - k =   0.500  0.285  0.071
   - k =   0.500  0.272  0.071
   - k =   0.500  0.259  0.071
   - k =   0.500  0.247  0.071
   - k =   0.500  0.234  0.071
   - k =   0.500  0.222  0.071
   - k =   0.500  0.209  0.071
   - k =   0.500  0.196  0.071
   - k =   0.500  0.184  0.071
   - k =   0.500  0.171  0.071
   - k =   0.500  0.158  0.071
   - k =   0.500  0.146  0.071
   - k =   0.500  0.133  0.071
   - k =   0.500  0.120  0.071
   - k =   0.500  0.108  0.071
   - k =   0.500  0.095  0.071
   - k =   0.500  0.082  0.071
   - k =   0.500  0.070  0.071
   - k =   0.500  0.057  0.071
   - k =   0.500  0.044  0.071
   - k =   0.500  0.032  0.071
   - k =   0.500  0.019  0.071
   - k =   0.500  0.006  0.071
   - k =   0.500 -0.006  0.071
   - k =   0.500 -0.019  0.071
   - k =   0.500 -0.032  0.071
   - k =   0.500 -0.044  0.071
   - k =   0.500 -0.057  0.071
   - k =   0.500 -0.070  0.071
   - k =   0.500 -0.082  0.071
   - k =   0.500 -0.095  0.071
   - k =   0.500 -0.108  0.071
   - k =   0.500 -0.120  0.071
   - k =   0.500 -0.133  0.071
   - k =   0.500 -0.146  0.071
   - k =   0.500 -0.158  0.071
   - k =   0.500 -0.171  0.071
   - k =   0.500 -0.184  0.071
   - k =   0.500 -0.196  0.071
   - k =   0.500 -0.209  0.071
   - k =   0.500 -0.222  0.071
   - k =   0.500 -0.234  0.071
   - k =   0.500 -0.247  0.071
   - k =   0.500 -0.259  0.071
   - k =   0.500 -0.272  0.071
   - k =   0.500 -0.285  0.071
   - k =   0.500 -0.297  0.071
   - k =   0.500 -0.310  0.071
   - k =   0.500 -0.323  0.071
   - k =   0.500 -0.335  0.071
   - k =   0.500 -0.348  0.071
   - k =   0.500 -0.361  0.071
   - k =   0.500 -0.373  0.071
   - k =   0.500 -0.386  0.071
   - k =   0.500 -0.399  0.071
   - k =   0.500 -0.411  0.071
   - k =   0.500 -0.424  0.071
   - k =   0.500 -0.437  0.071
   - k =   0.500 -0.449  0.071
   - k =   0.500 -0.462  0.071
   - k =   0.500 -0.475  0.071
   - k =   0.500 -0.487  0.071
   - k =   0.500 -0.500  0.071

  |-> Computing Wannier center evolution at k-point number:     61
 Using pol_lapack_version = 2
 Calculating Berry  term along reciprocal lattice vector 2:     0.000     0.840     0.000
 Calculating dipole term along reciprocal lattice vector 2:     0.000     0.840     0.000

  Treating all   80 k-points in band plot segment #  62:
   Sampling over :
   - k =   0.500  0.500  0.214
   - k =   0.500  0.487  0.214
   - k =   0.500  0.475  0.214
   - k =   0.500  0.462  0.214
   - k =   0.500  0.449  0.214
   - k =   0.500  0.437  0.214
   - k =   0.500  0.424  0.214
   - k =   0.500  0.411  0.214
   - k =   0.500  0.399  0.214
   - k =   0.500  0.386  0.214
   - k =   0.500  0.373  0.214
   - k =   0.500  0.361  0.214
   - k =   0.500  0.348  0.214
   - k =   0.500  0.335  0.214
   - k =   0.500  0.323  0.214
   - k =   0.500  0.310  0.214
   - k =   0.500  0.297  0.214
   - k =   0.500  0.285  0.214
   - k =   0.500  0.272  0.214
   - k =   0.500  0.259  0.214
   - k =   0.500  0.247  0.214
   - k =   0.500  0.234  0.214
   - k =   0.500  0.222  0.214
   - k =   0.500  0.209  0.214
   - k =   0.500  0.196  0.214
   - k =   0.500  0.184  0.214
   - k =   0.500  0.171  0.214
   - k =   0.500  0.158  0.214
   - k =   0.500  0.146  0.214
   - k =   0.500  0.133  0.214
   - k =   0.500  0.120  0.214
   - k =   0.500  0.108  0.214
   - k =   0.500  0.095  0.214
   - k =   0.500  0.082  0.214
   - k =   0.500  0.070  0.214
   - k =   0.500  0.057  0.214
   - k =   0.500  0.044  0.214
   - k =   0.500  0.032  0.214
   - k =   0.500  0.019  0.214
   - k =   0.500  0.006  0.214
   - k =   0.500 -0.006  0.214
   - k =   0.500 -0.019  0.214
   - k =   0.500 -0.032  0.214
   - k =   0.500 -0.044  0.214
   - k =   0.500 -0.057  0.214
   - k =   0.500 -0.070  0.214
   - k =   0.500 -0.082  0.214
   - k =   0.500 -0.095  0.214
   - k =   0.500 -0.108  0.214
   - k =   0.500 -0.120  0.214
   - k =   0.500 -0.133  0.214
   - k =   0.500 -0.146  0.214
   - k =   0.500 -0.158  0.214
   - k =   0.500 -0.171  0.214
   - k =   0.500 -0.184  0.214
   - k =   0.500 -0.196  0.214
   - k =   0.500 -0.209  0.214
   - k =   0.500 -0.222  0.214
   - k =   0.500 -0.234  0.214
   - k =   0.500 -0.247  0.214
   - k =   0.500 -0.259  0.214
   - k =   0.500 -0.272  0.214
   - k =   0.500 -0.285  0.214
   - k =   0.500 -0.297  0.214
   - k =   0.500 -0.310  0.214
   - k =   0.500 -0.323  0.214
   - k =   0.500 -0.335  0.214
   - k =   0.500 -0.348  0.214
   - k =   0.500 -0.361  0.214
   - k =   0.500 -0.373  0.214
   - k =   0.500 -0.386  0.214
   - k =   0.500 -0.399  0.214
   - k =   0.500 -0.411  0.214
   - k =   0.500 -0.424  0.214
   - k =   0.500 -0.437  0.214
   - k =   0.500 -0.449  0.214
   - k =   0.500 -0.462  0.214
   - k =   0.500 -0.475  0.214
   - k =   0.500 -0.487  0.214
   - k =   0.500 -0.500  0.214

  |-> Computing Wannier center evolution at k-point number:     62
 Using pol_lapack_version = 2
 Calculating Berry  term along reciprocal lattice vector 2:     0.000     0.840     0.000
 Calculating dipole term along reciprocal lattice vector 2:     0.000     0.840     0.000

  Treating all   80 k-points in band plot segment #  63:
   Sampling over :
   - k =   0.500  0.500  0.357
   - k =   0.500  0.487  0.357
   - k =   0.500  0.475  0.357
   - k =   0.500  0.462  0.357
   - k =   0.500  0.449  0.357
   - k =   0.500  0.437  0.357
   - k =   0.500  0.424  0.357
   - k =   0.500  0.411  0.357
   - k =   0.500  0.399  0.357
   - k =   0.500  0.386  0.357
   - k =   0.500  0.373  0.357
   - k =   0.500  0.361  0.357
   - k =   0.500  0.348  0.357
   - k =   0.500  0.335  0.357
   - k =   0.500  0.323  0.357
   - k =   0.500  0.310  0.357
   - k =   0.500  0.297  0.357
   - k =   0.500  0.285  0.357
   - k =   0.500  0.272  0.357
   - k =   0.500  0.259  0.357
   - k =   0.500  0.247  0.357
   - k =   0.500  0.234  0.357
   - k =   0.500  0.222  0.357
   - k =   0.500  0.209  0.357
   - k =   0.500  0.196  0.357
   - k =   0.500  0.184  0.357
   - k =   0.500  0.171  0.357
   - k =   0.500  0.158  0.357
   - k =   0.500  0.146  0.357
   - k =   0.500  0.133  0.357
   - k =   0.500  0.120  0.357
   - k =   0.500  0.108  0.357
   - k =   0.500  0.095  0.357
   - k =   0.500  0.082  0.357
   - k =   0.500  0.070  0.357
   - k =   0.500  0.057  0.357
   - k =   0.500  0.044  0.357
   - k =   0.500  0.032  0.357
   - k =   0.500  0.019  0.357
   - k =   0.500  0.006  0.357
   - k =   0.500 -0.006  0.357
   - k =   0.500 -0.019  0.357
   - k =   0.500 -0.032  0.357
   - k =   0.500 -0.044  0.357
   - k =   0.500 -0.057  0.357
   - k =   0.500 -0.070  0.357
   - k =   0.500 -0.082  0.357
   - k =   0.500 -0.095  0.357
   - k =   0.500 -0.108  0.357
   - k =   0.500 -0.120  0.357
   - k =   0.500 -0.133  0.357
   - k =   0.500 -0.146  0.357
   - k =   0.500 -0.158  0.357
   - k =   0.500 -0.171  0.357
   - k =   0.500 -0.184  0.357
   - k =   0.500 -0.196  0.357
   - k =   0.500 -0.209  0.357
   - k =   0.500 -0.222  0.357
   - k =   0.500 -0.234  0.357
   - k =   0.500 -0.247  0.357
   - k =   0.500 -0.259  0.357
   - k =   0.500 -0.272  0.357
   - k =   0.500 -0.285  0.357
   - k =   0.500 -0.297  0.357
   - k =   0.500 -0.310  0.357
   - k =   0.500 -0.323  0.357
   - k =   0.500 -0.335  0.357
   - k =   0.500 -0.348  0.357
   - k =   0.500 -0.361  0.357
   - k =   0.500 -0.373  0.357
   - k =   0.500 -0.386  0.357
   - k =   0.500 -0.399  0.357
   - k =   0.500 -0.411  0.357
   - k =   0.500 -0.424  0.357
   - k =   0.500 -0.437  0.357
   - k =   0.500 -0.449  0.357
   - k =   0.500 -0.462  0.357
   - k =   0.500 -0.475  0.357
   - k =   0.500 -0.487  0.357
   - k =   0.500 -0.500  0.357

  |-> Computing Wannier center evolution at k-point number:     63
 Using pol_lapack_version = 2
 Calculating Berry  term along reciprocal lattice vector 2:     0.000     0.840     0.000
 Calculating dipole term along reciprocal lattice vector 2:     0.000     0.840     0.000

  Treating all   80 k-points in band plot segment #  64:
   Sampling over :
   - k =   0.500  0.500  0.500
   - k =   0.500  0.487  0.500
   - k =   0.500  0.475  0.500
   - k =   0.500  0.462  0.500
   - k =   0.500  0.449  0.500
   - k =   0.500  0.437  0.500
   - k =   0.500  0.424  0.500
   - k =   0.500  0.411  0.500
   - k =   0.500  0.399  0.500
   - k =   0.500  0.386  0.500
   - k =   0.500  0.373  0.500
   - k =   0.500  0.361  0.500
   - k =   0.500  0.348  0.500
   - k =   0.500  0.335  0.500
   - k =   0.500  0.323  0.500
   - k =   0.500  0.310  0.500
   - k =   0.500  0.297  0.500
   - k =   0.500  0.285  0.500
   - k =   0.500  0.272  0.500
   - k =   0.500  0.259  0.500
   - k =   0.500  0.247  0.500
   - k =   0.500  0.234  0.500
   - k =   0.500  0.222  0.500
   - k =   0.500  0.209  0.500
   - k =   0.500  0.196  0.500
   - k =   0.500  0.184  0.500
   - k =   0.500  0.171  0.500
   - k =   0.500  0.158  0.500
   - k =   0.500  0.146  0.500
   - k =   0.500  0.133  0.500
   - k =   0.500  0.120  0.500
   - k =   0.500  0.108  0.500
   - k =   0.500  0.095  0.500
   - k =   0.500  0.082  0.500
   - k =   0.500  0.070  0.500
   - k =   0.500  0.057  0.500
   - k =   0.500  0.044  0.500
   - k =   0.500  0.032  0.500
   - k =   0.500  0.019  0.500
   - k =   0.500  0.006  0.500
   - k =   0.500 -0.006  0.500
   - k =   0.500 -0.019  0.500
   - k =   0.500 -0.032  0.500
   - k =   0.500 -0.044  0.500
   - k =   0.500 -0.057  0.500
   - k =   0.500 -0.070  0.500
   - k =   0.500 -0.082  0.500
   - k =   0.500 -0.095  0.500
   - k =   0.500 -0.108  0.500
   - k =   0.500 -0.120  0.500
   - k =   0.500 -0.133  0.500
   - k =   0.500 -0.146  0.500
   - k =   0.500 -0.158  0.500
   - k =   0.500 -0.171  0.500
   - k =   0.500 -0.184  0.500
   - k =   0.500 -0.196  0.500
   - k =   0.500 -0.209  0.500
   - k =   0.500 -0.222  0.500
   - k =   0.500 -0.234  0.500
   - k =   0.500 -0.247  0.500
   - k =   0.500 -0.259  0.500
   - k =   0.500 -0.272  0.500
   - k =   0.500 -0.285  0.500
   - k =   0.500 -0.297  0.500
   - k =   0.500 -0.310  0.500
   - k =   0.500 -0.323  0.500
   - k =   0.500 -0.335  0.500
   - k =   0.500 -0.348  0.500
   - k =   0.500 -0.361  0.500
   - k =   0.500 -0.373  0.500
   - k =   0.500 -0.386  0.500
   - k =   0.500 -0.399  0.500
   - k =   0.500 -0.411  0.500
   - k =   0.500 -0.424  0.500
   - k =   0.500 -0.437  0.500
   - k =   0.500 -0.449  0.500
   - k =   0.500 -0.462  0.500
   - k =   0.500 -0.475  0.500
   - k =   0.500 -0.487  0.500
   - k =   0.500 -0.500  0.500

  |-> Computing Wannier center evolution at k-point number:     64
 Using pol_lapack_version = 2
 Calculating Berry  term along reciprocal lattice vector 2:     0.000     0.840     0.000
 Calculating dipole term along reciprocal lattice vector 2:     0.000     0.840     0.000
  *-> Finished with polarization directive nr.   2
  | Evaluation of the polarization for directive nr.     2
   - Ionic      polarization along rec. latt. vec.    2 is:       -7.266897E-15 C/m^2
   - Berry term: Preliminary Electronic polarization along rec. latt. vec.    2 is:     -319.601517E-03 C/m^2 before branch-mapping
   --> Detailed listing before/after branch mapping in terms of the polarization quantum P0=       -1.022725E+00 C/m^2
     | k-string    1 :       113.686838E-15 /       113.686838E-15 P0
     | k-string    2 :         1.000000E+00 /      -227.423923E-15 P0
     | k-string    3 :       227.373675E-15 /       227.373675E-15 P0
     | k-string    4 :       227.373675E-15 /       227.373675E-15 P0
     | k-string    5 :         1.000000E+00 /      -113.737085E-15 P0
     | k-string    6 :       113.686838E-15 /       113.686838E-15 P0
     | k-string    7 :         1.000000E+00 /      -227.423923E-15 P0
     | k-string    8 :         1.000000E+00 /      -113.787333E-15 P0
     | k-string    9 :         1.000000E+00 /      -113.837580E-15 P0
     | k-string   10 :       227.373675E-15 /       227.373675E-15 P0
     | k-string   11 :         1.000000E+00 /      -341.110761E-15 P0
     | k-string   12 :       227.373675E-15 /       227.373675E-15 P0
     | k-string   13 :       909.494702E-15 /       909.494702E-15 P0
     | k-string   14 :       568.434189E-15 /       568.434189E-15 P0
     | k-string   15 :       227.373675E-15 /       227.373675E-15 P0
     | k-string   16 :         0.000000E+00 /         0.000000E+00 P0
     | k-string   17 :         0.000000E+00 /         0.000000E+00 P0
     | k-string   18 :         1.000000E+00 /      -113.737085E-15 P0
     | k-string   19 :         1.000000E+00 /      -227.474171E-15 P0
     | k-string   20 :       341.060513E-15 /       341.060513E-15 P0
     | k-string   21 :         1.000000E+00 /      -341.110761E-15 P0
     | k-string   22 :       227.373675E-15 /       227.373675E-15 P0
     | k-string   23 :       568.434189E-15 /       568.434189E-15 P0
     | k-string   24 :         1.000000E+00 /      -227.423923E-15 P0
     | k-string   25 :         1.000000E+00 /      -113.787333E-15 P0
     | k-string   26 :       113.686838E-15 /       113.686838E-15 P0
     | k-string   27 :       113.686838E-15 /       113.686838E-15 P0
     | k-string   28 :       568.434189E-15 /       568.434189E-15 P0
     | k-string   29 :       227.373675E-15 /       227.373675E-15 P0
     | k-string   30 :       341.060513E-15 /       341.060513E-15 P0
     | k-string   31 :       454.747351E-15 /       454.747351E-15 P0
     | k-string   32 :         1.000000E+00 /      -113.737085E-15 P0
     | k-string   33 :         0.000000E+00 /         0.000000E+00 P0
     | k-string   34 :       113.686838E-15 /       113.686838E-15 P0
     | k-string   35 :       341.060513E-15 /       341.060513E-15 P0
     | k-string   36 :       341.060513E-15 /       341.060513E-15 P0
     | k-string   37 :       682.121026E-15 /       682.121026E-15 P0
     | k-string   38 :       341.060513E-15 /       341.060513E-15 P0
     | k-string   39 :         0.000000E+00 /         0.000000E+00 P0
     | k-string   40 :         1.000000E+00 /      -341.110761E-15 P0
     | k-string   41 :         1.000000E+00 /      -227.474171E-15 P0
     | k-string   42 :       568.434189E-15 /       568.434189E-15 P0
     | k-string   43 :       341.060513E-15 /       341.060513E-15 P0
     | k-string   44 :       341.060513E-15 /       341.060513E-15 P0
     | k-string   45 :         0.000000E+00 /         0.000000E+00 P0
     | k-string   46 :         1.000000E+00 /      -113.737085E-15 P0
     | k-string   47 :         1.000000E+00 /      -341.161008E-15 P0
     | k-string   48 :         1.000000E+00 /      -113.837580E-15 P0
     | k-string   49 :         0.000000E+00 /         0.000000E+00 P0
     | k-string   50 :       113.686838E-15 /       113.686838E-15 P0
     | k-string   51 :       341.060513E-15 /       341.060513E-15 P0
     | k-string   52 :       454.747351E-15 /       454.747351E-15 P0
     | k-string   53 :       341.060513E-15 /       341.060513E-15 P0
     | k-string   54 :         1.000000E+00 /      -113.737085E-15 P0
     | k-string   55 :       227.373675E-15 /       227.373675E-15 P0
     | k-string   56 :         1.000000E+00 /      -113.737085E-15 P0
     | k-string   57 :         0.000000E+00 /         0.000000E+00 P0
     | k-string   58 :       113.686838E-15 /       113.686838E-15 P0
     | k-string   59 :       227.373675E-15 /       227.373675E-15 P0
     | k-string   60 :       341.060513E-15 /       341.060513E-15 P0
     | k-string   61 :       113.686838E-15 /       113.686838E-15 P0
     | k-string   62 :         0.000000E+00 /         0.000000E+00 P0
     | k-string   63 :         1.000000E+00 /      -227.423923E-15 P0
     | k-string   64 :         0.000000E+00 /         0.000000E+00 P0
   - Berry term: Electronic polarization along rec. latt. vec.    2 is:     -160.098828E-15 C/m^2 after branch-mapping

   - Dipole term: Preliminary Electronic polarization along rec. latt. vec.    2 is:     -687.143261E-03 C/m^2 before branch-mapping
   --> Detailed listing before/after branch mapping in terms of the polarization quantum P0=       -1.022725E+00 C/m^2
     | k-string    1 :        21.937865E-15 /        21.937865E-15 P0
     | k-string    2 :         1.000000E+00 /       -46.169054E-15 P0
     | k-string    3 :         1.000000E+00 /      -159.017961E-15 P0
     | k-string    4 :         1.000000E+00 /      -336.259804E-15 P0
     | k-string    5 :         1.000000E+00 /      -286.572060E-15 P0
     | k-string    6 :         1.000000E+00 /      -117.424318E-15 P0
     | k-string    7 :         1.000000E+00 /       -38.648731E-15 P0
     | k-string    8 :         2.274252E-15 /         2.274252E-15 P0
     | k-string    9 :         1.000000E+00 /        -8.212092E-15 P0
     | k-string   10 :        33.999966E-15 /        33.999966E-15 P0
     | k-string   11 :       162.750436E-15 /       162.750436E-15 P0
     | k-string   12 :         1.000000E+00 /      -209.779636E-15 P0
     | k-string   13 :         1.000000E+00 /      -517.583706E-15 P0
     | k-string   14 :         1.000000E+00 /      -486.103620E-15 P0
     | k-string   15 :         1.000000E+00 /      -184.617294E-15 P0
     | k-string   16 :         1.000000E+00 /        -7.253902E-15 P0
     | k-string   17 :        32.801802E-15 /        32.801802E-15 P0
     | k-string   18 :       153.910889E-15 /       153.910889E-15 P0
     | k-string   19 :       381.064676E-15 /       381.064676E-15 P0
     | k-string   20 :         1.000000E+00 /      -132.907810E-15 P0
     | k-string   21 :        12.172548E-15 /        12.172548E-15 P0
     | k-string   22 :         1.000000E+00 /      -651.902090E-15 P0
     | k-string   23 :         1.000000E+00 /      -514.728772E-15 P0
     | k-string   24 :        48.345741E-15 /        48.345741E-15 P0
     | k-string   25 :        27.627412E-15 /        27.627412E-15 P0
     | k-string   26 :         1.000000E+00 /      -120.748632E-15 P0
     | k-string   27 :         1.000000E+00 /      -209.394677E-15 P0
     | k-string   28 :         1.000000E+00 /      -409.396091E-15 P0
     | k-string   29 :         1.000000E+00 /      -607.621149E-15 P0
     | k-string   30 :         1.000000E+00 /      -500.201807E-15 P0
     | k-string   31 :         1.000000E+00 /      -411.878302E-15 P0
     | k-string   32 :        57.667750E-15 /        57.667750E-15 P0
     | k-string   33 :        46.310233E-15 /        46.310233E-15 P0
     | k-string   34 :         1.000000E+00 /      -466.774074E-15 P0
     | k-string   35 :         1.000000E+00 /      -379.338747E-15 P0
     | k-string   36 :         1.000000E+00 /      -415.804310E-15 P0
     | k-string   37 :         1.000000E+00 /      -507.558980E-15 P0
     | k-string   38 :         1.000000E+00 /      -235.382542E-15 P0
     | k-string   39 :         1.000000E+00 /      -275.733885E-15 P0
     | k-string   40 :        51.705116E-15 /        51.705116E-15 P0
     | k-string   41 :        63.925755E-15 /        63.925755E-15 P0
     | k-string   42 :         1.000000E+00 /      -480.466842E-15 P0
     | k-string   43 :         1.000000E+00 /      -558.454746E-15 P0
     | k-string   44 :         1.000000E+00 /      -187.246414E-15 P0
     | k-string   45 :         1.000000E+00 /      -128.454841E-15 P0
     | k-string   46 :       359.121723E-15 /       359.121723E-15 P0
     | k-string   47 :       118.170795E-15 /       118.170795E-15 P0
     | k-string   48 :        50.268033E-15 /        50.268033E-15 P0
     | k-string   49 :         1.000000E+00 /       -22.168756E-15 P0
     | k-string   50 :         1.000000E+00 /      -179.204539E-15 P0
     | k-string   51 :         1.000000E+00 /      -446.596491E-15 P0
     | k-string   52 :         1.000000E+00 /      -515.480566E-15 P0
     | k-string   53 :         1.000000E+00 /      -211.995839E-15 P0
     | k-string   54 :       221.236332E-15 /       221.236332E-15 P0
     | k-string   55 :        65.337592E-15 /        65.337592E-15 P0
     | k-string   56 :         1.000000E+00 /      -659.902759E-18 P0
     | k-string   57 :        16.884232E-15 /        16.884232E-15 P0
     | k-string   58 :         1.000000E+00 /       -38.566145E-15 P0
     | k-string   59 :         1.000000E+00 /      -154.301632E-15 P0
     | k-string   60 :         1.000000E+00 /      -332.320630E-15 P0
     | k-string   61 :         1.000000E+00 /      -353.909204E-15 P0
     | k-string   62 :         1.000000E+00 /      -115.039457E-15 P0
     | k-string   63 :         1.000000E+00 /       -54.471527E-15 P0
     | k-string   64 :        11.195906E-15 /        11.195906E-15 P0
   - Dipole term: Electronic polarization along rec. latt. vec.    2 is:      193.481137E-15 C/m^2 after branch-mapping



  Wannier center evolution                                :  max(cpu_time) wall_clock(cpu1)
  | Total Time                                            :          5.024            5.091
------------------------------------------------------------
   |-> Using LAPACK for polarization directive   3 of   3 directives

  -------------------------------------------------------------------
  Computing Wannier centers of charge         (LAPACK version):
  -------------------------------------------------------------------


  Integrating Hamiltonian matrix: batch-based integration.
  Time summed over all CPUs for integration: real work       84.997 s, elapsed       90.059 s

  Number of k-points for which the Wannier centers of charge are calculated for:    64
  Number of k-points used at each of this k-points to obtain the Wannier center of charge:    80
  Wannier center evolution is sampled along the reciprocal lattice vector  3 in    64 steps.
  - The Wannier center evoulution is computed along the following     64 strings in k_space:
    Band     1 from k_start = -0.500 -0.500  0.500 to k_end = -0.500 -0.500 -0.500
    Band     2 from k_start = -0.500 -0.357  0.500 to k_end = -0.500 -0.357 -0.500
    Band     3 from k_start = -0.500 -0.214  0.500 to k_end = -0.500 -0.214 -0.500
    Band     4 from k_start = -0.500 -0.071  0.500 to k_end = -0.500 -0.071 -0.500
    Band     5 from k_start = -0.500  0.071  0.500 to k_end = -0.500  0.071 -0.500
    Band     6 from k_start = -0.500  0.214  0.500 to k_end = -0.500  0.214 -0.500
    Band     7 from k_start = -0.500  0.357  0.500 to k_end = -0.500  0.357 -0.500
    Band     8 from k_start = -0.500  0.500  0.500 to k_end = -0.500  0.500 -0.500
    Band     9 from k_start = -0.357 -0.500  0.500 to k_end = -0.357 -0.500 -0.500
    Band    10 from k_start = -0.357 -0.357  0.500 to k_end = -0.357 -0.357 -0.500
    Band    11 from k_start = -0.357 -0.214  0.500 to k_end = -0.357 -0.214 -0.500
    Band    12 from k_start = -0.357 -0.071  0.500 to k_end = -0.357 -0.071 -0.500
    Band    13 from k_start = -0.357  0.071  0.500 to k_end = -0.357  0.071 -0.500
    Band    14 from k_start = -0.357  0.214  0.500 to k_end = -0.357  0.214 -0.500
    Band    15 from k_start = -0.357  0.357  0.500 to k_end = -0.357  0.357 -0.500
    Band    16 from k_start = -0.357  0.500  0.500 to k_end = -0.357  0.500 -0.500
    Band    17 from k_start = -0.214 -0.500  0.500 to k_end = -0.214 -0.500 -0.500
    Band    18 from k_start = -0.214 -0.357  0.500 to k_end = -0.214 -0.357 -0.500
    Band    19 from k_start = -0.214 -0.214  0.500 to k_end = -0.214 -0.214 -0.500
    Band    20 from k_start = -0.214 -0.071  0.500 to k_end = -0.214 -0.071 -0.500
    Band    21 from k_start = -0.214  0.071  0.500 to k_end = -0.214  0.071 -0.500
    Band    22 from k_start = -0.214  0.214  0.500 to k_end = -0.214  0.214 -0.500
    Band    23 from k_start = -0.214  0.357  0.500 to k_end = -0.214  0.357 -0.500
    Band    24 from k_start = -0.214  0.500  0.500 to k_end = -0.214  0.500 -0.500
    Band    25 from k_start = -0.071 -0.500  0.500 to k_end = -0.071 -0.500 -0.500
    Band    26 from k_start = -0.071 -0.357  0.500 to k_end = -0.071 -0.357 -0.500
    Band    27 from k_start = -0.071 -0.214  0.500 to k_end = -0.071 -0.214 -0.500
    Band    28 from k_start = -0.071 -0.071  0.500 to k_end = -0.071 -0.071 -0.500
    Band    29 from k_start = -0.071  0.071  0.500 to k_end = -0.071  0.071 -0.500
    Band    30 from k_start = -0.071  0.214  0.500 to k_end = -0.071  0.214 -0.500
    Band    31 from k_start = -0.071  0.357  0.500 to k_end = -0.071  0.357 -0.500
    Band    32 from k_start = -0.071  0.500  0.500 to k_end = -0.071  0.500 -0.500
    Band    33 from k_start =  0.071 -0.500  0.500 to k_end =  0.071 -0.500 -0.500
    Band    34 from k_start =  0.071 -0.357  0.500 to k_end =  0.071 -0.357 -0.500
    Band    35 from k_start =  0.071 -0.214  0.500 to k_end =  0.071 -0.214 -0.500
    Band    36 from k_start =  0.071 -0.071  0.500 to k_end =  0.071 -0.071 -0.500
    Band    37 from k_start =  0.071  0.071  0.500 to k_end =  0.071  0.071 -0.500
    Band    38 from k_start =  0.071  0.214  0.500 to k_end =  0.071  0.214 -0.500
    Band    39 from k_start =  0.071  0.357  0.500 to k_end =  0.071  0.357 -0.500
    Band    40 from k_start =  0.071  0.500  0.500 to k_end =  0.071  0.500 -0.500
    Band    41 from k_start =  0.214 -0.500  0.500 to k_end =  0.214 -0.500 -0.500
    Band    42 from k_start =  0.214 -0.357  0.500 to k_end =  0.214 -0.357 -0.500
    Band    43 from k_start =  0.214 -0.214  0.500 to k_end =  0.214 -0.214 -0.500
    Band    44 from k_start =  0.214 -0.071  0.500 to k_end =  0.214 -0.071 -0.500
    Band    45 from k_start =  0.214  0.071  0.500 to k_end =  0.214  0.071 -0.500
    Band    46 from k_start =  0.214  0.214  0.500 to k_end =  0.214  0.214 -0.500
    Band    47 from k_start =  0.214  0.357  0.500 to k_end =  0.214  0.357 -0.500
    Band    48 from k_start =  0.214  0.500  0.500 to k_end =  0.214  0.500 -0.500
    Band    49 from k_start =  0.357 -0.500  0.500 to k_end =  0.357 -0.500 -0.500
    Band    50 from k_start =  0.357 -0.357  0.500 to k_end =  0.357 -0.357 -0.500
    Band    51 from k_start =  0.357 -0.214  0.500 to k_end =  0.357 -0.214 -0.500
    Band    52 from k_start =  0.357 -0.071  0.500 to k_end =  0.357 -0.071 -0.500
    Band    53 from k_start =  0.357  0.071  0.500 to k_end =  0.357  0.071 -0.500
    Band    54 from k_start =  0.357  0.214  0.500 to k_end =  0.357  0.214 -0.500
    Band    55 from k_start =  0.357  0.357  0.500 to k_end =  0.357  0.357 -0.500
    Band    56 from k_start =  0.357  0.500  0.500 to k_end =  0.357  0.500 -0.500
    Band    57 from k_start =  0.500 -0.500  0.500 to k_end =  0.500 -0.500 -0.500
    Band    58 from k_start =  0.500 -0.357  0.500 to k_end =  0.500 -0.357 -0.500
    Band    59 from k_start =  0.500 -0.214  0.500 to k_end =  0.500 -0.214 -0.500
    Band    60 from k_start =  0.500 -0.071  0.500 to k_end =  0.500 -0.071 -0.500
    Band    61 from k_start =  0.500  0.071  0.500 to k_end =  0.500  0.071 -0.500
    Band    62 from k_start =  0.500  0.214  0.500 to k_end =  0.500  0.214 -0.500
    Band    63 from k_start =  0.500  0.357  0.500 to k_end =  0.500  0.357 -0.500
    Band    64 from k_start =  0.500  0.500  0.500 to k_end =  0.500  0.500 -0.500


  Treating all   80 k-points in band plot segment #   1:
   Sampling over :
   - k =  -0.500 -0.500  0.500
   - k =  -0.500 -0.500  0.487
   - k =  -0.500 -0.500  0.475
   - k =  -0.500 -0.500  0.462
   - k =  -0.500 -0.500  0.449
   - k =  -0.500 -0.500  0.437
   - k =  -0.500 -0.500  0.424
   - k =  -0.500 -0.500  0.411
   - k =  -0.500 -0.500  0.399
   - k =  -0.500 -0.500  0.386
   - k =  -0.500 -0.500  0.373
   - k =  -0.500 -0.500  0.361
   - k =  -0.500 -0.500  0.348
   - k =  -0.500 -0.500  0.335
   - k =  -0.500 -0.500  0.323
   - k =  -0.500 -0.500  0.310
   - k =  -0.500 -0.500  0.297
   - k =  -0.500 -0.500  0.285
   - k =  -0.500 -0.500  0.272
   - k =  -0.500 -0.500  0.259
   - k =  -0.500 -0.500  0.247
   - k =  -0.500 -0.500  0.234
   - k =  -0.500 -0.500  0.222
   - k =  -0.500 -0.500  0.209
   - k =  -0.500 -0.500  0.196
   - k =  -0.500 -0.500  0.184
   - k =  -0.500 -0.500  0.171
   - k =  -0.500 -0.500  0.158
   - k =  -0.500 -0.500  0.146
   - k =  -0.500 -0.500  0.133
   - k =  -0.500 -0.500  0.120
   - k =  -0.500 -0.500  0.108
   - k =  -0.500 -0.500  0.095
   - k =  -0.500 -0.500  0.082
   - k =  -0.500 -0.500  0.070
   - k =  -0.500 -0.500  0.057
   - k =  -0.500 -0.500  0.044
   - k =  -0.500 -0.500  0.032
   - k =  -0.500 -0.500  0.019
   - k =  -0.500 -0.500  0.006
   - k =  -0.500 -0.500 -0.006
   - k =  -0.500 -0.500 -0.019
   - k =  -0.500 -0.500 -0.032
   - k =  -0.500 -0.500 -0.044
   - k =  -0.500 -0.500 -0.057
   - k =  -0.500 -0.500 -0.070
   - k =  -0.500 -0.500 -0.082
   - k =  -0.500 -0.500 -0.095
   - k =  -0.500 -0.500 -0.108
   - k =  -0.500 -0.500 -0.120
   - k =  -0.500 -0.500 -0.133
   - k =  -0.500 -0.500 -0.146
   - k =  -0.500 -0.500 -0.158
   - k =  -0.500 -0.500 -0.171
   - k =  -0.500 -0.500 -0.184
   - k =  -0.500 -0.500 -0.196
   - k =  -0.500 -0.500 -0.209
   - k =  -0.500 -0.500 -0.222
   - k =  -0.500 -0.500 -0.234
   - k =  -0.500 -0.500 -0.247
   - k =  -0.500 -0.500 -0.259
   - k =  -0.500 -0.500 -0.272
   - k =  -0.500 -0.500 -0.285
   - k =  -0.500 -0.500 -0.297
   - k =  -0.500 -0.500 -0.310
   - k =  -0.500 -0.500 -0.323
   - k =  -0.500 -0.500 -0.335
   - k =  -0.500 -0.500 -0.348
   - k =  -0.500 -0.500 -0.361
   - k =  -0.500 -0.500 -0.373
   - k =  -0.500 -0.500 -0.386
   - k =  -0.500 -0.500 -0.399
   - k =  -0.500 -0.500 -0.411
   - k =  -0.500 -0.500 -0.424
   - k =  -0.500 -0.500 -0.437
   - k =  -0.500 -0.500 -0.449
   - k =  -0.500 -0.500 -0.462
   - k =  -0.500 -0.500 -0.475
   - k =  -0.500 -0.500 -0.487
   - k =  -0.500 -0.500 -0.500

  |-> Computing Wannier center evolution at k-point number:      1
 Using pol_lapack_version = 2
 Calculating dipole matrix along reciprocal lattice vector 3:     0.000     0.000     0.840
  Integrating dipole matrix.
  Time summed over all CPUs for integration: real work      147.743 s, elapsed      160.701 s
 Calculating Berry  term along reciprocal lattice vector 3:     0.000     0.000     0.840
 Calculating dipole term along reciprocal lattice vector 3:     0.000     0.000     0.840

  Treating all   80 k-points in band plot segment #   2:
   Sampling over :
   - k =  -0.500 -0.357  0.500
   - k =  -0.500 -0.357  0.487
   - k =  -0.500 -0.357  0.475
   - k =  -0.500 -0.357  0.462
   - k =  -0.500 -0.357  0.449
   - k =  -0.500 -0.357  0.437
   - k =  -0.500 -0.357  0.424
   - k =  -0.500 -0.357  0.411
   - k =  -0.500 -0.357  0.399
   - k =  -0.500 -0.357  0.386
   - k =  -0.500 -0.357  0.373
   - k =  -0.500 -0.357  0.361
   - k =  -0.500 -0.357  0.348
   - k =  -0.500 -0.357  0.335
   - k =  -0.500 -0.357  0.323
   - k =  -0.500 -0.357  0.310
   - k =  -0.500 -0.357  0.297
   - k =  -0.500 -0.357  0.285
   - k =  -0.500 -0.357  0.272
   - k =  -0.500 -0.357  0.259
   - k =  -0.500 -0.357  0.247
   - k =  -0.500 -0.357  0.234
   - k =  -0.500 -0.357  0.222
   - k =  -0.500 -0.357  0.209
   - k =  -0.500 -0.357  0.196
   - k =  -0.500 -0.357  0.184
   - k =  -0.500 -0.357  0.171
   - k =  -0.500 -0.357  0.158
   - k =  -0.500 -0.357  0.146
   - k =  -0.500 -0.357  0.133
   - k =  -0.500 -0.357  0.120
   - k =  -0.500 -0.357  0.108
   - k =  -0.500 -0.357  0.095
   - k =  -0.500 -0.357  0.082
   - k =  -0.500 -0.357  0.070
   - k =  -0.500 -0.357  0.057
   - k =  -0.500 -0.357  0.044
   - k =  -0.500 -0.357  0.032
   - k =  -0.500 -0.357  0.019
   - k =  -0.500 -0.357  0.006
   - k =  -0.500 -0.357 -0.006
   - k =  -0.500 -0.357 -0.019
   - k =  -0.500 -0.357 -0.032
   - k =  -0.500 -0.357 -0.044
   - k =  -0.500 -0.357 -0.057
   - k =  -0.500 -0.357 -0.070
   - k =  -0.500 -0.357 -0.082
   - k =  -0.500 -0.357 -0.095
   - k =  -0.500 -0.357 -0.108
   - k =  -0.500 -0.357 -0.120
   - k =  -0.500 -0.357 -0.133
   - k =  -0.500 -0.357 -0.146
   - k =  -0.500 -0.357 -0.158
   - k =  -0.500 -0.357 -0.171
   - k =  -0.500 -0.357 -0.184
   - k =  -0.500 -0.357 -0.196
   - k =  -0.500 -0.357 -0.209
   - k =  -0.500 -0.357 -0.222
   - k =  -0.500 -0.357 -0.234
   - k =  -0.500 -0.357 -0.247
   - k =  -0.500 -0.357 -0.259
   - k =  -0.500 -0.357 -0.272
   - k =  -0.500 -0.357 -0.285
   - k =  -0.500 -0.357 -0.297
   - k =  -0.500 -0.357 -0.310
   - k =  -0.500 -0.357 -0.323
   - k =  -0.500 -0.357 -0.335
   - k =  -0.500 -0.357 -0.348
   - k =  -0.500 -0.357 -0.361
   - k =  -0.500 -0.357 -0.373
   - k =  -0.500 -0.357 -0.386
   - k =  -0.500 -0.357 -0.399
   - k =  -0.500 -0.357 -0.411
   - k =  -0.500 -0.357 -0.424
   - k =  -0.500 -0.357 -0.437
   - k =  -0.500 -0.357 -0.449
   - k =  -0.500 -0.357 -0.462
   - k =  -0.500 -0.357 -0.475
   - k =  -0.500 -0.357 -0.487
   - k =  -0.500 -0.357 -0.500

  |-> Computing Wannier center evolution at k-point number:      2
 Using pol_lapack_version = 2
 Calculating Berry  term along reciprocal lattice vector 3:     0.000     0.000     0.840
 Calculating dipole term along reciprocal lattice vector 3:     0.000     0.000     0.840

  Treating all   80 k-points in band plot segment #   3:
   Sampling over :
   - k =  -0.500 -0.214  0.500
   - k =  -0.500 -0.214  0.487
   - k =  -0.500 -0.214  0.475
   - k =  -0.500 -0.214  0.462
   - k =  -0.500 -0.214  0.449
   - k =  -0.500 -0.214  0.437
   - k =  -0.500 -0.214  0.424
   - k =  -0.500 -0.214  0.411
   - k =  -0.500 -0.214  0.399
   - k =  -0.500 -0.214  0.386
   - k =  -0.500 -0.214  0.373
   - k =  -0.500 -0.214  0.361
   - k =  -0.500 -0.214  0.348
   - k =  -0.500 -0.214  0.335
   - k =  -0.500 -0.214  0.323
   - k =  -0.500 -0.214  0.310
   - k =  -0.500 -0.214  0.297
   - k =  -0.500 -0.214  0.285
   - k =  -0.500 -0.214  0.272
   - k =  -0.500 -0.214  0.259
   - k =  -0.500 -0.214  0.247
   - k =  -0.500 -0.214  0.234
   - k =  -0.500 -0.214  0.222
   - k =  -0.500 -0.214  0.209
   - k =  -0.500 -0.214  0.196
   - k =  -0.500 -0.214  0.184
   - k =  -0.500 -0.214  0.171
   - k =  -0.500 -0.214  0.158
   - k =  -0.500 -0.214  0.146
   - k =  -0.500 -0.214  0.133
   - k =  -0.500 -0.214  0.120
   - k =  -0.500 -0.214  0.108
   - k =  -0.500 -0.214  0.095
   - k =  -0.500 -0.214  0.082
   - k =  -0.500 -0.214  0.070
   - k =  -0.500 -0.214  0.057
   - k =  -0.500 -0.214  0.044
   - k =  -0.500 -0.214  0.032
   - k =  -0.500 -0.214  0.019
   - k =  -0.500 -0.214  0.006
   - k =  -0.500 -0.214 -0.006
   - k =  -0.500 -0.214 -0.019
   - k =  -0.500 -0.214 -0.032
   - k =  -0.500 -0.214 -0.044
   - k =  -0.500 -0.214 -0.057
   - k =  -0.500 -0.214 -0.070
   - k =  -0.500 -0.214 -0.082
   - k =  -0.500 -0.214 -0.095
   - k =  -0.500 -0.214 -0.108
   - k =  -0.500 -0.214 -0.120
   - k =  -0.500 -0.214 -0.133
   - k =  -0.500 -0.214 -0.146
   - k =  -0.500 -0.214 -0.158
   - k =  -0.500 -0.214 -0.171
   - k =  -0.500 -0.214 -0.184
   - k =  -0.500 -0.214 -0.196
   - k =  -0.500 -0.214 -0.209
   - k =  -0.500 -0.214 -0.222
   - k =  -0.500 -0.214 -0.234
   - k =  -0.500 -0.214 -0.247
   - k =  -0.500 -0.214 -0.259
   - k =  -0.500 -0.214 -0.272
   - k =  -0.500 -0.214 -0.285
   - k =  -0.500 -0.214 -0.297
   - k =  -0.500 -0.214 -0.310
   - k =  -0.500 -0.214 -0.323
   - k =  -0.500 -0.214 -0.335
   - k =  -0.500 -0.214 -0.348
   - k =  -0.500 -0.214 -0.361
   - k =  -0.500 -0.214 -0.373
   - k =  -0.500 -0.214 -0.386
   - k =  -0.500 -0.214 -0.399
   - k =  -0.500 -0.214 -0.411
   - k =  -0.500 -0.214 -0.424
   - k =  -0.500 -0.214 -0.437
   - k =  -0.500 -0.214 -0.449
   - k =  -0.500 -0.214 -0.462
   - k =  -0.500 -0.214 -0.475
   - k =  -0.500 -0.214 -0.487
   - k =  -0.500 -0.214 -0.500

  |-> Computing Wannier center evolution at k-point number:      3
 Using pol_lapack_version = 2
 Calculating Berry  term along reciprocal lattice vector 3:     0.000     0.000     0.840
 Calculating dipole term along reciprocal lattice vector 3:     0.000     0.000     0.840

  Treating all   80 k-points in band plot segment #   4:
   Sampling over :
   - k =  -0.500 -0.071  0.500
   - k =  -0.500 -0.071  0.487
   - k =  -0.500 -0.071  0.475
   - k =  -0.500 -0.071  0.462
   - k =  -0.500 -0.071  0.449
   - k =  -0.500 -0.071  0.437
   - k =  -0.500 -0.071  0.424
   - k =  -0.500 -0.071  0.411
   - k =  -0.500 -0.071  0.399
   - k =  -0.500 -0.071  0.386
   - k =  -0.500 -0.071  0.373
   - k =  -0.500 -0.071  0.361
   - k =  -0.500 -0.071  0.348
   - k =  -0.500 -0.071  0.335
   - k =  -0.500 -0.071  0.323
   - k =  -0.500 -0.071  0.310
   - k =  -0.500 -0.071  0.297
   - k =  -0.500 -0.071  0.285
   - k =  -0.500 -0.071  0.272
   - k =  -0.500 -0.071  0.259
   - k =  -0.500 -0.071  0.247
   - k =  -0.500 -0.071  0.234
   - k =  -0.500 -0.071  0.222
   - k =  -0.500 -0.071  0.209
   - k =  -0.500 -0.071  0.196
   - k =  -0.500 -0.071  0.184
   - k =  -0.500 -0.071  0.171
   - k =  -0.500 -0.071  0.158
   - k =  -0.500 -0.071  0.146
   - k =  -0.500 -0.071  0.133
   - k =  -0.500 -0.071  0.120
   - k =  -0.500 -0.071  0.108
   - k =  -0.500 -0.071  0.095
   - k =  -0.500 -0.071  0.082
   - k =  -0.500 -0.071  0.070
   - k =  -0.500 -0.071  0.057
   - k =  -0.500 -0.071  0.044
   - k =  -0.500 -0.071  0.032
   - k =  -0.500 -0.071  0.019
   - k =  -0.500 -0.071  0.006
   - k =  -0.500 -0.071 -0.006
   - k =  -0.500 -0.071 -0.019
   - k =  -0.500 -0.071 -0.032
   - k =  -0.500 -0.071 -0.044
   - k =  -0.500 -0.071 -0.057
   - k =  -0.500 -0.071 -0.070
   - k =  -0.500 -0.071 -0.082
   - k =  -0.500 -0.071 -0.095
   - k =  -0.500 -0.071 -0.108
   - k =  -0.500 -0.071 -0.120
   - k =  -0.500 -0.071 -0.133
   - k =  -0.500 -0.071 -0.146
   - k =  -0.500 -0.071 -0.158
   - k =  -0.500 -0.071 -0.171
   - k =  -0.500 -0.071 -0.184
   - k =  -0.500 -0.071 -0.196
   - k =  -0.500 -0.071 -0.209
   - k =  -0.500 -0.071 -0.222
   - k =  -0.500 -0.071 -0.234
   - k =  -0.500 -0.071 -0.247
   - k =  -0.500 -0.071 -0.259
   - k =  -0.500 -0.071 -0.272
   - k =  -0.500 -0.071 -0.285
   - k =  -0.500 -0.071 -0.297
   - k =  -0.500 -0.071 -0.310
   - k =  -0.500 -0.071 -0.323
   - k =  -0.500 -0.071 -0.335
   - k =  -0.500 -0.071 -0.348
   - k =  -0.500 -0.071 -0.361
   - k =  -0.500 -0.071 -0.373
   - k =  -0.500 -0.071 -0.386
   - k =  -0.500 -0.071 -0.399
   - k =  -0.500 -0.071 -0.411
   - k =  -0.500 -0.071 -0.424
   - k =  -0.500 -0.071 -0.437
   - k =  -0.500 -0.071 -0.449
   - k =  -0.500 -0.071 -0.462
   - k =  -0.500 -0.071 -0.475
   - k =  -0.500 -0.071 -0.487
   - k =  -0.500 -0.071 -0.500

  |-> Computing Wannier center evolution at k-point number:      4
 Using pol_lapack_version = 2
 Calculating Berry  term along reciprocal lattice vector 3:     0.000     0.000     0.840
 Calculating dipole term along reciprocal lattice vector 3:     0.000     0.000     0.840

  Treating all   80 k-points in band plot segment #   5:
   Sampling over :
   - k =  -0.500  0.071  0.500
   - k =  -0.500  0.071  0.487
   - k =  -0.500  0.071  0.475
   - k =  -0.500  0.071  0.462
   - k =  -0.500  0.071  0.449
   - k =  -0.500  0.071  0.437
   - k =  -0.500  0.071  0.424
   - k =  -0.500  0.071  0.411
   - k =  -0.500  0.071  0.399
   - k =  -0.500  0.071  0.386
   - k =  -0.500  0.071  0.373
   - k =  -0.500  0.071  0.361
   - k =  -0.500  0.071  0.348
   - k =  -0.500  0.071  0.335
   - k =  -0.500  0.071  0.323
   - k =  -0.500  0.071  0.310
   - k =  -0.500  0.071  0.297
   - k =  -0.500  0.071  0.285
   - k =  -0.500  0.071  0.272
   - k =  -0.500  0.071  0.259
   - k =  -0.500  0.071  0.247
   - k =  -0.500  0.071  0.234
   - k =  -0.500  0.071  0.222
   - k =  -0.500  0.071  0.209
   - k =  -0.500  0.071  0.196
   - k =  -0.500  0.071  0.184
   - k =  -0.500  0.071  0.171
   - k =  -0.500  0.071  0.158
   - k =  -0.500  0.071  0.146
   - k =  -0.500  0.071  0.133
   - k =  -0.500  0.071  0.120
   - k =  -0.500  0.071  0.108
   - k =  -0.500  0.071  0.095
   - k =  -0.500  0.071  0.082
   - k =  -0.500  0.071  0.070
   - k =  -0.500  0.071  0.057
   - k =  -0.500  0.071  0.044
   - k =  -0.500  0.071  0.032
   - k =  -0.500  0.071  0.019
   - k =  -0.500  0.071  0.006
   - k =  -0.500  0.071 -0.006
   - k =  -0.500  0.071 -0.019
   - k =  -0.500  0.071 -0.032
   - k =  -0.500  0.071 -0.044
   - k =  -0.500  0.071 -0.057
   - k =  -0.500  0.071 -0.070
   - k =  -0.500  0.071 -0.082
   - k =  -0.500  0.071 -0.095
   - k =  -0.500  0.071 -0.108
   - k =  -0.500  0.071 -0.120
   - k =  -0.500  0.071 -0.133
   - k =  -0.500  0.071 -0.146
   - k =  -0.500  0.071 -0.158
   - k =  -0.500  0.071 -0.171
   - k =  -0.500  0.071 -0.184
   - k =  -0.500  0.071 -0.196
   - k =  -0.500  0.071 -0.209
   - k =  -0.500  0.071 -0.222
   - k =  -0.500  0.071 -0.234
   - k =  -0.500  0.071 -0.247
   - k =  -0.500  0.071 -0.259
   - k =  -0.500  0.071 -0.272
   - k =  -0.500  0.071 -0.285
   - k =  -0.500  0.071 -0.297
   - k =  -0.500  0.071 -0.310
   - k =  -0.500  0.071 -0.323
   - k =  -0.500  0.071 -0.335
   - k =  -0.500  0.071 -0.348
   - k =  -0.500  0.071 -0.361
   - k =  -0.500  0.071 -0.373
   - k =  -0.500  0.071 -0.386
   - k =  -0.500  0.071 -0.399
   - k =  -0.500  0.071 -0.411
   - k =  -0.500  0.071 -0.424
   - k =  -0.500  0.071 -0.437
   - k =  -0.500  0.071 -0.449
   - k =  -0.500  0.071 -0.462
   - k =  -0.500  0.071 -0.475
   - k =  -0.500  0.071 -0.487
   - k =  -0.500  0.071 -0.500

  |-> Computing Wannier center evolution at k-point number:      5
 Using pol_lapack_version = 2
 Calculating Berry  term along reciprocal lattice vector 3:     0.000     0.000     0.840
 Calculating dipole term along reciprocal lattice vector 3:     0.000     0.000     0.840

  Treating all   80 k-points in band plot segment #   6:
   Sampling over :
   - k =  -0.500  0.214  0.500
   - k =  -0.500  0.214  0.487
   - k =  -0.500  0.214  0.475
   - k =  -0.500  0.214  0.462
   - k =  -0.500  0.214  0.449
   - k =  -0.500  0.214  0.437
   - k =  -0.500  0.214  0.424
   - k =  -0.500  0.214  0.411
   - k =  -0.500  0.214  0.399
   - k =  -0.500  0.214  0.386
   - k =  -0.500  0.214  0.373
   - k =  -0.500  0.214  0.361
   - k =  -0.500  0.214  0.348
   - k =  -0.500  0.214  0.335
   - k =  -0.500  0.214  0.323
   - k =  -0.500  0.214  0.310
   - k =  -0.500  0.214  0.297
   - k =  -0.500  0.214  0.285
   - k =  -0.500  0.214  0.272
   - k =  -0.500  0.214  0.259
   - k =  -0.500  0.214  0.247
   - k =  -0.500  0.214  0.234
   - k =  -0.500  0.214  0.222
   - k =  -0.500  0.214  0.209
   - k =  -0.500  0.214  0.196
   - k =  -0.500  0.214  0.184
   - k =  -0.500  0.214  0.171
   - k =  -0.500  0.214  0.158
   - k =  -0.500  0.214  0.146
   - k =  -0.500  0.214  0.133
   - k =  -0.500  0.214  0.120
   - k =  -0.500  0.214  0.108
   - k =  -0.500  0.214  0.095
   - k =  -0.500  0.214  0.082
   - k =  -0.500  0.214  0.070
   - k =  -0.500  0.214  0.057
   - k =  -0.500  0.214  0.044
   - k =  -0.500  0.214  0.032
   - k =  -0.500  0.214  0.019
   - k =  -0.500  0.214  0.006
   - k =  -0.500  0.214 -0.006
   - k =  -0.500  0.214 -0.019
   - k =  -0.500  0.214 -0.032
   - k =  -0.500  0.214 -0.044
   - k =  -0.500  0.214 -0.057
   - k =  -0.500  0.214 -0.070
   - k =  -0.500  0.214 -0.082
   - k =  -0.500  0.214 -0.095
   - k =  -0.500  0.214 -0.108
   - k =  -0.500  0.214 -0.120
   - k =  -0.500  0.214 -0.133
   - k =  -0.500  0.214 -0.146
   - k =  -0.500  0.214 -0.158
   - k =  -0.500  0.214 -0.171
   - k =  -0.500  0.214 -0.184
   - k =  -0.500  0.214 -0.196
   - k =  -0.500  0.214 -0.209
   - k =  -0.500  0.214 -0.222
   - k =  -0.500  0.214 -0.234
   - k =  -0.500  0.214 -0.247
   - k =  -0.500  0.214 -0.259
   - k =  -0.500  0.214 -0.272
   - k =  -0.500  0.214 -0.285
   - k =  -0.500  0.214 -0.297
   - k =  -0.500  0.214 -0.310
   - k =  -0.500  0.214 -0.323
   - k =  -0.500  0.214 -0.335
   - k =  -0.500  0.214 -0.348
   - k =  -0.500  0.214 -0.361
   - k =  -0.500  0.214 -0.373
   - k =  -0.500  0.214 -0.386
   - k =  -0.500  0.214 -0.399
   - k =  -0.500  0.214 -0.411
   - k =  -0.500  0.214 -0.424
   - k =  -0.500  0.214 -0.437
   - k =  -0.500  0.214 -0.449
   - k =  -0.500  0.214 -0.462
   - k =  -0.500  0.214 -0.475
   - k =  -0.500  0.214 -0.487
   - k =  -0.500  0.214 -0.500

  |-> Computing Wannier center evolution at k-point number:      6
 Using pol_lapack_version = 2
 Calculating Berry  term along reciprocal lattice vector 3:     0.000     0.000     0.840
 Calculating dipole term along reciprocal lattice vector 3:     0.000     0.000     0.840

  Treating all   80 k-points in band plot segment #   7:
   Sampling over :
   - k =  -0.500  0.357  0.500
   - k =  -0.500  0.357  0.487
   - k =  -0.500  0.357  0.475
   - k =  -0.500  0.357  0.462
   - k =  -0.500  0.357  0.449
   - k =  -0.500  0.357  0.437
   - k =  -0.500  0.357  0.424
   - k =  -0.500  0.357  0.411
   - k =  -0.500  0.357  0.399
   - k =  -0.500  0.357  0.386
   - k =  -0.500  0.357  0.373
   - k =  -0.500  0.357  0.361
   - k =  -0.500  0.357  0.348
   - k =  -0.500  0.357  0.335
   - k =  -0.500  0.357  0.323
   - k =  -0.500  0.357  0.310
   - k =  -0.500  0.357  0.297
   - k =  -0.500  0.357  0.285
   - k =  -0.500  0.357  0.272
   - k =  -0.500  0.357  0.259
   - k =  -0.500  0.357  0.247
   - k =  -0.500  0.357  0.234
   - k =  -0.500  0.357  0.222
   - k =  -0.500  0.357  0.209
   - k =  -0.500  0.357  0.196
   - k =  -0.500  0.357  0.184
   - k =  -0.500  0.357  0.171
   - k =  -0.500  0.357  0.158
   - k =  -0.500  0.357  0.146
   - k =  -0.500  0.357  0.133
   - k =  -0.500  0.357  0.120
   - k =  -0.500  0.357  0.108
   - k =  -0.500  0.357  0.095
   - k =  -0.500  0.357  0.082
   - k =  -0.500  0.357  0.070
   - k =  -0.500  0.357  0.057
   - k =  -0.500  0.357  0.044
   - k =  -0.500  0.357  0.032
   - k =  -0.500  0.357  0.019
   - k =  -0.500  0.357  0.006
   - k =  -0.500  0.357 -0.006
   - k =  -0.500  0.357 -0.019
   - k =  -0.500  0.357 -0.032
   - k =  -0.500  0.357 -0.044
   - k =  -0.500  0.357 -0.057
   - k =  -0.500  0.357 -0.070
   - k =  -0.500  0.357 -0.082
   - k =  -0.500  0.357 -0.095
   - k =  -0.500  0.357 -0.108
   - k =  -0.500  0.357 -0.120
   - k =  -0.500  0.357 -0.133
   - k =  -0.500  0.357 -0.146
   - k =  -0.500  0.357 -0.158
   - k =  -0.500  0.357 -0.171
   - k =  -0.500  0.357 -0.184
   - k =  -0.500  0.357 -0.196
   - k =  -0.500  0.357 -0.209
   - k =  -0.500  0.357 -0.222
   - k =  -0.500  0.357 -0.234
   - k =  -0.500  0.357 -0.247
   - k =  -0.500  0.357 -0.259
   - k =  -0.500  0.357 -0.272
   - k =  -0.500  0.357 -0.285
   - k =  -0.500  0.357 -0.297
   - k =  -0.500  0.357 -0.310
   - k =  -0.500  0.357 -0.323
   - k =  -0.500  0.357 -0.335
   - k =  -0.500  0.357 -0.348
   - k =  -0.500  0.357 -0.361
   - k =  -0.500  0.357 -0.373
   - k =  -0.500  0.357 -0.386
   - k =  -0.500  0.357 -0.399
   - k =  -0.500  0.357 -0.411
   - k =  -0.500  0.357 -0.424
   - k =  -0.500  0.357 -0.437
   - k =  -0.500  0.357 -0.449
   - k =  -0.500  0.357 -0.462
   - k =  -0.500  0.357 -0.475
   - k =  -0.500  0.357 -0.487
   - k =  -0.500  0.357 -0.500

  |-> Computing Wannier center evolution at k-point number:      7
 Using pol_lapack_version = 2
 Calculating Berry  term along reciprocal lattice vector 3:     0.000     0.000     0.840
 Calculating dipole term along reciprocal lattice vector 3:     0.000     0.000     0.840

  Treating all   80 k-points in band plot segment #   8:
   Sampling over :
   - k =  -0.500  0.500  0.500
   - k =  -0.500  0.500  0.487
   - k =  -0.500  0.500  0.475
   - k =  -0.500  0.500  0.462
   - k =  -0.500  0.500  0.449
   - k =  -0.500  0.500  0.437
   - k =  -0.500  0.500  0.424
   - k =  -0.500  0.500  0.411
   - k =  -0.500  0.500  0.399
   - k =  -0.500  0.500  0.386
   - k =  -0.500  0.500  0.373
   - k =  -0.500  0.500  0.361
   - k =  -0.500  0.500  0.348
   - k =  -0.500  0.500  0.335
   - k =  -0.500  0.500  0.323
   - k =  -0.500  0.500  0.310
   - k =  -0.500  0.500  0.297
   - k =  -0.500  0.500  0.285
   - k =  -0.500  0.500  0.272
   - k =  -0.500  0.500  0.259
   - k =  -0.500  0.500  0.247
   - k =  -0.500  0.500  0.234
   - k =  -0.500  0.500  0.222
   - k =  -0.500  0.500  0.209
   - k =  -0.500  0.500  0.196
   - k =  -0.500  0.500  0.184
   - k =  -0.500  0.500  0.171
   - k =  -0.500  0.500  0.158
   - k =  -0.500  0.500  0.146
   - k =  -0.500  0.500  0.133
   - k =  -0.500  0.500  0.120
   - k =  -0.500  0.500  0.108
   - k =  -0.500  0.500  0.095
   - k =  -0.500  0.500  0.082
   - k =  -0.500  0.500  0.070
   - k =  -0.500  0.500  0.057
   - k =  -0.500  0.500  0.044
   - k =  -0.500  0.500  0.032
   - k =  -0.500  0.500  0.019
   - k =  -0.500  0.500  0.006
   - k =  -0.500  0.500 -0.006
   - k =  -0.500  0.500 -0.019
   - k =  -0.500  0.500 -0.032
   - k =  -0.500  0.500 -0.044
   - k =  -0.500  0.500 -0.057
   - k =  -0.500  0.500 -0.070
   - k =  -0.500  0.500 -0.082
   - k =  -0.500  0.500 -0.095
   - k =  -0.500  0.500 -0.108
   - k =  -0.500  0.500 -0.120
   - k =  -0.500  0.500 -0.133
   - k =  -0.500  0.500 -0.146
   - k =  -0.500  0.500 -0.158
   - k =  -0.500  0.500 -0.171
   - k =  -0.500  0.500 -0.184
   - k =  -0.500  0.500 -0.196
   - k =  -0.500  0.500 -0.209
   - k =  -0.500  0.500 -0.222
   - k =  -0.500  0.500 -0.234
   - k =  -0.500  0.500 -0.247
   - k =  -0.500  0.500 -0.259
   - k =  -0.500  0.500 -0.272
   - k =  -0.500  0.500 -0.285
   - k =  -0.500  0.500 -0.297
   - k =  -0.500  0.500 -0.310
   - k =  -0.500  0.500 -0.323
   - k =  -0.500  0.500 -0.335
   - k =  -0.500  0.500 -0.348
   - k =  -0.500  0.500 -0.361
   - k =  -0.500  0.500 -0.373
   - k =  -0.500  0.500 -0.386
   - k =  -0.500  0.500 -0.399
   - k =  -0.500  0.500 -0.411
   - k =  -0.500  0.500 -0.424
   - k =  -0.500  0.500 -0.437
   - k =  -0.500  0.500 -0.449
   - k =  -0.500  0.500 -0.462
   - k =  -0.500  0.500 -0.475
   - k =  -0.500  0.500 -0.487
   - k =  -0.500  0.500 -0.500

  |-> Computing Wannier center evolution at k-point number:      8
 Using pol_lapack_version = 2
 Calculating Berry  term along reciprocal lattice vector 3:     0.000     0.000     0.840
 Calculating dipole term along reciprocal lattice vector 3:     0.000     0.000     0.840

  Treating all   80 k-points in band plot segment #   9:
   Sampling over :
   - k =  -0.357 -0.500  0.500
   - k =  -0.357 -0.500  0.487
   - k =  -0.357 -0.500  0.475
   - k =  -0.357 -0.500  0.462
   - k =  -0.357 -0.500  0.449
   - k =  -0.357 -0.500  0.437
   - k =  -0.357 -0.500  0.424
   - k =  -0.357 -0.500  0.411
   - k =  -0.357 -0.500  0.399
   - k =  -0.357 -0.500  0.386
   - k =  -0.357 -0.500  0.373
   - k =  -0.357 -0.500  0.361
   - k =  -0.357 -0.500  0.348
   - k =  -0.357 -0.500  0.335
   - k =  -0.357 -0.500  0.323
   - k =  -0.357 -0.500  0.310
   - k =  -0.357 -0.500  0.297
   - k =  -0.357 -0.500  0.285
   - k =  -0.357 -0.500  0.272
   - k =  -0.357 -0.500  0.259
   - k =  -0.357 -0.500  0.247
   - k =  -0.357 -0.500  0.234
   - k =  -0.357 -0.500  0.222
   - k =  -0.357 -0.500  0.209
   - k =  -0.357 -0.500  0.196
   - k =  -0.357 -0.500  0.184
   - k =  -0.357 -0.500  0.171
   - k =  -0.357 -0.500  0.158
   - k =  -0.357 -0.500  0.146
   - k =  -0.357 -0.500  0.133
   - k =  -0.357 -0.500  0.120
   - k =  -0.357 -0.500  0.108
   - k =  -0.357 -0.500  0.095
   - k =  -0.357 -0.500  0.082
   - k =  -0.357 -0.500  0.070
   - k =  -0.357 -0.500  0.057
   - k =  -0.357 -0.500  0.044
   - k =  -0.357 -0.500  0.032
   - k =  -0.357 -0.500  0.019
   - k =  -0.357 -0.500  0.006
   - k =  -0.357 -0.500 -0.006
   - k =  -0.357 -0.500 -0.019
   - k =  -0.357 -0.500 -0.032
   - k =  -0.357 -0.500 -0.044
   - k =  -0.357 -0.500 -0.057
   - k =  -0.357 -0.500 -0.070
   - k =  -0.357 -0.500 -0.082
   - k =  -0.357 -0.500 -0.095
   - k =  -0.357 -0.500 -0.108
   - k =  -0.357 -0.500 -0.120
   - k =  -0.357 -0.500 -0.133
   - k =  -0.357 -0.500 -0.146
   - k =  -0.357 -0.500 -0.158
   - k =  -0.357 -0.500 -0.171
   - k =  -0.357 -0.500 -0.184
   - k =  -0.357 -0.500 -0.196
   - k =  -0.357 -0.500 -0.209
   - k =  -0.357 -0.500 -0.222
   - k =  -0.357 -0.500 -0.234
   - k =  -0.357 -0.500 -0.247
   - k =  -0.357 -0.500 -0.259
   - k =  -0.357 -0.500 -0.272
   - k =  -0.357 -0.500 -0.285
   - k =  -0.357 -0.500 -0.297
   - k =  -0.357 -0.500 -0.310
   - k =  -0.357 -0.500 -0.323
   - k =  -0.357 -0.500 -0.335
   - k =  -0.357 -0.500 -0.348
   - k =  -0.357 -0.500 -0.361
   - k =  -0.357 -0.500 -0.373
   - k =  -0.357 -0.500 -0.386
   - k =  -0.357 -0.500 -0.399
   - k =  -0.357 -0.500 -0.411
   - k =  -0.357 -0.500 -0.424
   - k =  -0.357 -0.500 -0.437
   - k =  -0.357 -0.500 -0.449
   - k =  -0.357 -0.500 -0.462
   - k =  -0.357 -0.500 -0.475
   - k =  -0.357 -0.500 -0.487
   - k =  -0.357 -0.500 -0.500

  |-> Computing Wannier center evolution at k-point number:      9
 Using pol_lapack_version = 2
 Calculating Berry  term along reciprocal lattice vector 3:     0.000     0.000     0.840
 Calculating dipole term along reciprocal lattice vector 3:     0.000     0.000     0.840

  Treating all   80 k-points in band plot segment #  10:
   Sampling over :
   - k =  -0.357 -0.357  0.500
   - k =  -0.357 -0.357  0.487
   - k =  -0.357 -0.357  0.475
   - k =  -0.357 -0.357  0.462
   - k =  -0.357 -0.357  0.449
   - k =  -0.357 -0.357  0.437
   - k =  -0.357 -0.357  0.424
   - k =  -0.357 -0.357  0.411
   - k =  -0.357 -0.357  0.399
   - k =  -0.357 -0.357  0.386
   - k =  -0.357 -0.357  0.373
   - k =  -0.357 -0.357  0.361
   - k =  -0.357 -0.357  0.348
   - k =  -0.357 -0.357  0.335
   - k =  -0.357 -0.357  0.323
   - k =  -0.357 -0.357  0.310
   - k =  -0.357 -0.357  0.297
   - k =  -0.357 -0.357  0.285
   - k =  -0.357 -0.357  0.272
   - k =  -0.357 -0.357  0.259
   - k =  -0.357 -0.357  0.247
   - k =  -0.357 -0.357  0.234
   - k =  -0.357 -0.357  0.222
   - k =  -0.357 -0.357  0.209
   - k =  -0.357 -0.357  0.196
   - k =  -0.357 -0.357  0.184
   - k =  -0.357 -0.357  0.171
   - k =  -0.357 -0.357  0.158
   - k =  -0.357 -0.357  0.146
   - k =  -0.357 -0.357  0.133
   - k =  -0.357 -0.357  0.120
   - k =  -0.357 -0.357  0.108
   - k =  -0.357 -0.357  0.095
   - k =  -0.357 -0.357  0.082
   - k =  -0.357 -0.357  0.070
   - k =  -0.357 -0.357  0.057
   - k =  -0.357 -0.357  0.044
   - k =  -0.357 -0.357  0.032
   - k =  -0.357 -0.357  0.019
   - k =  -0.357 -0.357  0.006
   - k =  -0.357 -0.357 -0.006
   - k =  -0.357 -0.357 -0.019
   - k =  -0.357 -0.357 -0.032
   - k =  -0.357 -0.357 -0.044
   - k =  -0.357 -0.357 -0.057
   - k =  -0.357 -0.357 -0.070
   - k =  -0.357 -0.357 -0.082
   - k =  -0.357 -0.357 -0.095
   - k =  -0.357 -0.357 -0.108
   - k =  -0.357 -0.357 -0.120
   - k =  -0.357 -0.357 -0.133
   - k =  -0.357 -0.357 -0.146
   - k =  -0.357 -0.357 -0.158
   - k =  -0.357 -0.357 -0.171
   - k =  -0.357 -0.357 -0.184
   - k =  -0.357 -0.357 -0.196
   - k =  -0.357 -0.357 -0.209
   - k =  -0.357 -0.357 -0.222
   - k =  -0.357 -0.357 -0.234
   - k =  -0.357 -0.357 -0.247
   - k =  -0.357 -0.357 -0.259
   - k =  -0.357 -0.357 -0.272
   - k =  -0.357 -0.357 -0.285
   - k =  -0.357 -0.357 -0.297
   - k =  -0.357 -0.357 -0.310
   - k =  -0.357 -0.357 -0.323
   - k =  -0.357 -0.357 -0.335
   - k =  -0.357 -0.357 -0.348
   - k =  -0.357 -0.357 -0.361
   - k =  -0.357 -0.357 -0.373
   - k =  -0.357 -0.357 -0.386
   - k =  -0.357 -0.357 -0.399
   - k =  -0.357 -0.357 -0.411
   - k =  -0.357 -0.357 -0.424
   - k =  -0.357 -0.357 -0.437
   - k =  -0.357 -0.357 -0.449
   - k =  -0.357 -0.357 -0.462
   - k =  -0.357 -0.357 -0.475
   - k =  -0.357 -0.357 -0.487
   - k =  -0.357 -0.357 -0.500

  |-> Computing Wannier center evolution at k-point number:     10
 Using pol_lapack_version = 2
 Calculating Berry  term along reciprocal lattice vector 3:     0.000     0.000     0.840
 Calculating dipole term along reciprocal lattice vector 3:     0.000     0.000     0.840

  Treating all   80 k-points in band plot segment #  11:
   Sampling over :
   - k =  -0.357 -0.214  0.500
   - k =  -0.357 -0.214  0.487
   - k =  -0.357 -0.214  0.475
   - k =  -0.357 -0.214  0.462
   - k =  -0.357 -0.214  0.449
   - k =  -0.357 -0.214  0.437
   - k =  -0.357 -0.214  0.424
   - k =  -0.357 -0.214  0.411
   - k =  -0.357 -0.214  0.399
   - k =  -0.357 -0.214  0.386
   - k =  -0.357 -0.214  0.373
   - k =  -0.357 -0.214  0.361
   - k =  -0.357 -0.214  0.348
   - k =  -0.357 -0.214  0.335
   - k =  -0.357 -0.214  0.323
   - k =  -0.357 -0.214  0.310
   - k =  -0.357 -0.214  0.297
   - k =  -0.357 -0.214  0.285
   - k =  -0.357 -0.214  0.272
   - k =  -0.357 -0.214  0.259
   - k =  -0.357 -0.214  0.247
   - k =  -0.357 -0.214  0.234
   - k =  -0.357 -0.214  0.222
   - k =  -0.357 -0.214  0.209
   - k =  -0.357 -0.214  0.196
   - k =  -0.357 -0.214  0.184
   - k =  -0.357 -0.214  0.171
   - k =  -0.357 -0.214  0.158
   - k =  -0.357 -0.214  0.146
   - k =  -0.357 -0.214  0.133
   - k =  -0.357 -0.214  0.120
   - k =  -0.357 -0.214  0.108
   - k =  -0.357 -0.214  0.095
   - k =  -0.357 -0.214  0.082
   - k =  -0.357 -0.214  0.070
   - k =  -0.357 -0.214  0.057
   - k =  -0.357 -0.214  0.044
   - k =  -0.357 -0.214  0.032
   - k =  -0.357 -0.214  0.019
   - k =  -0.357 -0.214  0.006
   - k =  -0.357 -0.214 -0.006
   - k =  -0.357 -0.214 -0.019
   - k =  -0.357 -0.214 -0.032
   - k =  -0.357 -0.214 -0.044
   - k =  -0.357 -0.214 -0.057
   - k =  -0.357 -0.214 -0.070
   - k =  -0.357 -0.214 -0.082
   - k =  -0.357 -0.214 -0.095
   - k =  -0.357 -0.214 -0.108
   - k =  -0.357 -0.214 -0.120
   - k =  -0.357 -0.214 -0.133
   - k =  -0.357 -0.214 -0.146
   - k =  -0.357 -0.214 -0.158
   - k =  -0.357 -0.214 -0.171
   - k =  -0.357 -0.214 -0.184
   - k =  -0.357 -0.214 -0.196
   - k =  -0.357 -0.214 -0.209
   - k =  -0.357 -0.214 -0.222
   - k =  -0.357 -0.214 -0.234
   - k =  -0.357 -0.214 -0.247
   - k =  -0.357 -0.214 -0.259
   - k =  -0.357 -0.214 -0.272
   - k =  -0.357 -0.214 -0.285
   - k =  -0.357 -0.214 -0.297
   - k =  -0.357 -0.214 -0.310
   - k =  -0.357 -0.214 -0.323
   - k =  -0.357 -0.214 -0.335
   - k =  -0.357 -0.214 -0.348
   - k =  -0.357 -0.214 -0.361
   - k =  -0.357 -0.214 -0.373
   - k =  -0.357 -0.214 -0.386
   - k =  -0.357 -0.214 -0.399
   - k =  -0.357 -0.214 -0.411
   - k =  -0.357 -0.214 -0.424
   - k =  -0.357 -0.214 -0.437
   - k =  -0.357 -0.214 -0.449
   - k =  -0.357 -0.214 -0.462
   - k =  -0.357 -0.214 -0.475
   - k =  -0.357 -0.214 -0.487
   - k =  -0.357 -0.214 -0.500

  |-> Computing Wannier center evolution at k-point number:     11
 Using pol_lapack_version = 2
 Calculating Berry  term along reciprocal lattice vector 3:     0.000     0.000     0.840
 Calculating dipole term along reciprocal lattice vector 3:     0.000     0.000     0.840

  Treating all   80 k-points in band plot segment #  12:
   Sampling over :
   - k =  -0.357 -0.071  0.500
   - k =  -0.357 -0.071  0.487
   - k =  -0.357 -0.071  0.475
   - k =  -0.357 -0.071  0.462
   - k =  -0.357 -0.071  0.449
   - k =  -0.357 -0.071  0.437
   - k =  -0.357 -0.071  0.424
   - k =  -0.357 -0.071  0.411
   - k =  -0.357 -0.071  0.399
   - k =  -0.357 -0.071  0.386
   - k =  -0.357 -0.071  0.373
   - k =  -0.357 -0.071  0.361
   - k =  -0.357 -0.071  0.348
   - k =  -0.357 -0.071  0.335
   - k =  -0.357 -0.071  0.323
   - k =  -0.357 -0.071  0.310
   - k =  -0.357 -0.071  0.297
   - k =  -0.357 -0.071  0.285
   - k =  -0.357 -0.071  0.272
   - k =  -0.357 -0.071  0.259
   - k =  -0.357 -0.071  0.247
   - k =  -0.357 -0.071  0.234
   - k =  -0.357 -0.071  0.222
   - k =  -0.357 -0.071  0.209
   - k =  -0.357 -0.071  0.196
   - k =  -0.357 -0.071  0.184
   - k =  -0.357 -0.071  0.171
   - k =  -0.357 -0.071  0.158
   - k =  -0.357 -0.071  0.146
   - k =  -0.357 -0.071  0.133
   - k =  -0.357 -0.071  0.120
   - k =  -0.357 -0.071  0.108
   - k =  -0.357 -0.071  0.095
   - k =  -0.357 -0.071  0.082
   - k =  -0.357 -0.071  0.070
   - k =  -0.357 -0.071  0.057
   - k =  -0.357 -0.071  0.044
   - k =  -0.357 -0.071  0.032
   - k =  -0.357 -0.071  0.019
   - k =  -0.357 -0.071  0.006
   - k =  -0.357 -0.071 -0.006
   - k =  -0.357 -0.071 -0.019
   - k =  -0.357 -0.071 -0.032
   - k =  -0.357 -0.071 -0.044
   - k =  -0.357 -0.071 -0.057
   - k =  -0.357 -0.071 -0.070
   - k =  -0.357 -0.071 -0.082
   - k =  -0.357 -0.071 -0.095
   - k =  -0.357 -0.071 -0.108
   - k =  -0.357 -0.071 -0.120
   - k =  -0.357 -0.071 -0.133
   - k =  -0.357 -0.071 -0.146
   - k =  -0.357 -0.071 -0.158
   - k =  -0.357 -0.071 -0.171
   - k =  -0.357 -0.071 -0.184
   - k =  -0.357 -0.071 -0.196
   - k =  -0.357 -0.071 -0.209
   - k =  -0.357 -0.071 -0.222
   - k =  -0.357 -0.071 -0.234
   - k =  -0.357 -0.071 -0.247
   - k =  -0.357 -0.071 -0.259
   - k =  -0.357 -0.071 -0.272
   - k =  -0.357 -0.071 -0.285
   - k =  -0.357 -0.071 -0.297
   - k =  -0.357 -0.071 -0.310
   - k =  -0.357 -0.071 -0.323
   - k =  -0.357 -0.071 -0.335
   - k =  -0.357 -0.071 -0.348
   - k =  -0.357 -0.071 -0.361
   - k =  -0.357 -0.071 -0.373
   - k =  -0.357 -0.071 -0.386
   - k =  -0.357 -0.071 -0.399
   - k =  -0.357 -0.071 -0.411
   - k =  -0.357 -0.071 -0.424
   - k =  -0.357 -0.071 -0.437
   - k =  -0.357 -0.071 -0.449
   - k =  -0.357 -0.071 -0.462
   - k =  -0.357 -0.071 -0.475
   - k =  -0.357 -0.071 -0.487
   - k =  -0.357 -0.071 -0.500

  |-> Computing Wannier center evolution at k-point number:     12
 Using pol_lapack_version = 2
 Calculating Berry  term along reciprocal lattice vector 3:     0.000     0.000     0.840
 Calculating dipole term along reciprocal lattice vector 3:     0.000     0.000     0.840

  Treating all   80 k-points in band plot segment #  13:
   Sampling over :
   - k =  -0.357  0.071  0.500
   - k =  -0.357  0.071  0.487
   - k =  -0.357  0.071  0.475
   - k =  -0.357  0.071  0.462
   - k =  -0.357  0.071  0.449
   - k =  -0.357  0.071  0.437
   - k =  -0.357  0.071  0.424
   - k =  -0.357  0.071  0.411
   - k =  -0.357  0.071  0.399
   - k =  -0.357  0.071  0.386
   - k =  -0.357  0.071  0.373
   - k =  -0.357  0.071  0.361
   - k =  -0.357  0.071  0.348
   - k =  -0.357  0.071  0.335
   - k =  -0.357  0.071  0.323
   - k =  -0.357  0.071  0.310
   - k =  -0.357  0.071  0.297
   - k =  -0.357  0.071  0.285
   - k =  -0.357  0.071  0.272
   - k =  -0.357  0.071  0.259
   - k =  -0.357  0.071  0.247
   - k =  -0.357  0.071  0.234
   - k =  -0.357  0.071  0.222
   - k =  -0.357  0.071  0.209
   - k =  -0.357  0.071  0.196
   - k =  -0.357  0.071  0.184
   - k =  -0.357  0.071  0.171
   - k =  -0.357  0.071  0.158
   - k =  -0.357  0.071  0.146
   - k =  -0.357  0.071  0.133
   - k =  -0.357  0.071  0.120
   - k =  -0.357  0.071  0.108
   - k =  -0.357  0.071  0.095
   - k =  -0.357  0.071  0.082
   - k =  -0.357  0.071  0.070
   - k =  -0.357  0.071  0.057
   - k =  -0.357  0.071  0.044
   - k =  -0.357  0.071  0.032
   - k =  -0.357  0.071  0.019
   - k =  -0.357  0.071  0.006
   - k =  -0.357  0.071 -0.006
   - k =  -0.357  0.071 -0.019
   - k =  -0.357  0.071 -0.032
   - k =  -0.357  0.071 -0.044
   - k =  -0.357  0.071 -0.057
   - k =  -0.357  0.071 -0.070
   - k =  -0.357  0.071 -0.082
   - k =  -0.357  0.071 -0.095
   - k =  -0.357  0.071 -0.108
   - k =  -0.357  0.071 -0.120
   - k =  -0.357  0.071 -0.133
   - k =  -0.357  0.071 -0.146
   - k =  -0.357  0.071 -0.158
   - k =  -0.357  0.071 -0.171
   - k =  -0.357  0.071 -0.184
   - k =  -0.357  0.071 -0.196
   - k =  -0.357  0.071 -0.209
   - k =  -0.357  0.071 -0.222
   - k =  -0.357  0.071 -0.234
   - k =  -0.357  0.071 -0.247
   - k =  -0.357  0.071 -0.259
   - k =  -0.357  0.071 -0.272
   - k =  -0.357  0.071 -0.285
   - k =  -0.357  0.071 -0.297
   - k =  -0.357  0.071 -0.310
   - k =  -0.357  0.071 -0.323
   - k =  -0.357  0.071 -0.335
   - k =  -0.357  0.071 -0.348
   - k =  -0.357  0.071 -0.361
   - k =  -0.357  0.071 -0.373
   - k =  -0.357  0.071 -0.386
   - k =  -0.357  0.071 -0.399
   - k =  -0.357  0.071 -0.411
   - k =  -0.357  0.071 -0.424
   - k =  -0.357  0.071 -0.437
   - k =  -0.357  0.071 -0.449
   - k =  -0.357  0.071 -0.462
   - k =  -0.357  0.071 -0.475
   - k =  -0.357  0.071 -0.487
   - k =  -0.357  0.071 -0.500

  |-> Computing Wannier center evolution at k-point number:     13
 Using pol_lapack_version = 2
 Calculating Berry  term along reciprocal lattice vector 3:     0.000     0.000     0.840
 Calculating dipole term along reciprocal lattice vector 3:     0.000     0.000     0.840

  Treating all   80 k-points in band plot segment #  14:
   Sampling over :
   - k =  -0.357  0.214  0.500
   - k =  -0.357  0.214  0.487
   - k =  -0.357  0.214  0.475
   - k =  -0.357  0.214  0.462
   - k =  -0.357  0.214  0.449
   - k =  -0.357  0.214  0.437
   - k =  -0.357  0.214  0.424
   - k =  -0.357  0.214  0.411
   - k =  -0.357  0.214  0.399
   - k =  -0.357  0.214  0.386
   - k =  -0.357  0.214  0.373
   - k =  -0.357  0.214  0.361
   - k =  -0.357  0.214  0.348
   - k =  -0.357  0.214  0.335
   - k =  -0.357  0.214  0.323
   - k =  -0.357  0.214  0.310
   - k =  -0.357  0.214  0.297
   - k =  -0.357  0.214  0.285
   - k =  -0.357  0.214  0.272
   - k =  -0.357  0.214  0.259
   - k =  -0.357  0.214  0.247
   - k =  -0.357  0.214  0.234
   - k =  -0.357  0.214  0.222
   - k =  -0.357  0.214  0.209
   - k =  -0.357  0.214  0.196
   - k =  -0.357  0.214  0.184
   - k =  -0.357  0.214  0.171
   - k =  -0.357  0.214  0.158
   - k =  -0.357  0.214  0.146
   - k =  -0.357  0.214  0.133
   - k =  -0.357  0.214  0.120
   - k =  -0.357  0.214  0.108
   - k =  -0.357  0.214  0.095
   - k =  -0.357  0.214  0.082
   - k =  -0.357  0.214  0.070
   - k =  -0.357  0.214  0.057
   - k =  -0.357  0.214  0.044
   - k =  -0.357  0.214  0.032
   - k =  -0.357  0.214  0.019
   - k =  -0.357  0.214  0.006
   - k =  -0.357  0.214 -0.006
   - k =  -0.357  0.214 -0.019
   - k =  -0.357  0.214 -0.032
   - k =  -0.357  0.214 -0.044
   - k =  -0.357  0.214 -0.057
   - k =  -0.357  0.214 -0.070
   - k =  -0.357  0.214 -0.082
   - k =  -0.357  0.214 -0.095
   - k =  -0.357  0.214 -0.108
   - k =  -0.357  0.214 -0.120
   - k =  -0.357  0.214 -0.133
   - k =  -0.357  0.214 -0.146
   - k =  -0.357  0.214 -0.158
   - k =  -0.357  0.214 -0.171
   - k =  -0.357  0.214 -0.184
   - k =  -0.357  0.214 -0.196
   - k =  -0.357  0.214 -0.209
   - k =  -0.357  0.214 -0.222
   - k =  -0.357  0.214 -0.234
   - k =  -0.357  0.214 -0.247
   - k =  -0.357  0.214 -0.259
   - k =  -0.357  0.214 -0.272
   - k =  -0.357  0.214 -0.285
   - k =  -0.357  0.214 -0.297
   - k =  -0.357  0.214 -0.310
   - k =  -0.357  0.214 -0.323
   - k =  -0.357  0.214 -0.335
   - k =  -0.357  0.214 -0.348
   - k =  -0.357  0.214 -0.361
   - k =  -0.357  0.214 -0.373
   - k =  -0.357  0.214 -0.386
   - k =  -0.357  0.214 -0.399
   - k =  -0.357  0.214 -0.411
   - k =  -0.357  0.214 -0.424
   - k =  -0.357  0.214 -0.437
   - k =  -0.357  0.214 -0.449
   - k =  -0.357  0.214 -0.462
   - k =  -0.357  0.214 -0.475
   - k =  -0.357  0.214 -0.487
   - k =  -0.357  0.214 -0.500

  |-> Computing Wannier center evolution at k-point number:     14
 Using pol_lapack_version = 2
 Calculating Berry  term along reciprocal lattice vector 3:     0.000     0.000     0.840
 Calculating dipole term along reciprocal lattice vector 3:     0.000     0.000     0.840

  Treating all   80 k-points in band plot segment #  15:
   Sampling over :
   - k =  -0.357  0.357  0.500
   - k =  -0.357  0.357  0.487
   - k =  -0.357  0.357  0.475
   - k =  -0.357  0.357  0.462
   - k =  -0.357  0.357  0.449
   - k =  -0.357  0.357  0.437
   - k =  -0.357  0.357  0.424
   - k =  -0.357  0.357  0.411
   - k =  -0.357  0.357  0.399
   - k =  -0.357  0.357  0.386
   - k =  -0.357  0.357  0.373
   - k =  -0.357  0.357  0.361
   - k =  -0.357  0.357  0.348
   - k =  -0.357  0.357  0.335
   - k =  -0.357  0.357  0.323
   - k =  -0.357  0.357  0.310
   - k =  -0.357  0.357  0.297
   - k =  -0.357  0.357  0.285
   - k =  -0.357  0.357  0.272
   - k =  -0.357  0.357  0.259
   - k =  -0.357  0.357  0.247
   - k =  -0.357  0.357  0.234
   - k =  -0.357  0.357  0.222
   - k =  -0.357  0.357  0.209
   - k =  -0.357  0.357  0.196
   - k =  -0.357  0.357  0.184
   - k =  -0.357  0.357  0.171
   - k =  -0.357  0.357  0.158
   - k =  -0.357  0.357  0.146
   - k =  -0.357  0.357  0.133
   - k =  -0.357  0.357  0.120
   - k =  -0.357  0.357  0.108
   - k =  -0.357  0.357  0.095
   - k =  -0.357  0.357  0.082
   - k =  -0.357  0.357  0.070
   - k =  -0.357  0.357  0.057
   - k =  -0.357  0.357  0.044
   - k =  -0.357  0.357  0.032
   - k =  -0.357  0.357  0.019
   - k =  -0.357  0.357  0.006
   - k =  -0.357  0.357 -0.006
   - k =  -0.357  0.357 -0.019
   - k =  -0.357  0.357 -0.032
   - k =  -0.357  0.357 -0.044
   - k =  -0.357  0.357 -0.057
   - k =  -0.357  0.357 -0.070
   - k =  -0.357  0.357 -0.082
   - k =  -0.357  0.357 -0.095
   - k =  -0.357  0.357 -0.108
   - k =  -0.357  0.357 -0.120
   - k =  -0.357  0.357 -0.133
   - k =  -0.357  0.357 -0.146
   - k =  -0.357  0.357 -0.158
   - k =  -0.357  0.357 -0.171
   - k =  -0.357  0.357 -0.184
   - k =  -0.357  0.357 -0.196
   - k =  -0.357  0.357 -0.209
   - k =  -0.357  0.357 -0.222
   - k =  -0.357  0.357 -0.234
   - k =  -0.357  0.357 -0.247
   - k =  -0.357  0.357 -0.259
   - k =  -0.357  0.357 -0.272
   - k =  -0.357  0.357 -0.285
   - k =  -0.357  0.357 -0.297
   - k =  -0.357  0.357 -0.310
   - k =  -0.357  0.357 -0.323
   - k =  -0.357  0.357 -0.335
   - k =  -0.357  0.357 -0.348
   - k =  -0.357  0.357 -0.361
   - k =  -0.357  0.357 -0.373
   - k =  -0.357  0.357 -0.386
   - k =  -0.357  0.357 -0.399
   - k =  -0.357  0.357 -0.411
   - k =  -0.357  0.357 -0.424
   - k =  -0.357  0.357 -0.437
   - k =  -0.357  0.357 -0.449
   - k =  -0.357  0.357 -0.462
   - k =  -0.357  0.357 -0.475
   - k =  -0.357  0.357 -0.487
   - k =  -0.357  0.357 -0.500

  |-> Computing Wannier center evolution at k-point number:     15
 Using pol_lapack_version = 2
 Calculating Berry  term along reciprocal lattice vector 3:     0.000     0.000     0.840
 Calculating dipole term along reciprocal lattice vector 3:     0.000     0.000     0.840

  Treating all   80 k-points in band plot segment #  16:
   Sampling over :
   - k =  -0.357  0.500  0.500
   - k =  -0.357  0.500  0.487
   - k =  -0.357  0.500  0.475
   - k =  -0.357  0.500  0.462
   - k =  -0.357  0.500  0.449
   - k =  -0.357  0.500  0.437
   - k =  -0.357  0.500  0.424
   - k =  -0.357  0.500  0.411
   - k =  -0.357  0.500  0.399
   - k =  -0.357  0.500  0.386
   - k =  -0.357  0.500  0.373
   - k =  -0.357  0.500  0.361
   - k =  -0.357  0.500  0.348
   - k =  -0.357  0.500  0.335
   - k =  -0.357  0.500  0.323
   - k =  -0.357  0.500  0.310
   - k =  -0.357  0.500  0.297
   - k =  -0.357  0.500  0.285
   - k =  -0.357  0.500  0.272
   - k =  -0.357  0.500  0.259
   - k =  -0.357  0.500  0.247
   - k =  -0.357  0.500  0.234
   - k =  -0.357  0.500  0.222
   - k =  -0.357  0.500  0.209
   - k =  -0.357  0.500  0.196
   - k =  -0.357  0.500  0.184
   - k =  -0.357  0.500  0.171
   - k =  -0.357  0.500  0.158
   - k =  -0.357  0.500  0.146
   - k =  -0.357  0.500  0.133
   - k =  -0.357  0.500  0.120
   - k =  -0.357  0.500  0.108
   - k =  -0.357  0.500  0.095
   - k =  -0.357  0.500  0.082
   - k =  -0.357  0.500  0.070
   - k =  -0.357  0.500  0.057
   - k =  -0.357  0.500  0.044
   - k =  -0.357  0.500  0.032
   - k =  -0.357  0.500  0.019
   - k =  -0.357  0.500  0.006
   - k =  -0.357  0.500 -0.006
   - k =  -0.357  0.500 -0.019
   - k =  -0.357  0.500 -0.032
   - k =  -0.357  0.500 -0.044
   - k =  -0.357  0.500 -0.057
   - k =  -0.357  0.500 -0.070
   - k =  -0.357  0.500 -0.082
   - k =  -0.357  0.500 -0.095
   - k =  -0.357  0.500 -0.108
   - k =  -0.357  0.500 -0.120
   - k =  -0.357  0.500 -0.133
   - k =  -0.357  0.500 -0.146
   - k =  -0.357  0.500 -0.158
   - k =  -0.357  0.500 -0.171
   - k =  -0.357  0.500 -0.184
   - k =  -0.357  0.500 -0.196
   - k =  -0.357  0.500 -0.209
   - k =  -0.357  0.500 -0.222
   - k =  -0.357  0.500 -0.234
   - k =  -0.357  0.500 -0.247
   - k =  -0.357  0.500 -0.259
   - k =  -0.357  0.500 -0.272
   - k =  -0.357  0.500 -0.285
   - k =  -0.357  0.500 -0.297
   - k =  -0.357  0.500 -0.310
   - k =  -0.357  0.500 -0.323
   - k =  -0.357  0.500 -0.335
   - k =  -0.357  0.500 -0.348
   - k =  -0.357  0.500 -0.361
   - k =  -0.357  0.500 -0.373
   - k =  -0.357  0.500 -0.386
   - k =  -0.357  0.500 -0.399
   - k =  -0.357  0.500 -0.411
   - k =  -0.357  0.500 -0.424
   - k =  -0.357  0.500 -0.437
   - k =  -0.357  0.500 -0.449
   - k =  -0.357  0.500 -0.462
   - k =  -0.357  0.500 -0.475
   - k =  -0.357  0.500 -0.487
   - k =  -0.357  0.500 -0.500

  |-> Computing Wannier center evolution at k-point number:     16
 Using pol_lapack_version = 2
 Calculating Berry  term along reciprocal lattice vector 3:     0.000     0.000     0.840
 Calculating dipole term along reciprocal lattice vector 3:     0.000     0.000     0.840

  Treating all   80 k-points in band plot segment #  17:
   Sampling over :
   - k =  -0.214 -0.500  0.500
   - k =  -0.214 -0.500  0.487
   - k =  -0.214 -0.500  0.475
   - k =  -0.214 -0.500  0.462
   - k =  -0.214 -0.500  0.449
   - k =  -0.214 -0.500  0.437
   - k =  -0.214 -0.500  0.424
   - k =  -0.214 -0.500  0.411
   - k =  -0.214 -0.500  0.399
   - k =  -0.214 -0.500  0.386
   - k =  -0.214 -0.500  0.373
   - k =  -0.214 -0.500  0.361
   - k =  -0.214 -0.500  0.348
   - k =  -0.214 -0.500  0.335
   - k =  -0.214 -0.500  0.323
   - k =  -0.214 -0.500  0.310
   - k =  -0.214 -0.500  0.297
   - k =  -0.214 -0.500  0.285
   - k =  -0.214 -0.500  0.272
   - k =  -0.214 -0.500  0.259
   - k =  -0.214 -0.500  0.247
   - k =  -0.214 -0.500  0.234
   - k =  -0.214 -0.500  0.222
   - k =  -0.214 -0.500  0.209
   - k =  -0.214 -0.500  0.196
   - k =  -0.214 -0.500  0.184
   - k =  -0.214 -0.500  0.171
   - k =  -0.214 -0.500  0.158
   - k =  -0.214 -0.500  0.146
   - k =  -0.214 -0.500  0.133
   - k =  -0.214 -0.500  0.120
   - k =  -0.214 -0.500  0.108
   - k =  -0.214 -0.500  0.095
   - k =  -0.214 -0.500  0.082
   - k =  -0.214 -0.500  0.070
   - k =  -0.214 -0.500  0.057
   - k =  -0.214 -0.500  0.044
   - k =  -0.214 -0.500  0.032
   - k =  -0.214 -0.500  0.019
   - k =  -0.214 -0.500  0.006
   - k =  -0.214 -0.500 -0.006
   - k =  -0.214 -0.500 -0.019
   - k =  -0.214 -0.500 -0.032
   - k =  -0.214 -0.500 -0.044
   - k =  -0.214 -0.500 -0.057
   - k =  -0.214 -0.500 -0.070
   - k =  -0.214 -0.500 -0.082
   - k =  -0.214 -0.500 -0.095
   - k =  -0.214 -0.500 -0.108
   - k =  -0.214 -0.500 -0.120
   - k =  -0.214 -0.500 -0.133
   - k =  -0.214 -0.500 -0.146
   - k =  -0.214 -0.500 -0.158
   - k =  -0.214 -0.500 -0.171
   - k =  -0.214 -0.500 -0.184
   - k =  -0.214 -0.500 -0.196
   - k =  -0.214 -0.500 -0.209
   - k =  -0.214 -0.500 -0.222
   - k =  -0.214 -0.500 -0.234
   - k =  -0.214 -0.500 -0.247
   - k =  -0.214 -0.500 -0.259
   - k =  -0.214 -0.500 -0.272
   - k =  -0.214 -0.500 -0.285
   - k =  -0.214 -0.500 -0.297
   - k =  -0.214 -0.500 -0.310
   - k =  -0.214 -0.500 -0.323
   - k =  -0.214 -0.500 -0.335
   - k =  -0.214 -0.500 -0.348
   - k =  -0.214 -0.500 -0.361
   - k =  -0.214 -0.500 -0.373
   - k =  -0.214 -0.500 -0.386
   - k =  -0.214 -0.500 -0.399
   - k =  -0.214 -0.500 -0.411
   - k =  -0.214 -0.500 -0.424
   - k =  -0.214 -0.500 -0.437
   - k =  -0.214 -0.500 -0.449
   - k =  -0.214 -0.500 -0.462
   - k =  -0.214 -0.500 -0.475
   - k =  -0.214 -0.500 -0.487
   - k =  -0.214 -0.500 -0.500

  |-> Computing Wannier center evolution at k-point number:     17
 Using pol_lapack_version = 2
 Calculating Berry  term along reciprocal lattice vector 3:     0.000     0.000     0.840
 Calculating dipole term along reciprocal lattice vector 3:     0.000     0.000     0.840

  Treating all   80 k-points in band plot segment #  18:
   Sampling over :
   - k =  -0.214 -0.357  0.500
   - k =  -0.214 -0.357  0.487
   - k =  -0.214 -0.357  0.475
   - k =  -0.214 -0.357  0.462
   - k =  -0.214 -0.357  0.449
   - k =  -0.214 -0.357  0.437
   - k =  -0.214 -0.357  0.424
   - k =  -0.214 -0.357  0.411
   - k =  -0.214 -0.357  0.399
   - k =  -0.214 -0.357  0.386
   - k =  -0.214 -0.357  0.373
   - k =  -0.214 -0.357  0.361
   - k =  -0.214 -0.357  0.348
   - k =  -0.214 -0.357  0.335
   - k =  -0.214 -0.357  0.323
   - k =  -0.214 -0.357  0.310
   - k =  -0.214 -0.357  0.297
   - k =  -0.214 -0.357  0.285
   - k =  -0.214 -0.357  0.272
   - k =  -0.214 -0.357  0.259
   - k =  -0.214 -0.357  0.247
   - k =  -0.214 -0.357  0.234
   - k =  -0.214 -0.357  0.222
   - k =  -0.214 -0.357  0.209
   - k =  -0.214 -0.357  0.196
   - k =  -0.214 -0.357  0.184
   - k =  -0.214 -0.357  0.171
   - k =  -0.214 -0.357  0.158
   - k =  -0.214 -0.357  0.146
   - k =  -0.214 -0.357  0.133
   - k =  -0.214 -0.357  0.120
   - k =  -0.214 -0.357  0.108
   - k =  -0.214 -0.357  0.095
   - k =  -0.214 -0.357  0.082
   - k =  -0.214 -0.357  0.070
   - k =  -0.214 -0.357  0.057
   - k =  -0.214 -0.357  0.044
   - k =  -0.214 -0.357  0.032
   - k =  -0.214 -0.357  0.019
   - k =  -0.214 -0.357  0.006
   - k =  -0.214 -0.357 -0.006
   - k =  -0.214 -0.357 -0.019
   - k =  -0.214 -0.357 -0.032
   - k =  -0.214 -0.357 -0.044
   - k =  -0.214 -0.357 -0.057
   - k =  -0.214 -0.357 -0.070
   - k =  -0.214 -0.357 -0.082
   - k =  -0.214 -0.357 -0.095
   - k =  -0.214 -0.357 -0.108
   - k =  -0.214 -0.357 -0.120
   - k =  -0.214 -0.357 -0.133
   - k =  -0.214 -0.357 -0.146
   - k =  -0.214 -0.357 -0.158
   - k =  -0.214 -0.357 -0.171
   - k =  -0.214 -0.357 -0.184
   - k =  -0.214 -0.357 -0.196
   - k =  -0.214 -0.357 -0.209
   - k =  -0.214 -0.357 -0.222
   - k =  -0.214 -0.357 -0.234
   - k =  -0.214 -0.357 -0.247
   - k =  -0.214 -0.357 -0.259
   - k =  -0.214 -0.357 -0.272
   - k =  -0.214 -0.357 -0.285
   - k =  -0.214 -0.357 -0.297
   - k =  -0.214 -0.357 -0.310
   - k =  -0.214 -0.357 -0.323
   - k =  -0.214 -0.357 -0.335
   - k =  -0.214 -0.357 -0.348
   - k =  -0.214 -0.357 -0.361
   - k =  -0.214 -0.357 -0.373
   - k =  -0.214 -0.357 -0.386
   - k =  -0.214 -0.357 -0.399
   - k =  -0.214 -0.357 -0.411
   - k =  -0.214 -0.357 -0.424
   - k =  -0.214 -0.357 -0.437
   - k =  -0.214 -0.357 -0.449
   - k =  -0.214 -0.357 -0.462
   - k =  -0.214 -0.357 -0.475
   - k =  -0.214 -0.357 -0.487
   - k =  -0.214 -0.357 -0.500

  |-> Computing Wannier center evolution at k-point number:     18
 Using pol_lapack_version = 2
 Calculating Berry  term along reciprocal lattice vector 3:     0.000     0.000     0.840
 Calculating dipole term along reciprocal lattice vector 3:     0.000     0.000     0.840

  Treating all   80 k-points in band plot segment #  19:
   Sampling over :
   - k =  -0.214 -0.214  0.500
   - k =  -0.214 -0.214  0.487
   - k =  -0.214 -0.214  0.475
   - k =  -0.214 -0.214  0.462
   - k =  -0.214 -0.214  0.449
   - k =  -0.214 -0.214  0.437
   - k =  -0.214 -0.214  0.424
   - k =  -0.214 -0.214  0.411
   - k =  -0.214 -0.214  0.399
   - k =  -0.214 -0.214  0.386
   - k =  -0.214 -0.214  0.373
   - k =  -0.214 -0.214  0.361
   - k =  -0.214 -0.214  0.348
   - k =  -0.214 -0.214  0.335
   - k =  -0.214 -0.214  0.323
   - k =  -0.214 -0.214  0.310
   - k =  -0.214 -0.214  0.297
   - k =  -0.214 -0.214  0.285
   - k =  -0.214 -0.214  0.272
   - k =  -0.214 -0.214  0.259
   - k =  -0.214 -0.214  0.247
   - k =  -0.214 -0.214  0.234
   - k =  -0.214 -0.214  0.222
   - k =  -0.214 -0.214  0.209
   - k =  -0.214 -0.214  0.196
   - k =  -0.214 -0.214  0.184
   - k =  -0.214 -0.214  0.171
   - k =  -0.214 -0.214  0.158
   - k =  -0.214 -0.214  0.146
   - k =  -0.214 -0.214  0.133
   - k =  -0.214 -0.214  0.120
   - k =  -0.214 -0.214  0.108
   - k =  -0.214 -0.214  0.095
   - k =  -0.214 -0.214  0.082
   - k =  -0.214 -0.214  0.070
   - k =  -0.214 -0.214  0.057
   - k =  -0.214 -0.214  0.044
   - k =  -0.214 -0.214  0.032
   - k =  -0.214 -0.214  0.019
   - k =  -0.214 -0.214  0.006
   - k =  -0.214 -0.214 -0.006
   - k =  -0.214 -0.214 -0.019
   - k =  -0.214 -0.214 -0.032
   - k =  -0.214 -0.214 -0.044
   - k =  -0.214 -0.214 -0.057
   - k =  -0.214 -0.214 -0.070
   - k =  -0.214 -0.214 -0.082
   - k =  -0.214 -0.214 -0.095
   - k =  -0.214 -0.214 -0.108
   - k =  -0.214 -0.214 -0.120
   - k =  -0.214 -0.214 -0.133
   - k =  -0.214 -0.214 -0.146
   - k =  -0.214 -0.214 -0.158
   - k =  -0.214 -0.214 -0.171
   - k =  -0.214 -0.214 -0.184
   - k =  -0.214 -0.214 -0.196
   - k =  -0.214 -0.214 -0.209
   - k =  -0.214 -0.214 -0.222
   - k =  -0.214 -0.214 -0.234
   - k =  -0.214 -0.214 -0.247
   - k =  -0.214 -0.214 -0.259
   - k =  -0.214 -0.214 -0.272
   - k =  -0.214 -0.214 -0.285
   - k =  -0.214 -0.214 -0.297
   - k =  -0.214 -0.214 -0.310
   - k =  -0.214 -0.214 -0.323
   - k =  -0.214 -0.214 -0.335
   - k =  -0.214 -0.214 -0.348
   - k =  -0.214 -0.214 -0.361
   - k =  -0.214 -0.214 -0.373
   - k =  -0.214 -0.214 -0.386
   - k =  -0.214 -0.214 -0.399
   - k =  -0.214 -0.214 -0.411
   - k =  -0.214 -0.214 -0.424
   - k =  -0.214 -0.214 -0.437
   - k =  -0.214 -0.214 -0.449
   - k =  -0.214 -0.214 -0.462
   - k =  -0.214 -0.214 -0.475
   - k =  -0.214 -0.214 -0.487
   - k =  -0.214 -0.214 -0.500

  |-> Computing Wannier center evolution at k-point number:     19
 Using pol_lapack_version = 2
 Calculating Berry  term along reciprocal lattice vector 3:     0.000     0.000     0.840
 Calculating dipole term along reciprocal lattice vector 3:     0.000     0.000     0.840

  Treating all   80 k-points in band plot segment #  20:
   Sampling over :
   - k =  -0.214 -0.071  0.500
   - k =  -0.214 -0.071  0.487
   - k =  -0.214 -0.071  0.475
   - k =  -0.214 -0.071  0.462
   - k =  -0.214 -0.071  0.449
   - k =  -0.214 -0.071  0.437
   - k =  -0.214 -0.071  0.424
   - k =  -0.214 -0.071  0.411
   - k =  -0.214 -0.071  0.399
   - k =  -0.214 -0.071  0.386
   - k =  -0.214 -0.071  0.373
   - k =  -0.214 -0.071  0.361
   - k =  -0.214 -0.071  0.348
   - k =  -0.214 -0.071  0.335
   - k =  -0.214 -0.071  0.323
   - k =  -0.214 -0.071  0.310
   - k =  -0.214 -0.071  0.297
   - k =  -0.214 -0.071  0.285
   - k =  -0.214 -0.071  0.272
   - k =  -0.214 -0.071  0.259
   - k =  -0.214 -0.071  0.247
   - k =  -0.214 -0.071  0.234
   - k =  -0.214 -0.071  0.222
   - k =  -0.214 -0.071  0.209
   - k =  -0.214 -0.071  0.196
   - k =  -0.214 -0.071  0.184
   - k =  -0.214 -0.071  0.171
   - k =  -0.214 -0.071  0.158
   - k =  -0.214 -0.071  0.146
   - k =  -0.214 -0.071  0.133
   - k =  -0.214 -0.071  0.120
   - k =  -0.214 -0.071  0.108
   - k =  -0.214 -0.071  0.095
   - k =  -0.214 -0.071  0.082
   - k =  -0.214 -0.071  0.070
   - k =  -0.214 -0.071  0.057
   - k =  -0.214 -0.071  0.044
   - k =  -0.214 -0.071  0.032
   - k =  -0.214 -0.071  0.019
   - k =  -0.214 -0.071  0.006
   - k =  -0.214 -0.071 -0.006
   - k =  -0.214 -0.071 -0.019
   - k =  -0.214 -0.071 -0.032
   - k =  -0.214 -0.071 -0.044
   - k =  -0.214 -0.071 -0.057
   - k =  -0.214 -0.071 -0.070
   - k =  -0.214 -0.071 -0.082
   - k =  -0.214 -0.071 -0.095
   - k =  -0.214 -0.071 -0.108
   - k =  -0.214 -0.071 -0.120
   - k =  -0.214 -0.071 -0.133
   - k =  -0.214 -0.071 -0.146
   - k =  -0.214 -0.071 -0.158
   - k =  -0.214 -0.071 -0.171
   - k =  -0.214 -0.071 -0.184
   - k =  -0.214 -0.071 -0.196
   - k =  -0.214 -0.071 -0.209
   - k =  -0.214 -0.071 -0.222
   - k =  -0.214 -0.071 -0.234
   - k =  -0.214 -0.071 -0.247
   - k =  -0.214 -0.071 -0.259
   - k =  -0.214 -0.071 -0.272
   - k =  -0.214 -0.071 -0.285
   - k =  -0.214 -0.071 -0.297
   - k =  -0.214 -0.071 -0.310
   - k =  -0.214 -0.071 -0.323
   - k =  -0.214 -0.071 -0.335
   - k =  -0.214 -0.071 -0.348
   - k =  -0.214 -0.071 -0.361
   - k =  -0.214 -0.071 -0.373
   - k =  -0.214 -0.071 -0.386
   - k =  -0.214 -0.071 -0.399
   - k =  -0.214 -0.071 -0.411
   - k =  -0.214 -0.071 -0.424
   - k =  -0.214 -0.071 -0.437
   - k =  -0.214 -0.071 -0.449
   - k =  -0.214 -0.071 -0.462
   - k =  -0.214 -0.071 -0.475
   - k =  -0.214 -0.071 -0.487
   - k =  -0.214 -0.071 -0.500

  |-> Computing Wannier center evolution at k-point number:     20
 Using pol_lapack_version = 2
 Calculating Berry  term along reciprocal lattice vector 3:     0.000     0.000     0.840
 Calculating dipole term along reciprocal lattice vector 3:     0.000     0.000     0.840

  Treating all   80 k-points in band plot segment #  21:
   Sampling over :
   - k =  -0.214  0.071  0.500
   - k =  -0.214  0.071  0.487
   - k =  -0.214  0.071  0.475
   - k =  -0.214  0.071  0.462
   - k =  -0.214  0.071  0.449
   - k =  -0.214  0.071  0.437
   - k =  -0.214  0.071  0.424
   - k =  -0.214  0.071  0.411
   - k =  -0.214  0.071  0.399
   - k =  -0.214  0.071  0.386
   - k =  -0.214  0.071  0.373
   - k =  -0.214  0.071  0.361
   - k =  -0.214  0.071  0.348
   - k =  -0.214  0.071  0.335
   - k =  -0.214  0.071  0.323
   - k =  -0.214  0.071  0.310
   - k =  -0.214  0.071  0.297
   - k =  -0.214  0.071  0.285
   - k =  -0.214  0.071  0.272
   - k =  -0.214  0.071  0.259
   - k =  -0.214  0.071  0.247
   - k =  -0.214  0.071  0.234
   - k =  -0.214  0.071  0.222
   - k =  -0.214  0.071  0.209
   - k =  -0.214  0.071  0.196
   - k =  -0.214  0.071  0.184
   - k =  -0.214  0.071  0.171
   - k =  -0.214  0.071  0.158
   - k =  -0.214  0.071  0.146
   - k =  -0.214  0.071  0.133
   - k =  -0.214  0.071  0.120
   - k =  -0.214  0.071  0.108
   - k =  -0.214  0.071  0.095
   - k =  -0.214  0.071  0.082
   - k =  -0.214  0.071  0.070
   - k =  -0.214  0.071  0.057
   - k =  -0.214  0.071  0.044
   - k =  -0.214  0.071  0.032
   - k =  -0.214  0.071  0.019
   - k =  -0.214  0.071  0.006
   - k =  -0.214  0.071 -0.006
   - k =  -0.214  0.071 -0.019
   - k =  -0.214  0.071 -0.032
   - k =  -0.214  0.071 -0.044
   - k =  -0.214  0.071 -0.057
   - k =  -0.214  0.071 -0.070
   - k =  -0.214  0.071 -0.082
   - k =  -0.214  0.071 -0.095
   - k =  -0.214  0.071 -0.108
   - k =  -0.214  0.071 -0.120
   - k =  -0.214  0.071 -0.133
   - k =  -0.214  0.071 -0.146
   - k =  -0.214  0.071 -0.158
   - k =  -0.214  0.071 -0.171
   - k =  -0.214  0.071 -0.184
   - k =  -0.214  0.071 -0.196
   - k =  -0.214  0.071 -0.209
   - k =  -0.214  0.071 -0.222
   - k =  -0.214  0.071 -0.234
   - k =  -0.214  0.071 -0.247
   - k =  -0.214  0.071 -0.259
   - k =  -0.214  0.071 -0.272
   - k =  -0.214  0.071 -0.285
   - k =  -0.214  0.071 -0.297
   - k =  -0.214  0.071 -0.310
   - k =  -0.214  0.071 -0.323
   - k =  -0.214  0.071 -0.335
   - k =  -0.214  0.071 -0.348
   - k =  -0.214  0.071 -0.361
   - k =  -0.214  0.071 -0.373
   - k =  -0.214  0.071 -0.386
   - k =  -0.214  0.071 -0.399
   - k =  -0.214  0.071 -0.411
   - k =  -0.214  0.071 -0.424
   - k =  -0.214  0.071 -0.437
   - k =  -0.214  0.071 -0.449
   - k =  -0.214  0.071 -0.462
   - k =  -0.214  0.071 -0.475
   - k =  -0.214  0.071 -0.487
   - k =  -0.214  0.071 -0.500

  |-> Computing Wannier center evolution at k-point number:     21
 Using pol_lapack_version = 2
 Calculating Berry  term along reciprocal lattice vector 3:     0.000     0.000     0.840
 Calculating dipole term along reciprocal lattice vector 3:     0.000     0.000     0.840

  Treating all   80 k-points in band plot segment #  22:
   Sampling over :
   - k =  -0.214  0.214  0.500
   - k =  -0.214  0.214  0.487
   - k =  -0.214  0.214  0.475
   - k =  -0.214  0.214  0.462
   - k =  -0.214  0.214  0.449
   - k =  -0.214  0.214  0.437
   - k =  -0.214  0.214  0.424
   - k =  -0.214  0.214  0.411
   - k =  -0.214  0.214  0.399
   - k =  -0.214  0.214  0.386
   - k =  -0.214  0.214  0.373
   - k =  -0.214  0.214  0.361
   - k =  -0.214  0.214  0.348
   - k =  -0.214  0.214  0.335
   - k =  -0.214  0.214  0.323
   - k =  -0.214  0.214  0.310
   - k =  -0.214  0.214  0.297
   - k =  -0.214  0.214  0.285
   - k =  -0.214  0.214  0.272
   - k =  -0.214  0.214  0.259
   - k =  -0.214  0.214  0.247
   - k =  -0.214  0.214  0.234
   - k =  -0.214  0.214  0.222
   - k =  -0.214  0.214  0.209
   - k =  -0.214  0.214  0.196
   - k =  -0.214  0.214  0.184
   - k =  -0.214  0.214  0.171
   - k =  -0.214  0.214  0.158
   - k =  -0.214  0.214  0.146
   - k =  -0.214  0.214  0.133
   - k =  -0.214  0.214  0.120
   - k =  -0.214  0.214  0.108
   - k =  -0.214  0.214  0.095
   - k =  -0.214  0.214  0.082
   - k =  -0.214  0.214  0.070
   - k =  -0.214  0.214  0.057
   - k =  -0.214  0.214  0.044
   - k =  -0.214  0.214  0.032
   - k =  -0.214  0.214  0.019
   - k =  -0.214  0.214  0.006
   - k =  -0.214  0.214 -0.006
   - k =  -0.214  0.214 -0.019
   - k =  -0.214  0.214 -0.032
   - k =  -0.214  0.214 -0.044
   - k =  -0.214  0.214 -0.057
   - k =  -0.214  0.214 -0.070
   - k =  -0.214  0.214 -0.082
   - k =  -0.214  0.214 -0.095
   - k =  -0.214  0.214 -0.108
   - k =  -0.214  0.214 -0.120
   - k =  -0.214  0.214 -0.133
   - k =  -0.214  0.214 -0.146
   - k =  -0.214  0.214 -0.158
   - k =  -0.214  0.214 -0.171
   - k =  -0.214  0.214 -0.184
   - k =  -0.214  0.214 -0.196
   - k =  -0.214  0.214 -0.209
   - k =  -0.214  0.214 -0.222
   - k =  -0.214  0.214 -0.234
   - k =  -0.214  0.214 -0.247
   - k =  -0.214  0.214 -0.259
   - k =  -0.214  0.214 -0.272
   - k =  -0.214  0.214 -0.285
   - k =  -0.214  0.214 -0.297
   - k =  -0.214  0.214 -0.310
   - k =  -0.214  0.214 -0.323
   - k =  -0.214  0.214 -0.335
   - k =  -0.214  0.214 -0.348
   - k =  -0.214  0.214 -0.361
   - k =  -0.214  0.214 -0.373
   - k =  -0.214  0.214 -0.386
   - k =  -0.214  0.214 -0.399
   - k =  -0.214  0.214 -0.411
   - k =  -0.214  0.214 -0.424
   - k =  -0.214  0.214 -0.437
   - k =  -0.214  0.214 -0.449
   - k =  -0.214  0.214 -0.462
   - k =  -0.214  0.214 -0.475
   - k =  -0.214  0.214 -0.487
   - k =  -0.214  0.214 -0.500

  |-> Computing Wannier center evolution at k-point number:     22
 Using pol_lapack_version = 2
 Calculating Berry  term along reciprocal lattice vector 3:     0.000     0.000     0.840
 Calculating dipole term along reciprocal lattice vector 3:     0.000     0.000     0.840

  Treating all   80 k-points in band plot segment #  23:
   Sampling over :
   - k =  -0.214  0.357  0.500
   - k =  -0.214  0.357  0.487
   - k =  -0.214  0.357  0.475
   - k =  -0.214  0.357  0.462
   - k =  -0.214  0.357  0.449
   - k =  -0.214  0.357  0.437
   - k =  -0.214  0.357  0.424
   - k =  -0.214  0.357  0.411
   - k =  -0.214  0.357  0.399
   - k =  -0.214  0.357  0.386
   - k =  -0.214  0.357  0.373
   - k =  -0.214  0.357  0.361
   - k =  -0.214  0.357  0.348
   - k =  -0.214  0.357  0.335
   - k =  -0.214  0.357  0.323
   - k =  -0.214  0.357  0.310
   - k =  -0.214  0.357  0.297
   - k =  -0.214  0.357  0.285
   - k =  -0.214  0.357  0.272
   - k =  -0.214  0.357  0.259
   - k =  -0.214  0.357  0.247
   - k =  -0.214  0.357  0.234
   - k =  -0.214  0.357  0.222
   - k =  -0.214  0.357  0.209
   - k =  -0.214  0.357  0.196
   - k =  -0.214  0.357  0.184
   - k =  -0.214  0.357  0.171
   - k =  -0.214  0.357  0.158
   - k =  -0.214  0.357  0.146
   - k =  -0.214  0.357  0.133
   - k =  -0.214  0.357  0.120
   - k =  -0.214  0.357  0.108
   - k =  -0.214  0.357  0.095
   - k =  -0.214  0.357  0.082
   - k =  -0.214  0.357  0.070
   - k =  -0.214  0.357  0.057
   - k =  -0.214  0.357  0.044
   - k =  -0.214  0.357  0.032
   - k =  -0.214  0.357  0.019
   - k =  -0.214  0.357  0.006
   - k =  -0.214  0.357 -0.006
   - k =  -0.214  0.357 -0.019
   - k =  -0.214  0.357 -0.032
   - k =  -0.214  0.357 -0.044
   - k =  -0.214  0.357 -0.057
   - k =  -0.214  0.357 -0.070
   - k =  -0.214  0.357 -0.082
   - k =  -0.214  0.357 -0.095
   - k =  -0.214  0.357 -0.108
   - k =  -0.214  0.357 -0.120
   - k =  -0.214  0.357 -0.133
   - k =  -0.214  0.357 -0.146
   - k =  -0.214  0.357 -0.158
   - k =  -0.214  0.357 -0.171
   - k =  -0.214  0.357 -0.184
   - k =  -0.214  0.357 -0.196
   - k =  -0.214  0.357 -0.209
   - k =  -0.214  0.357 -0.222
   - k =  -0.214  0.357 -0.234
   - k =  -0.214  0.357 -0.247
   - k =  -0.214  0.357 -0.259
   - k =  -0.214  0.357 -0.272
   - k =  -0.214  0.357 -0.285
   - k =  -0.214  0.357 -0.297
   - k =  -0.214  0.357 -0.310
   - k =  -0.214  0.357 -0.323
   - k =  -0.214  0.357 -0.335
   - k =  -0.214  0.357 -0.348
   - k =  -0.214  0.357 -0.361
   - k =  -0.214  0.357 -0.373
   - k =  -0.214  0.357 -0.386
   - k =  -0.214  0.357 -0.399
   - k =  -0.214  0.357 -0.411
   - k =  -0.214  0.357 -0.424
   - k =  -0.214  0.357 -0.437
   - k =  -0.214  0.357 -0.449
   - k =  -0.214  0.357 -0.462
   - k =  -0.214  0.357 -0.475
   - k =  -0.214  0.357 -0.487
   - k =  -0.214  0.357 -0.500

  |-> Computing Wannier center evolution at k-point number:     23
 Using pol_lapack_version = 2
 Calculating Berry  term along reciprocal lattice vector 3:     0.000     0.000     0.840
 Calculating dipole term along reciprocal lattice vector 3:     0.000     0.000     0.840

  Treating all   80 k-points in band plot segment #  24:
   Sampling over :
   - k =  -0.214  0.500  0.500
   - k =  -0.214  0.500  0.487
   - k =  -0.214  0.500  0.475
   - k =  -0.214  0.500  0.462
   - k =  -0.214  0.500  0.449
   - k =  -0.214  0.500  0.437
   - k =  -0.214  0.500  0.424
   - k =  -0.214  0.500  0.411
   - k =  -0.214  0.500  0.399
   - k =  -0.214  0.500  0.386
   - k =  -0.214  0.500  0.373
   - k =  -0.214  0.500  0.361
   - k =  -0.214  0.500  0.348
   - k =  -0.214  0.500  0.335
   - k =  -0.214  0.500  0.323
   - k =  -0.214  0.500  0.310
   - k =  -0.214  0.500  0.297
   - k =  -0.214  0.500  0.285
   - k =  -0.214  0.500  0.272
   - k =  -0.214  0.500  0.259
   - k =  -0.214  0.500  0.247
   - k =  -0.214  0.500  0.234
   - k =  -0.214  0.500  0.222
   - k =  -0.214  0.500  0.209
   - k =  -0.214  0.500  0.196
   - k =  -0.214  0.500  0.184
   - k =  -0.214  0.500  0.171
   - k =  -0.214  0.500  0.158
   - k =  -0.214  0.500  0.146
   - k =  -0.214  0.500  0.133
   - k =  -0.214  0.500  0.120
   - k =  -0.214  0.500  0.108
   - k =  -0.214  0.500  0.095
   - k =  -0.214  0.500  0.082
   - k =  -0.214  0.500  0.070
   - k =  -0.214  0.500  0.057
   - k =  -0.214  0.500  0.044
   - k =  -0.214  0.500  0.032
   - k =  -0.214  0.500  0.019
   - k =  -0.214  0.500  0.006
   - k =  -0.214  0.500 -0.006
   - k =  -0.214  0.500 -0.019
   - k =  -0.214  0.500 -0.032
   - k =  -0.214  0.500 -0.044
   - k =  -0.214  0.500 -0.057
   - k =  -0.214  0.500 -0.070
   - k =  -0.214  0.500 -0.082
   - k =  -0.214  0.500 -0.095
   - k =  -0.214  0.500 -0.108
   - k =  -0.214  0.500 -0.120
   - k =  -0.214  0.500 -0.133
   - k =  -0.214  0.500 -0.146
   - k =  -0.214  0.500 -0.158
   - k =  -0.214  0.500 -0.171
   - k =  -0.214  0.500 -0.184
   - k =  -0.214  0.500 -0.196
   - k =  -0.214  0.500 -0.209
   - k =  -0.214  0.500 -0.222
   - k =  -0.214  0.500 -0.234
   - k =  -0.214  0.500 -0.247
   - k =  -0.214  0.500 -0.259
   - k =  -0.214  0.500 -0.272
   - k =  -0.214  0.500 -0.285
   - k =  -0.214  0.500 -0.297
   - k =  -0.214  0.500 -0.310
   - k =  -0.214  0.500 -0.323
   - k =  -0.214  0.500 -0.335
   - k =  -0.214  0.500 -0.348
   - k =  -0.214  0.500 -0.361
   - k =  -0.214  0.500 -0.373
   - k =  -0.214  0.500 -0.386
   - k =  -0.214  0.500 -0.399
   - k =  -0.214  0.500 -0.411
   - k =  -0.214  0.500 -0.424
   - k =  -0.214  0.500 -0.437
   - k =  -0.214  0.500 -0.449
   - k =  -0.214  0.500 -0.462
   - k =  -0.214  0.500 -0.475
   - k =  -0.214  0.500 -0.487
   - k =  -0.214  0.500 -0.500

  |-> Computing Wannier center evolution at k-point number:     24
 Using pol_lapack_version = 2
 Calculating Berry  term along reciprocal lattice vector 3:     0.000     0.000     0.840
 Calculating dipole term along reciprocal lattice vector 3:     0.000     0.000     0.840

  Treating all   80 k-points in band plot segment #  25:
   Sampling over :
   - k =  -0.071 -0.500  0.500
   - k =  -0.071 -0.500  0.487
   - k =  -0.071 -0.500  0.475
   - k =  -0.071 -0.500  0.462
   - k =  -0.071 -0.500  0.449
   - k =  -0.071 -0.500  0.437
   - k =  -0.071 -0.500  0.424
   - k =  -0.071 -0.500  0.411
   - k =  -0.071 -0.500  0.399
   - k =  -0.071 -0.500  0.386
   - k =  -0.071 -0.500  0.373
   - k =  -0.071 -0.500  0.361
   - k =  -0.071 -0.500  0.348
   - k =  -0.071 -0.500  0.335
   - k =  -0.071 -0.500  0.323
   - k =  -0.071 -0.500  0.310
   - k =  -0.071 -0.500  0.297
   - k =  -0.071 -0.500  0.285
   - k =  -0.071 -0.500  0.272
   - k =  -0.071 -0.500  0.259
   - k =  -0.071 -0.500  0.247
   - k =  -0.071 -0.500  0.234
   - k =  -0.071 -0.500  0.222
   - k =  -0.071 -0.500  0.209
   - k =  -0.071 -0.500  0.196
   - k =  -0.071 -0.500  0.184
   - k =  -0.071 -0.500  0.171
   - k =  -0.071 -0.500  0.158
   - k =  -0.071 -0.500  0.146
   - k =  -0.071 -0.500  0.133
   - k =  -0.071 -0.500  0.120
   - k =  -0.071 -0.500  0.108
   - k =  -0.071 -0.500  0.095
   - k =  -0.071 -0.500  0.082
   - k =  -0.071 -0.500  0.070
   - k =  -0.071 -0.500  0.057
   - k =  -0.071 -0.500  0.044
   - k =  -0.071 -0.500  0.032
   - k =  -0.071 -0.500  0.019
   - k =  -0.071 -0.500  0.006
   - k =  -0.071 -0.500 -0.006
   - k =  -0.071 -0.500 -0.019
   - k =  -0.071 -0.500 -0.032
   - k =  -0.071 -0.500 -0.044
   - k =  -0.071 -0.500 -0.057
   - k =  -0.071 -0.500 -0.070
   - k =  -0.071 -0.500 -0.082
   - k =  -0.071 -0.500 -0.095
   - k =  -0.071 -0.500 -0.108
   - k =  -0.071 -0.500 -0.120
   - k =  -0.071 -0.500 -0.133
   - k =  -0.071 -0.500 -0.146
   - k =  -0.071 -0.500 -0.158
   - k =  -0.071 -0.500 -0.171
   - k =  -0.071 -0.500 -0.184
   - k =  -0.071 -0.500 -0.196
   - k =  -0.071 -0.500 -0.209
   - k =  -0.071 -0.500 -0.222
   - k =  -0.071 -0.500 -0.234
   - k =  -0.071 -0.500 -0.247
   - k =  -0.071 -0.500 -0.259
   - k =  -0.071 -0.500 -0.272
   - k =  -0.071 -0.500 -0.285
   - k =  -0.071 -0.500 -0.297
   - k =  -0.071 -0.500 -0.310
   - k =  -0.071 -0.500 -0.323
   - k =  -0.071 -0.500 -0.335
   - k =  -0.071 -0.500 -0.348
   - k =  -0.071 -0.500 -0.361
   - k =  -0.071 -0.500 -0.373
   - k =  -0.071 -0.500 -0.386
   - k =  -0.071 -0.500 -0.399
   - k =  -0.071 -0.500 -0.411
   - k =  -0.071 -0.500 -0.424
   - k =  -0.071 -0.500 -0.437
   - k =  -0.071 -0.500 -0.449
   - k =  -0.071 -0.500 -0.462
   - k =  -0.071 -0.500 -0.475
   - k =  -0.071 -0.500 -0.487
   - k =  -0.071 -0.500 -0.500

  |-> Computing Wannier center evolution at k-point number:     25
 Using pol_lapack_version = 2
 Calculating Berry  term along reciprocal lattice vector 3:     0.000     0.000     0.840
 Calculating dipole term along reciprocal lattice vector 3:     0.000     0.000     0.840

  Treating all   80 k-points in band plot segment #  26:
   Sampling over :
   - k =  -0.071 -0.357  0.500
   - k =  -0.071 -0.357  0.487
   - k =  -0.071 -0.357  0.475
   - k =  -0.071 -0.357  0.462
   - k =  -0.071 -0.357  0.449
   - k =  -0.071 -0.357  0.437
   - k =  -0.071 -0.357  0.424
   - k =  -0.071 -0.357  0.411
   - k =  -0.071 -0.357  0.399
   - k =  -0.071 -0.357  0.386
   - k =  -0.071 -0.357  0.373
   - k =  -0.071 -0.357  0.361
   - k =  -0.071 -0.357  0.348
   - k =  -0.071 -0.357  0.335
   - k =  -0.071 -0.357  0.323
   - k =  -0.071 -0.357  0.310
   - k =  -0.071 -0.357  0.297
   - k =  -0.071 -0.357  0.285
   - k =  -0.071 -0.357  0.272
   - k =  -0.071 -0.357  0.259
   - k =  -0.071 -0.357  0.247
   - k =  -0.071 -0.357  0.234
   - k =  -0.071 -0.357  0.222
   - k =  -0.071 -0.357  0.209
   - k =  -0.071 -0.357  0.196
   - k =  -0.071 -0.357  0.184
   - k =  -0.071 -0.357  0.171
   - k =  -0.071 -0.357  0.158
   - k =  -0.071 -0.357  0.146
   - k =  -0.071 -0.357  0.133
   - k =  -0.071 -0.357  0.120
   - k =  -0.071 -0.357  0.108
   - k =  -0.071 -0.357  0.095
   - k =  -0.071 -0.357  0.082
   - k =  -0.071 -0.357  0.070
   - k =  -0.071 -0.357  0.057
   - k =  -0.071 -0.357  0.044
   - k =  -0.071 -0.357  0.032
   - k =  -0.071 -0.357  0.019
   - k =  -0.071 -0.357  0.006
   - k =  -0.071 -0.357 -0.006
   - k =  -0.071 -0.357 -0.019
   - k =  -0.071 -0.357 -0.032
   - k =  -0.071 -0.357 -0.044
   - k =  -0.071 -0.357 -0.057
   - k =  -0.071 -0.357 -0.070
   - k =  -0.071 -0.357 -0.082
   - k =  -0.071 -0.357 -0.095
   - k =  -0.071 -0.357 -0.108
   - k =  -0.071 -0.357 -0.120
   - k =  -0.071 -0.357 -0.133
   - k =  -0.071 -0.357 -0.146
   - k =  -0.071 -0.357 -0.158
   - k =  -0.071 -0.357 -0.171
   - k =  -0.071 -0.357 -0.184
   - k =  -0.071 -0.357 -0.196
   - k =  -0.071 -0.357 -0.209
   - k =  -0.071 -0.357 -0.222
   - k =  -0.071 -0.357 -0.234
   - k =  -0.071 -0.357 -0.247
   - k =  -0.071 -0.357 -0.259
   - k =  -0.071 -0.357 -0.272
   - k =  -0.071 -0.357 -0.285
   - k =  -0.071 -0.357 -0.297
   - k =  -0.071 -0.357 -0.310
   - k =  -0.071 -0.357 -0.323
   - k =  -0.071 -0.357 -0.335
   - k =  -0.071 -0.357 -0.348
   - k =  -0.071 -0.357 -0.361
   - k =  -0.071 -0.357 -0.373
   - k =  -0.071 -0.357 -0.386
   - k =  -0.071 -0.357 -0.399
   - k =  -0.071 -0.357 -0.411
   - k =  -0.071 -0.357 -0.424
   - k =  -0.071 -0.357 -0.437
   - k =  -0.071 -0.357 -0.449
   - k =  -0.071 -0.357 -0.462
   - k =  -0.071 -0.357 -0.475
   - k =  -0.071 -0.357 -0.487
   - k =  -0.071 -0.357 -0.500

  |-> Computing Wannier center evolution at k-point number:     26
 Using pol_lapack_version = 2
 Calculating Berry  term along reciprocal lattice vector 3:     0.000     0.000     0.840
 Calculating dipole term along reciprocal lattice vector 3:     0.000     0.000     0.840

  Treating all   80 k-points in band plot segment #  27:
   Sampling over :
   - k =  -0.071 -0.214  0.500
   - k =  -0.071 -0.214  0.487
   - k =  -0.071 -0.214  0.475
   - k =  -0.071 -0.214  0.462
   - k =  -0.071 -0.214  0.449
   - k =  -0.071 -0.214  0.437
   - k =  -0.071 -0.214  0.424
   - k =  -0.071 -0.214  0.411
   - k =  -0.071 -0.214  0.399
   - k =  -0.071 -0.214  0.386
   - k =  -0.071 -0.214  0.373
   - k =  -0.071 -0.214  0.361
   - k =  -0.071 -0.214  0.348
   - k =  -0.071 -0.214  0.335
   - k =  -0.071 -0.214  0.323
   - k =  -0.071 -0.214  0.310
   - k =  -0.071 -0.214  0.297
   - k =  -0.071 -0.214  0.285
   - k =  -0.071 -0.214  0.272
   - k =  -0.071 -0.214  0.259
   - k =  -0.071 -0.214  0.247
   - k =  -0.071 -0.214  0.234
   - k =  -0.071 -0.214  0.222
   - k =  -0.071 -0.214  0.209
   - k =  -0.071 -0.214  0.196
   - k =  -0.071 -0.214  0.184
   - k =  -0.071 -0.214  0.171
   - k =  -0.071 -0.214  0.158
   - k =  -0.071 -0.214  0.146
   - k =  -0.071 -0.214  0.133
   - k =  -0.071 -0.214  0.120
   - k =  -0.071 -0.214  0.108
   - k =  -0.071 -0.214  0.095
   - k =  -0.071 -0.214  0.082
   - k =  -0.071 -0.214  0.070
   - k =  -0.071 -0.214  0.057
   - k =  -0.071 -0.214  0.044
   - k =  -0.071 -0.214  0.032
   - k =  -0.071 -0.214  0.019
   - k =  -0.071 -0.214  0.006
   - k =  -0.071 -0.214 -0.006
   - k =  -0.071 -0.214 -0.019
   - k =  -0.071 -0.214 -0.032
   - k =  -0.071 -0.214 -0.044
   - k =  -0.071 -0.214 -0.057
   - k =  -0.071 -0.214 -0.070
   - k =  -0.071 -0.214 -0.082
   - k =  -0.071 -0.214 -0.095
   - k =  -0.071 -0.214 -0.108
   - k =  -0.071 -0.214 -0.120
   - k =  -0.071 -0.214 -0.133
   - k =  -0.071 -0.214 -0.146
   - k =  -0.071 -0.214 -0.158
   - k =  -0.071 -0.214 -0.171
   - k =  -0.071 -0.214 -0.184
   - k =  -0.071 -0.214 -0.196
   - k =  -0.071 -0.214 -0.209
   - k =  -0.071 -0.214 -0.222
   - k =  -0.071 -0.214 -0.234
   - k =  -0.071 -0.214 -0.247
   - k =  -0.071 -0.214 -0.259
   - k =  -0.071 -0.214 -0.272
   - k =  -0.071 -0.214 -0.285
   - k =  -0.071 -0.214 -0.297
   - k =  -0.071 -0.214 -0.310
   - k =  -0.071 -0.214 -0.323
   - k =  -0.071 -0.214 -0.335
   - k =  -0.071 -0.214 -0.348
   - k =  -0.071 -0.214 -0.361
   - k =  -0.071 -0.214 -0.373
   - k =  -0.071 -0.214 -0.386
   - k =  -0.071 -0.214 -0.399
   - k =  -0.071 -0.214 -0.411
   - k =  -0.071 -0.214 -0.424
   - k =  -0.071 -0.214 -0.437
   - k =  -0.071 -0.214 -0.449
   - k =  -0.071 -0.214 -0.462
   - k =  -0.071 -0.214 -0.475
   - k =  -0.071 -0.214 -0.487
   - k =  -0.071 -0.214 -0.500

  |-> Computing Wannier center evolution at k-point number:     27
 Using pol_lapack_version = 2
 Calculating Berry  term along reciprocal lattice vector 3:     0.000     0.000     0.840
 Calculating dipole term along reciprocal lattice vector 3:     0.000     0.000     0.840

  Treating all   80 k-points in band plot segment #  28:
   Sampling over :
   - k =  -0.071 -0.071  0.500
   - k =  -0.071 -0.071  0.487
   - k =  -0.071 -0.071  0.475
   - k =  -0.071 -0.071  0.462
   - k =  -0.071 -0.071  0.449
   - k =  -0.071 -0.071  0.437
   - k =  -0.071 -0.071  0.424
   - k =  -0.071 -0.071  0.411
   - k =  -0.071 -0.071  0.399
   - k =  -0.071 -0.071  0.386
   - k =  -0.071 -0.071  0.373
   - k =  -0.071 -0.071  0.361
   - k =  -0.071 -0.071  0.348
   - k =  -0.071 -0.071  0.335
   - k =  -0.071 -0.071  0.323
   - k =  -0.071 -0.071  0.310
   - k =  -0.071 -0.071  0.297
   - k =  -0.071 -0.071  0.285
   - k =  -0.071 -0.071  0.272
   - k =  -0.071 -0.071  0.259
   - k =  -0.071 -0.071  0.247
   - k =  -0.071 -0.071  0.234
   - k =  -0.071 -0.071  0.222
   - k =  -0.071 -0.071  0.209
   - k =  -0.071 -0.071  0.196
   - k =  -0.071 -0.071  0.184
   - k =  -0.071 -0.071  0.171
   - k =  -0.071 -0.071  0.158
   - k =  -0.071 -0.071  0.146
   - k =  -0.071 -0.071  0.133
   - k =  -0.071 -0.071  0.120
   - k =  -0.071 -0.071  0.108
   - k =  -0.071 -0.071  0.095
   - k =  -0.071 -0.071  0.082
   - k =  -0.071 -0.071  0.070
   - k =  -0.071 -0.071  0.057
   - k =  -0.071 -0.071  0.044
   - k =  -0.071 -0.071  0.032
   - k =  -0.071 -0.071  0.019
   - k =  -0.071 -0.071  0.006
   - k =  -0.071 -0.071 -0.006
   - k =  -0.071 -0.071 -0.019
   - k =  -0.071 -0.071 -0.032
   - k =  -0.071 -0.071 -0.044
   - k =  -0.071 -0.071 -0.057
   - k =  -0.071 -0.071 -0.070
   - k =  -0.071 -0.071 -0.082
   - k =  -0.071 -0.071 -0.095
   - k =  -0.071 -0.071 -0.108
   - k =  -0.071 -0.071 -0.120
   - k =  -0.071 -0.071 -0.133
   - k =  -0.071 -0.071 -0.146
   - k =  -0.071 -0.071 -0.158
   - k =  -0.071 -0.071 -0.171
   - k =  -0.071 -0.071 -0.184
   - k =  -0.071 -0.071 -0.196
   - k =  -0.071 -0.071 -0.209
   - k =  -0.071 -0.071 -0.222
   - k =  -0.071 -0.071 -0.234
   - k =  -0.071 -0.071 -0.247
   - k =  -0.071 -0.071 -0.259
   - k =  -0.071 -0.071 -0.272
   - k =  -0.071 -0.071 -0.285
   - k =  -0.071 -0.071 -0.297
   - k =  -0.071 -0.071 -0.310
   - k =  -0.071 -0.071 -0.323
   - k =  -0.071 -0.071 -0.335
   - k =  -0.071 -0.071 -0.348
   - k =  -0.071 -0.071 -0.361
   - k =  -0.071 -0.071 -0.373
   - k =  -0.071 -0.071 -0.386
   - k =  -0.071 -0.071 -0.399
   - k =  -0.071 -0.071 -0.411
   - k =  -0.071 -0.071 -0.424
   - k =  -0.071 -0.071 -0.437
   - k =  -0.071 -0.071 -0.449
   - k =  -0.071 -0.071 -0.462
   - k =  -0.071 -0.071 -0.475
   - k =  -0.071 -0.071 -0.487
   - k =  -0.071 -0.071 -0.500

  |-> Computing Wannier center evolution at k-point number:     28
 Using pol_lapack_version = 2
 Calculating Berry  term along reciprocal lattice vector 3:     0.000     0.000     0.840
 Calculating dipole term along reciprocal lattice vector 3:     0.000     0.000     0.840

  Treating all   80 k-points in band plot segment #  29:
   Sampling over :
   - k =  -0.071  0.071  0.500
   - k =  -0.071  0.071  0.487
   - k =  -0.071  0.071  0.475
   - k =  -0.071  0.071  0.462
   - k =  -0.071  0.071  0.449
   - k =  -0.071  0.071  0.437
   - k =  -0.071  0.071  0.424
   - k =  -0.071  0.071  0.411
   - k =  -0.071  0.071  0.399
   - k =  -0.071  0.071  0.386
   - k =  -0.071  0.071  0.373
   - k =  -0.071  0.071  0.361
   - k =  -0.071  0.071  0.348
   - k =  -0.071  0.071  0.335
   - k =  -0.071  0.071  0.323
   - k =  -0.071  0.071  0.310
   - k =  -0.071  0.071  0.297
   - k =  -0.071  0.071  0.285
   - k =  -0.071  0.071  0.272
   - k =  -0.071  0.071  0.259
   - k =  -0.071  0.071  0.247
   - k =  -0.071  0.071  0.234
   - k =  -0.071  0.071  0.222
   - k =  -0.071  0.071  0.209
   - k =  -0.071  0.071  0.196
   - k =  -0.071  0.071  0.184
   - k =  -0.071  0.071  0.171
   - k =  -0.071  0.071  0.158
   - k =  -0.071  0.071  0.146
   - k =  -0.071  0.071  0.133
   - k =  -0.071  0.071  0.120
   - k =  -0.071  0.071  0.108
   - k =  -0.071  0.071  0.095
   - k =  -0.071  0.071  0.082
   - k =  -0.071  0.071  0.070
   - k =  -0.071  0.071  0.057
   - k =  -0.071  0.071  0.044
   - k =  -0.071  0.071  0.032
   - k =  -0.071  0.071  0.019
   - k =  -0.071  0.071  0.006
   - k =  -0.071  0.071 -0.006
   - k =  -0.071  0.071 -0.019
   - k =  -0.071  0.071 -0.032
   - k =  -0.071  0.071 -0.044
   - k =  -0.071  0.071 -0.057
   - k =  -0.071  0.071 -0.070
   - k =  -0.071  0.071 -0.082
   - k =  -0.071  0.071 -0.095
   - k =  -0.071  0.071 -0.108
   - k =  -0.071  0.071 -0.120
   - k =  -0.071  0.071 -0.133
   - k =  -0.071  0.071 -0.146
   - k =  -0.071  0.071 -0.158
   - k =  -0.071  0.071 -0.171
   - k =  -0.071  0.071 -0.184
   - k =  -0.071  0.071 -0.196
   - k =  -0.071  0.071 -0.209
   - k =  -0.071  0.071 -0.222
   - k =  -0.071  0.071 -0.234
   - k =  -0.071  0.071 -0.247
   - k =  -0.071  0.071 -0.259
   - k =  -0.071  0.071 -0.272
   - k =  -0.071  0.071 -0.285
   - k =  -0.071  0.071 -0.297
   - k =  -0.071  0.071 -0.310
   - k =  -0.071  0.071 -0.323
   - k =  -0.071  0.071 -0.335
   - k =  -0.071  0.071 -0.348
   - k =  -0.071  0.071 -0.361
   - k =  -0.071  0.071 -0.373
   - k =  -0.071  0.071 -0.386
   - k =  -0.071  0.071 -0.399
   - k =  -0.071  0.071 -0.411
   - k =  -0.071  0.071 -0.424
   - k =  -0.071  0.071 -0.437
   - k =  -0.071  0.071 -0.449
   - k =  -0.071  0.071 -0.462
   - k =  -0.071  0.071 -0.475
   - k =  -0.071  0.071 -0.487
   - k =  -0.071  0.071 -0.500

  |-> Computing Wannier center evolution at k-point number:     29
 Using pol_lapack_version = 2
 Calculating Berry  term along reciprocal lattice vector 3:     0.000     0.000     0.840
 Calculating dipole term along reciprocal lattice vector 3:     0.000     0.000     0.840

  Treating all   80 k-points in band plot segment #  30:
   Sampling over :
   - k =  -0.071  0.214  0.500
   - k =  -0.071  0.214  0.487
   - k =  -0.071  0.214  0.475
   - k =  -0.071  0.214  0.462
   - k =  -0.071  0.214  0.449
   - k =  -0.071  0.214  0.437
   - k =  -0.071  0.214  0.424
   - k =  -0.071  0.214  0.411
   - k =  -0.071  0.214  0.399
   - k =  -0.071  0.214  0.386
   - k =  -0.071  0.214  0.373
   - k =  -0.071  0.214  0.361
   - k =  -0.071  0.214  0.348
   - k =  -0.071  0.214  0.335
   - k =  -0.071  0.214  0.323
   - k =  -0.071  0.214  0.310
   - k =  -0.071  0.214  0.297
   - k =  -0.071  0.214  0.285
   - k =  -0.071  0.214  0.272
   - k =  -0.071  0.214  0.259
   - k =  -0.071  0.214  0.247
   - k =  -0.071  0.214  0.234
   - k =  -0.071  0.214  0.222
   - k =  -0.071  0.214  0.209
   - k =  -0.071  0.214  0.196
   - k =  -0.071  0.214  0.184
   - k =  -0.071  0.214  0.171
   - k =  -0.071  0.214  0.158
   - k =  -0.071  0.214  0.146
   - k =  -0.071  0.214  0.133
   - k =  -0.071  0.214  0.120
   - k =  -0.071  0.214  0.108
   - k =  -0.071  0.214  0.095
   - k =  -0.071  0.214  0.082
   - k =  -0.071  0.214  0.070
   - k =  -0.071  0.214  0.057
   - k =  -0.071  0.214  0.044
   - k =  -0.071  0.214  0.032
   - k =  -0.071  0.214  0.019
   - k =  -0.071  0.214  0.006
   - k =  -0.071  0.214 -0.006
   - k =  -0.071  0.214 -0.019
   - k =  -0.071  0.214 -0.032
   - k =  -0.071  0.214 -0.044
   - k =  -0.071  0.214 -0.057
   - k =  -0.071  0.214 -0.070
   - k =  -0.071  0.214 -0.082
   - k =  -0.071  0.214 -0.095
   - k =  -0.071  0.214 -0.108
   - k =  -0.071  0.214 -0.120
   - k =  -0.071  0.214 -0.133
   - k =  -0.071  0.214 -0.146
   - k =  -0.071  0.214 -0.158
   - k =  -0.071  0.214 -0.171
   - k =  -0.071  0.214 -0.184
   - k =  -0.071  0.214 -0.196
   - k =  -0.071  0.214 -0.209
   - k =  -0.071  0.214 -0.222
   - k =  -0.071  0.214 -0.234
   - k =  -0.071  0.214 -0.247
   - k =  -0.071  0.214 -0.259
   - k =  -0.071  0.214 -0.272
   - k =  -0.071  0.214 -0.285
   - k =  -0.071  0.214 -0.297
   - k =  -0.071  0.214 -0.310
   - k =  -0.071  0.214 -0.323
   - k =  -0.071  0.214 -0.335
   - k =  -0.071  0.214 -0.348
   - k =  -0.071  0.214 -0.361
   - k =  -0.071  0.214 -0.373
   - k =  -0.071  0.214 -0.386
   - k =  -0.071  0.214 -0.399
   - k =  -0.071  0.214 -0.411
   - k =  -0.071  0.214 -0.424
   - k =  -0.071  0.214 -0.437
   - k =  -0.071  0.214 -0.449
   - k =  -0.071  0.214 -0.462
   - k =  -0.071  0.214 -0.475
   - k =  -0.071  0.214 -0.487
   - k =  -0.071  0.214 -0.500

  |-> Computing Wannier center evolution at k-point number:     30
 Using pol_lapack_version = 2
 Calculating Berry  term along reciprocal lattice vector 3:     0.000     0.000     0.840
 Calculating dipole term along reciprocal lattice vector 3:     0.000     0.000     0.840

  Treating all   80 k-points in band plot segment #  31:
   Sampling over :
   - k =  -0.071  0.357  0.500
   - k =  -0.071  0.357  0.487
   - k =  -0.071  0.357  0.475
   - k =  -0.071  0.357  0.462
   - k =  -0.071  0.357  0.449
   - k =  -0.071  0.357  0.437
   - k =  -0.071  0.357  0.424
   - k =  -0.071  0.357  0.411
   - k =  -0.071  0.357  0.399
   - k =  -0.071  0.357  0.386
   - k =  -0.071  0.357  0.373
   - k =  -0.071  0.357  0.361
   - k =  -0.071  0.357  0.348
   - k =  -0.071  0.357  0.335
   - k =  -0.071  0.357  0.323
   - k =  -0.071  0.357  0.310
   - k =  -0.071  0.357  0.297
   - k =  -0.071  0.357  0.285
   - k =  -0.071  0.357  0.272
   - k =  -0.071  0.357  0.259
   - k =  -0.071  0.357  0.247
   - k =  -0.071  0.357  0.234
   - k =  -0.071  0.357  0.222
   - k =  -0.071  0.357  0.209
   - k =  -0.071  0.357  0.196
   - k =  -0.071  0.357  0.184
   - k =  -0.071  0.357  0.171
   - k =  -0.071  0.357  0.158
   - k =  -0.071  0.357  0.146
   - k =  -0.071  0.357  0.133
   - k =  -0.071  0.357  0.120
   - k =  -0.071  0.357  0.108
   - k =  -0.071  0.357  0.095
   - k =  -0.071  0.357  0.082
   - k =  -0.071  0.357  0.070
   - k =  -0.071  0.357  0.057
   - k =  -0.071  0.357  0.044
   - k =  -0.071  0.357  0.032
   - k =  -0.071  0.357  0.019
   - k =  -0.071  0.357  0.006
   - k =  -0.071  0.357 -0.006
   - k =  -0.071  0.357 -0.019
   - k =  -0.071  0.357 -0.032
   - k =  -0.071  0.357 -0.044
   - k =  -0.071  0.357 -0.057
   - k =  -0.071  0.357 -0.070
   - k =  -0.071  0.357 -0.082
   - k =  -0.071  0.357 -0.095
   - k =  -0.071  0.357 -0.108
   - k =  -0.071  0.357 -0.120
   - k =  -0.071  0.357 -0.133
   - k =  -0.071  0.357 -0.146
   - k =  -0.071  0.357 -0.158
   - k =  -0.071  0.357 -0.171
   - k =  -0.071  0.357 -0.184
   - k =  -0.071  0.357 -0.196
   - k =  -0.071  0.357 -0.209
   - k =  -0.071  0.357 -0.222
   - k =  -0.071  0.357 -0.234
   - k =  -0.071  0.357 -0.247
   - k =  -0.071  0.357 -0.259
   - k =  -0.071  0.357 -0.272
   - k =  -0.071  0.357 -0.285
   - k =  -0.071  0.357 -0.297
   - k =  -0.071  0.357 -0.310
   - k =  -0.071  0.357 -0.323
   - k =  -0.071  0.357 -0.335
   - k =  -0.071  0.357 -0.348
   - k =  -0.071  0.357 -0.361
   - k =  -0.071  0.357 -0.373
   - k =  -0.071  0.357 -0.386
   - k =  -0.071  0.357 -0.399
   - k =  -0.071  0.357 -0.411
   - k =  -0.071  0.357 -0.424
   - k =  -0.071  0.357 -0.437
   - k =  -0.071  0.357 -0.449
   - k =  -0.071  0.357 -0.462
   - k =  -0.071  0.357 -0.475
   - k =  -0.071  0.357 -0.487
   - k =  -0.071  0.357 -0.500

  |-> Computing Wannier center evolution at k-point number:     31
 Using pol_lapack_version = 2
 Calculating Berry  term along reciprocal lattice vector 3:     0.000     0.000     0.840
 Calculating dipole term along reciprocal lattice vector 3:     0.000     0.000     0.840

  Treating all   80 k-points in band plot segment #  32:
   Sampling over :
   - k =  -0.071  0.500  0.500
   - k =  -0.071  0.500  0.487
   - k =  -0.071  0.500  0.475
   - k =  -0.071  0.500  0.462
   - k =  -0.071  0.500  0.449
   - k =  -0.071  0.500  0.437
   - k =  -0.071  0.500  0.424
   - k =  -0.071  0.500  0.411
   - k =  -0.071  0.500  0.399
   - k =  -0.071  0.500  0.386
   - k =  -0.071  0.500  0.373
   - k =  -0.071  0.500  0.361
   - k =  -0.071  0.500  0.348
   - k =  -0.071  0.500  0.335
   - k =  -0.071  0.500  0.323
   - k =  -0.071  0.500  0.310
   - k =  -0.071  0.500  0.297
   - k =  -0.071  0.500  0.285
   - k =  -0.071  0.500  0.272
   - k =  -0.071  0.500  0.259
   - k =  -0.071  0.500  0.247
   - k =  -0.071  0.500  0.234
   - k =  -0.071  0.500  0.222
   - k =  -0.071  0.500  0.209
   - k =  -0.071  0.500  0.196
   - k =  -0.071  0.500  0.184
   - k =  -0.071  0.500  0.171
   - k =  -0.071  0.500  0.158
   - k =  -0.071  0.500  0.146
   - k =  -0.071  0.500  0.133
   - k =  -0.071  0.500  0.120
   - k =  -0.071  0.500  0.108
   - k =  -0.071  0.500  0.095
   - k =  -0.071  0.500  0.082
   - k =  -0.071  0.500  0.070
   - k =  -0.071  0.500  0.057
   - k =  -0.071  0.500  0.044
   - k =  -0.071  0.500  0.032
   - k =  -0.071  0.500  0.019
   - k =  -0.071  0.500  0.006
   - k =  -0.071  0.500 -0.006
   - k =  -0.071  0.500 -0.019
   - k =  -0.071  0.500 -0.032
   - k =  -0.071  0.500 -0.044
   - k =  -0.071  0.500 -0.057
   - k =  -0.071  0.500 -0.070
   - k =  -0.071  0.500 -0.082
   - k =  -0.071  0.500 -0.095
   - k =  -0.071  0.500 -0.108
   - k =  -0.071  0.500 -0.120
   - k =  -0.071  0.500 -0.133
   - k =  -0.071  0.500 -0.146
   - k =  -0.071  0.500 -0.158
   - k =  -0.071  0.500 -0.171
   - k =  -0.071  0.500 -0.184
   - k =  -0.071  0.500 -0.196
   - k =  -0.071  0.500 -0.209
   - k =  -0.071  0.500 -0.222
   - k =  -0.071  0.500 -0.234
   - k =  -0.071  0.500 -0.247
   - k =  -0.071  0.500 -0.259
   - k =  -0.071  0.500 -0.272
   - k =  -0.071  0.500 -0.285
   - k =  -0.071  0.500 -0.297
   - k =  -0.071  0.500 -0.310
   - k =  -0.071  0.500 -0.323
   - k =  -0.071  0.500 -0.335
   - k =  -0.071  0.500 -0.348
   - k =  -0.071  0.500 -0.361
   - k =  -0.071  0.500 -0.373
   - k =  -0.071  0.500 -0.386
   - k =  -0.071  0.500 -0.399
   - k =  -0.071  0.500 -0.411
   - k =  -0.071  0.500 -0.424
   - k =  -0.071  0.500 -0.437
   - k =  -0.071  0.500 -0.449
   - k =  -0.071  0.500 -0.462
   - k =  -0.071  0.500 -0.475
   - k =  -0.071  0.500 -0.487
   - k =  -0.071  0.500 -0.500

  |-> Computing Wannier center evolution at k-point number:     32
 Using pol_lapack_version = 2
 Calculating Berry  term along reciprocal lattice vector 3:     0.000     0.000     0.840
 Calculating dipole term along reciprocal lattice vector 3:     0.000     0.000     0.840

  Treating all   80 k-points in band plot segment #  33:
   Sampling over :
   - k =   0.071 -0.500  0.500
   - k =   0.071 -0.500  0.487
   - k =   0.071 -0.500  0.475
   - k =   0.071 -0.500  0.462
   - k =   0.071 -0.500  0.449
   - k =   0.071 -0.500  0.437
   - k =   0.071 -0.500  0.424
   - k =   0.071 -0.500  0.411
   - k =   0.071 -0.500  0.399
   - k =   0.071 -0.500  0.386
   - k =   0.071 -0.500  0.373
   - k =   0.071 -0.500  0.361
   - k =   0.071 -0.500  0.348
   - k =   0.071 -0.500  0.335
   - k =   0.071 -0.500  0.323
   - k =   0.071 -0.500  0.310
   - k =   0.071 -0.500  0.297
   - k =   0.071 -0.500  0.285
   - k =   0.071 -0.500  0.272
   - k =   0.071 -0.500  0.259
   - k =   0.071 -0.500  0.247
   - k =   0.071 -0.500  0.234
   - k =   0.071 -0.500  0.222
   - k =   0.071 -0.500  0.209
   - k =   0.071 -0.500  0.196
   - k =   0.071 -0.500  0.184
   - k =   0.071 -0.500  0.171
   - k =   0.071 -0.500  0.158
   - k =   0.071 -0.500  0.146
   - k =   0.071 -0.500  0.133
   - k =   0.071 -0.500  0.120
   - k =   0.071 -0.500  0.108
   - k =   0.071 -0.500  0.095
   - k =   0.071 -0.500  0.082
   - k =   0.071 -0.500  0.070
   - k =   0.071 -0.500  0.057
   - k =   0.071 -0.500  0.044
   - k =   0.071 -0.500  0.032
   - k =   0.071 -0.500  0.019
   - k =   0.071 -0.500  0.006
   - k =   0.071 -0.500 -0.006
   - k =   0.071 -0.500 -0.019
   - k =   0.071 -0.500 -0.032
   - k =   0.071 -0.500 -0.044
   - k =   0.071 -0.500 -0.057
   - k =   0.071 -0.500 -0.070
   - k =   0.071 -0.500 -0.082
   - k =   0.071 -0.500 -0.095
   - k =   0.071 -0.500 -0.108
   - k =   0.071 -0.500 -0.120
   - k =   0.071 -0.500 -0.133
   - k =   0.071 -0.500 -0.146
   - k =   0.071 -0.500 -0.158
   - k =   0.071 -0.500 -0.171
   - k =   0.071 -0.500 -0.184
   - k =   0.071 -0.500 -0.196
   - k =   0.071 -0.500 -0.209
   - k =   0.071 -0.500 -0.222
   - k =   0.071 -0.500 -0.234
   - k =   0.071 -0.500 -0.247
   - k =   0.071 -0.500 -0.259
   - k =   0.071 -0.500 -0.272
   - k =   0.071 -0.500 -0.285
   - k =   0.071 -0.500 -0.297
   - k =   0.071 -0.500 -0.310
   - k =   0.071 -0.500 -0.323
   - k =   0.071 -0.500 -0.335
   - k =   0.071 -0.500 -0.348
   - k =   0.071 -0.500 -0.361
   - k =   0.071 -0.500 -0.373
   - k =   0.071 -0.500 -0.386
   - k =   0.071 -0.500 -0.399
   - k =   0.071 -0.500 -0.411
   - k =   0.071 -0.500 -0.424
   - k =   0.071 -0.500 -0.437
   - k =   0.071 -0.500 -0.449
   - k =   0.071 -0.500 -0.462
   - k =   0.071 -0.500 -0.475
   - k =   0.071 -0.500 -0.487
   - k =   0.071 -0.500 -0.500

  |-> Computing Wannier center evolution at k-point number:     33
 Using pol_lapack_version = 2
 Calculating Berry  term along reciprocal lattice vector 3:     0.000     0.000     0.840
 Calculating dipole term along reciprocal lattice vector 3:     0.000     0.000     0.840

  Treating all   80 k-points in band plot segment #  34:
   Sampling over :
   - k =   0.071 -0.357  0.500
   - k =   0.071 -0.357  0.487
   - k =   0.071 -0.357  0.475
   - k =   0.071 -0.357  0.462
   - k =   0.071 -0.357  0.449
   - k =   0.071 -0.357  0.437
   - k =   0.071 -0.357  0.424
   - k =   0.071 -0.357  0.411
   - k =   0.071 -0.357  0.399
   - k =   0.071 -0.357  0.386
   - k =   0.071 -0.357  0.373
   - k =   0.071 -0.357  0.361
   - k =   0.071 -0.357  0.348
   - k =   0.071 -0.357  0.335
   - k =   0.071 -0.357  0.323
   - k =   0.071 -0.357  0.310
   - k =   0.071 -0.357  0.297
   - k =   0.071 -0.357  0.285
   - k =   0.071 -0.357  0.272
   - k =   0.071 -0.357  0.259
   - k =   0.071 -0.357  0.247
   - k =   0.071 -0.357  0.234
   - k =   0.071 -0.357  0.222
   - k =   0.071 -0.357  0.209
   - k =   0.071 -0.357  0.196
   - k =   0.071 -0.357  0.184
   - k =   0.071 -0.357  0.171
   - k =   0.071 -0.357  0.158
   - k =   0.071 -0.357  0.146
   - k =   0.071 -0.357  0.133
   - k =   0.071 -0.357  0.120
   - k =   0.071 -0.357  0.108
   - k =   0.071 -0.357  0.095
   - k =   0.071 -0.357  0.082
   - k =   0.071 -0.357  0.070
   - k =   0.071 -0.357  0.057
   - k =   0.071 -0.357  0.044
   - k =   0.071 -0.357  0.032
   - k =   0.071 -0.357  0.019
   - k =   0.071 -0.357  0.006
   - k =   0.071 -0.357 -0.006
   - k =   0.071 -0.357 -0.019
   - k =   0.071 -0.357 -0.032
   - k =   0.071 -0.357 -0.044
   - k =   0.071 -0.357 -0.057
   - k =   0.071 -0.357 -0.070
   - k =   0.071 -0.357 -0.082
   - k =   0.071 -0.357 -0.095
   - k =   0.071 -0.357 -0.108
   - k =   0.071 -0.357 -0.120
   - k =   0.071 -0.357 -0.133
   - k =   0.071 -0.357 -0.146
   - k =   0.071 -0.357 -0.158
   - k =   0.071 -0.357 -0.171
   - k =   0.071 -0.357 -0.184
   - k =   0.071 -0.357 -0.196
   - k =   0.071 -0.357 -0.209
   - k =   0.071 -0.357 -0.222
   - k =   0.071 -0.357 -0.234
   - k =   0.071 -0.357 -0.247
   - k =   0.071 -0.357 -0.259
   - k =   0.071 -0.357 -0.272
   - k =   0.071 -0.357 -0.285
   - k =   0.071 -0.357 -0.297
   - k =   0.071 -0.357 -0.310
   - k =   0.071 -0.357 -0.323
   - k =   0.071 -0.357 -0.335
   - k =   0.071 -0.357 -0.348
   - k =   0.071 -0.357 -0.361
   - k =   0.071 -0.357 -0.373
   - k =   0.071 -0.357 -0.386
   - k =   0.071 -0.357 -0.399
   - k =   0.071 -0.357 -0.411
   - k =   0.071 -0.357 -0.424
   - k =   0.071 -0.357 -0.437
   - k =   0.071 -0.357 -0.449
   - k =   0.071 -0.357 -0.462
   - k =   0.071 -0.357 -0.475
   - k =   0.071 -0.357 -0.487
   - k =   0.071 -0.357 -0.500

  |-> Computing Wannier center evolution at k-point number:     34
 Using pol_lapack_version = 2
 Calculating Berry  term along reciprocal lattice vector 3:     0.000     0.000     0.840
 Calculating dipole term along reciprocal lattice vector 3:     0.000     0.000     0.840

  Treating all   80 k-points in band plot segment #  35:
   Sampling over :
   - k =   0.071 -0.214  0.500
   - k =   0.071 -0.214  0.487
   - k =   0.071 -0.214  0.475
   - k =   0.071 -0.214  0.462
   - k =   0.071 -0.214  0.449
   - k =   0.071 -0.214  0.437
   - k =   0.071 -0.214  0.424
   - k =   0.071 -0.214  0.411
   - k =   0.071 -0.214  0.399
   - k =   0.071 -0.214  0.386
   - k =   0.071 -0.214  0.373
   - k =   0.071 -0.214  0.361
   - k =   0.071 -0.214  0.348
   - k =   0.071 -0.214  0.335
   - k =   0.071 -0.214  0.323
   - k =   0.071 -0.214  0.310
   - k =   0.071 -0.214  0.297
   - k =   0.071 -0.214  0.285
   - k =   0.071 -0.214  0.272
   - k =   0.071 -0.214  0.259
   - k =   0.071 -0.214  0.247
   - k =   0.071 -0.214  0.234
   - k =   0.071 -0.214  0.222
   - k =   0.071 -0.214  0.209
   - k =   0.071 -0.214  0.196
   - k =   0.071 -0.214  0.184
   - k =   0.071 -0.214  0.171
   - k =   0.071 -0.214  0.158
   - k =   0.071 -0.214  0.146
   - k =   0.071 -0.214  0.133
   - k =   0.071 -0.214  0.120
   - k =   0.071 -0.214  0.108
   - k =   0.071 -0.214  0.095
   - k =   0.071 -0.214  0.082
   - k =   0.071 -0.214  0.070
   - k =   0.071 -0.214  0.057
   - k =   0.071 -0.214  0.044
   - k =   0.071 -0.214  0.032
   - k =   0.071 -0.214  0.019
   - k =   0.071 -0.214  0.006
   - k =   0.071 -0.214 -0.006
   - k =   0.071 -0.214 -0.019
   - k =   0.071 -0.214 -0.032
   - k =   0.071 -0.214 -0.044
   - k =   0.071 -0.214 -0.057
   - k =   0.071 -0.214 -0.070
   - k =   0.071 -0.214 -0.082
   - k =   0.071 -0.214 -0.095
   - k =   0.071 -0.214 -0.108
   - k =   0.071 -0.214 -0.120
   - k =   0.071 -0.214 -0.133
   - k =   0.071 -0.214 -0.146
   - k =   0.071 -0.214 -0.158
   - k =   0.071 -0.214 -0.171
   - k =   0.071 -0.214 -0.184
   - k =   0.071 -0.214 -0.196
   - k =   0.071 -0.214 -0.209
   - k =   0.071 -0.214 -0.222
   - k =   0.071 -0.214 -0.234
   - k =   0.071 -0.214 -0.247
   - k =   0.071 -0.214 -0.259
   - k =   0.071 -0.214 -0.272
   - k =   0.071 -0.214 -0.285
   - k =   0.071 -0.214 -0.297
   - k =   0.071 -0.214 -0.310
   - k =   0.071 -0.214 -0.323
   - k =   0.071 -0.214 -0.335
   - k =   0.071 -0.214 -0.348
   - k =   0.071 -0.214 -0.361
   - k =   0.071 -0.214 -0.373
   - k =   0.071 -0.214 -0.386
   - k =   0.071 -0.214 -0.399
   - k =   0.071 -0.214 -0.411
   - k =   0.071 -0.214 -0.424
   - k =   0.071 -0.214 -0.437
   - k =   0.071 -0.214 -0.449
   - k =   0.071 -0.214 -0.462
   - k =   0.071 -0.214 -0.475
   - k =   0.071 -0.214 -0.487
   - k =   0.071 -0.214 -0.500

  |-> Computing Wannier center evolution at k-point number:     35
 Using pol_lapack_version = 2
 Calculating Berry  term along reciprocal lattice vector 3:     0.000     0.000     0.840
 Calculating dipole term along reciprocal lattice vector 3:     0.000     0.000     0.840

  Treating all   80 k-points in band plot segment #  36:
   Sampling over :
   - k =   0.071 -0.071  0.500
   - k =   0.071 -0.071  0.487
   - k =   0.071 -0.071  0.475
   - k =   0.071 -0.071  0.462
   - k =   0.071 -0.071  0.449
   - k =   0.071 -0.071  0.437
   - k =   0.071 -0.071  0.424
   - k =   0.071 -0.071  0.411
   - k =   0.071 -0.071  0.399
   - k =   0.071 -0.071  0.386
   - k =   0.071 -0.071  0.373
   - k =   0.071 -0.071  0.361
   - k =   0.071 -0.071  0.348
   - k =   0.071 -0.071  0.335
   - k =   0.071 -0.071  0.323
   - k =   0.071 -0.071  0.310
   - k =   0.071 -0.071  0.297
   - k =   0.071 -0.071  0.285
   - k =   0.071 -0.071  0.272
   - k =   0.071 -0.071  0.259
   - k =   0.071 -0.071  0.247
   - k =   0.071 -0.071  0.234
   - k =   0.071 -0.071  0.222
   - k =   0.071 -0.071  0.209
   - k =   0.071 -0.071  0.196
   - k =   0.071 -0.071  0.184
   - k =   0.071 -0.071  0.171
   - k =   0.071 -0.071  0.158
   - k =   0.071 -0.071  0.146
   - k =   0.071 -0.071  0.133
   - k =   0.071 -0.071  0.120
   - k =   0.071 -0.071  0.108
   - k =   0.071 -0.071  0.095
   - k =   0.071 -0.071  0.082
   - k =   0.071 -0.071  0.070
   - k =   0.071 -0.071  0.057
   - k =   0.071 -0.071  0.044
   - k =   0.071 -0.071  0.032
   - k =   0.071 -0.071  0.019
   - k =   0.071 -0.071  0.006
   - k =   0.071 -0.071 -0.006
   - k =   0.071 -0.071 -0.019
   - k =   0.071 -0.071 -0.032
   - k =   0.071 -0.071 -0.044
   - k =   0.071 -0.071 -0.057
   - k =   0.071 -0.071 -0.070
   - k =   0.071 -0.071 -0.082
   - k =   0.071 -0.071 -0.095
   - k =   0.071 -0.071 -0.108
   - k =   0.071 -0.071 -0.120
   - k =   0.071 -0.071 -0.133
   - k =   0.071 -0.071 -0.146
   - k =   0.071 -0.071 -0.158
   - k =   0.071 -0.071 -0.171
   - k =   0.071 -0.071 -0.184
   - k =   0.071 -0.071 -0.196
   - k =   0.071 -0.071 -0.209
   - k =   0.071 -0.071 -0.222
   - k =   0.071 -0.071 -0.234
   - k =   0.071 -0.071 -0.247
   - k =   0.071 -0.071 -0.259
   - k =   0.071 -0.071 -0.272
   - k =   0.071 -0.071 -0.285
   - k =   0.071 -0.071 -0.297
   - k =   0.071 -0.071 -0.310
   - k =   0.071 -0.071 -0.323
   - k =   0.071 -0.071 -0.335
   - k =   0.071 -0.071 -0.348
   - k =   0.071 -0.071 -0.361
   - k =   0.071 -0.071 -0.373
   - k =   0.071 -0.071 -0.386
   - k =   0.071 -0.071 -0.399
   - k =   0.071 -0.071 -0.411
   - k =   0.071 -0.071 -0.424
   - k =   0.071 -0.071 -0.437
   - k =   0.071 -0.071 -0.449
   - k =   0.071 -0.071 -0.462
   - k =   0.071 -0.071 -0.475
   - k =   0.071 -0.071 -0.487
   - k =   0.071 -0.071 -0.500

  |-> Computing Wannier center evolution at k-point number:     36
 Using pol_lapack_version = 2
 Calculating Berry  term along reciprocal lattice vector 3:     0.000     0.000     0.840
 Calculating dipole term along reciprocal lattice vector 3:     0.000     0.000     0.840

  Treating all   80 k-points in band plot segment #  37:
   Sampling over :
   - k =   0.071  0.071  0.500
   - k =   0.071  0.071  0.487
   - k =   0.071  0.071  0.475
   - k =   0.071  0.071  0.462
   - k =   0.071  0.071  0.449
   - k =   0.071  0.071  0.437
   - k =   0.071  0.071  0.424
   - k =   0.071  0.071  0.411
   - k =   0.071  0.071  0.399
   - k =   0.071  0.071  0.386
   - k =   0.071  0.071  0.373
   - k =   0.071  0.071  0.361
   - k =   0.071  0.071  0.348
   - k =   0.071  0.071  0.335
   - k =   0.071  0.071  0.323
   - k =   0.071  0.071  0.310
   - k =   0.071  0.071  0.297
   - k =   0.071  0.071  0.285
   - k =   0.071  0.071  0.272
   - k =   0.071  0.071  0.259
   - k =   0.071  0.071  0.247
   - k =   0.071  0.071  0.234
   - k =   0.071  0.071  0.222
   - k =   0.071  0.071  0.209
   - k =   0.071  0.071  0.196
   - k =   0.071  0.071  0.184
   - k =   0.071  0.071  0.171
   - k =   0.071  0.071  0.158
   - k =   0.071  0.071  0.146
   - k =   0.071  0.071  0.133
   - k =   0.071  0.071  0.120
   - k =   0.071  0.071  0.108
   - k =   0.071  0.071  0.095
   - k =   0.071  0.071  0.082
   - k =   0.071  0.071  0.070
   - k =   0.071  0.071  0.057
   - k =   0.071  0.071  0.044
   - k =   0.071  0.071  0.032
   - k =   0.071  0.071  0.019
   - k =   0.071  0.071  0.006
   - k =   0.071  0.071 -0.006
   - k =   0.071  0.071 -0.019
   - k =   0.071  0.071 -0.032
   - k =   0.071  0.071 -0.044
   - k =   0.071  0.071 -0.057
   - k =   0.071  0.071 -0.070
   - k =   0.071  0.071 -0.082
   - k =   0.071  0.071 -0.095
   - k =   0.071  0.071 -0.108
   - k =   0.071  0.071 -0.120
   - k =   0.071  0.071 -0.133
   - k =   0.071  0.071 -0.146
   - k =   0.071  0.071 -0.158
   - k =   0.071  0.071 -0.171
   - k =   0.071  0.071 -0.184
   - k =   0.071  0.071 -0.196
   - k =   0.071  0.071 -0.209
   - k =   0.071  0.071 -0.222
   - k =   0.071  0.071 -0.234
   - k =   0.071  0.071 -0.247
   - k =   0.071  0.071 -0.259
   - k =   0.071  0.071 -0.272
   - k =   0.071  0.071 -0.285
   - k =   0.071  0.071 -0.297
   - k =   0.071  0.071 -0.310
   - k =   0.071  0.071 -0.323
   - k =   0.071  0.071 -0.335
   - k =   0.071  0.071 -0.348
   - k =   0.071  0.071 -0.361
   - k =   0.071  0.071 -0.373
   - k =   0.071  0.071 -0.386
   - k =   0.071  0.071 -0.399
   - k =   0.071  0.071 -0.411
   - k =   0.071  0.071 -0.424
   - k =   0.071  0.071 -0.437
   - k =   0.071  0.071 -0.449
   - k =   0.071  0.071 -0.462
   - k =   0.071  0.071 -0.475
   - k =   0.071  0.071 -0.487
   - k =   0.071  0.071 -0.500

  |-> Computing Wannier center evolution at k-point number:     37
 Using pol_lapack_version = 2
 Calculating Berry  term along reciprocal lattice vector 3:     0.000     0.000     0.840
 Calculating dipole term along reciprocal lattice vector 3:     0.000     0.000     0.840

  Treating all   80 k-points in band plot segment #  38:
   Sampling over :
   - k =   0.071  0.214  0.500
   - k =   0.071  0.214  0.487
   - k =   0.071  0.214  0.475
   - k =   0.071  0.214  0.462
   - k =   0.071  0.214  0.449
   - k =   0.071  0.214  0.437
   - k =   0.071  0.214  0.424
   - k =   0.071  0.214  0.411
   - k =   0.071  0.214  0.399
   - k =   0.071  0.214  0.386
   - k =   0.071  0.214  0.373
   - k =   0.071  0.214  0.361
   - k =   0.071  0.214  0.348
   - k =   0.071  0.214  0.335
   - k =   0.071  0.214  0.323
   - k =   0.071  0.214  0.310
   - k =   0.071  0.214  0.297
   - k =   0.071  0.214  0.285
   - k =   0.071  0.214  0.272
   - k =   0.071  0.214  0.259
   - k =   0.071  0.214  0.247
   - k =   0.071  0.214  0.234
   - k =   0.071  0.214  0.222
   - k =   0.071  0.214  0.209
   - k =   0.071  0.214  0.196
   - k =   0.071  0.214  0.184
   - k =   0.071  0.214  0.171
   - k =   0.071  0.214  0.158
   - k =   0.071  0.214  0.146
   - k =   0.071  0.214  0.133
   - k =   0.071  0.214  0.120
   - k =   0.071  0.214  0.108
   - k =   0.071  0.214  0.095
   - k =   0.071  0.214  0.082
   - k =   0.071  0.214  0.070
   - k =   0.071  0.214  0.057
   - k =   0.071  0.214  0.044
   - k =   0.071  0.214  0.032
   - k =   0.071  0.214  0.019
   - k =   0.071  0.214  0.006
   - k =   0.071  0.214 -0.006
   - k =   0.071  0.214 -0.019
   - k =   0.071  0.214 -0.032
   - k =   0.071  0.214 -0.044
   - k =   0.071  0.214 -0.057
   - k =   0.071  0.214 -0.070
   - k =   0.071  0.214 -0.082
   - k =   0.071  0.214 -0.095
   - k =   0.071  0.214 -0.108
   - k =   0.071  0.214 -0.120
   - k =   0.071  0.214 -0.133
   - k =   0.071  0.214 -0.146
   - k =   0.071  0.214 -0.158
   - k =   0.071  0.214 -0.171
   - k =   0.071  0.214 -0.184
   - k =   0.071  0.214 -0.196
   - k =   0.071  0.214 -0.209
   - k =   0.071  0.214 -0.222
   - k =   0.071  0.214 -0.234
   - k =   0.071  0.214 -0.247
   - k =   0.071  0.214 -0.259
   - k =   0.071  0.214 -0.272
   - k =   0.071  0.214 -0.285
   - k =   0.071  0.214 -0.297
   - k =   0.071  0.214 -0.310
   - k =   0.071  0.214 -0.323
   - k =   0.071  0.214 -0.335
   - k =   0.071  0.214 -0.348
   - k =   0.071  0.214 -0.361
   - k =   0.071  0.214 -0.373
   - k =   0.071  0.214 -0.386
   - k =   0.071  0.214 -0.399
   - k =   0.071  0.214 -0.411
   - k =   0.071  0.214 -0.424
   - k =   0.071  0.214 -0.437
   - k =   0.071  0.214 -0.449
   - k =   0.071  0.214 -0.462
   - k =   0.071  0.214 -0.475
   - k =   0.071  0.214 -0.487
   - k =   0.071  0.214 -0.500

  |-> Computing Wannier center evolution at k-point number:     38
 Using pol_lapack_version = 2
 Calculating Berry  term along reciprocal lattice vector 3:     0.000     0.000     0.840
 Calculating dipole term along reciprocal lattice vector 3:     0.000     0.000     0.840

  Treating all   80 k-points in band plot segment #  39:
   Sampling over :
   - k =   0.071  0.357  0.500
   - k =   0.071  0.357  0.487
   - k =   0.071  0.357  0.475
   - k =   0.071  0.357  0.462
   - k =   0.071  0.357  0.449
   - k =   0.071  0.357  0.437
   - k =   0.071  0.357  0.424
   - k =   0.071  0.357  0.411
   - k =   0.071  0.357  0.399
   - k =   0.071  0.357  0.386
   - k =   0.071  0.357  0.373
   - k =   0.071  0.357  0.361
   - k =   0.071  0.357  0.348
   - k =   0.071  0.357  0.335
   - k =   0.071  0.357  0.323
   - k =   0.071  0.357  0.310
   - k =   0.071  0.357  0.297
   - k =   0.071  0.357  0.285
   - k =   0.071  0.357  0.272
   - k =   0.071  0.357  0.259
   - k =   0.071  0.357  0.247
   - k =   0.071  0.357  0.234
   - k =   0.071  0.357  0.222
   - k =   0.071  0.357  0.209
   - k =   0.071  0.357  0.196
   - k =   0.071  0.357  0.184
   - k =   0.071  0.357  0.171
   - k =   0.071  0.357  0.158
   - k =   0.071  0.357  0.146
   - k =   0.071  0.357  0.133
   - k =   0.071  0.357  0.120
   - k =   0.071  0.357  0.108
   - k =   0.071  0.357  0.095
   - k =   0.071  0.357  0.082
   - k =   0.071  0.357  0.070
   - k =   0.071  0.357  0.057
   - k =   0.071  0.357  0.044
   - k =   0.071  0.357  0.032
   - k =   0.071  0.357  0.019
   - k =   0.071  0.357  0.006
   - k =   0.071  0.357 -0.006
   - k =   0.071  0.357 -0.019
   - k =   0.071  0.357 -0.032
   - k =   0.071  0.357 -0.044
   - k =   0.071  0.357 -0.057
   - k =   0.071  0.357 -0.070
   - k =   0.071  0.357 -0.082
   - k =   0.071  0.357 -0.095
   - k =   0.071  0.357 -0.108
   - k =   0.071  0.357 -0.120
   - k =   0.071  0.357 -0.133
   - k =   0.071  0.357 -0.146
   - k =   0.071  0.357 -0.158
   - k =   0.071  0.357 -0.171
   - k =   0.071  0.357 -0.184
   - k =   0.071  0.357 -0.196
   - k =   0.071  0.357 -0.209
   - k =   0.071  0.357 -0.222
   - k =   0.071  0.357 -0.234
   - k =   0.071  0.357 -0.247
   - k =   0.071  0.357 -0.259
   - k =   0.071  0.357 -0.272
   - k =   0.071  0.357 -0.285
   - k =   0.071  0.357 -0.297
   - k =   0.071  0.357 -0.310
   - k =   0.071  0.357 -0.323
   - k =   0.071  0.357 -0.335
   - k =   0.071  0.357 -0.348
   - k =   0.071  0.357 -0.361
   - k =   0.071  0.357 -0.373
   - k =   0.071  0.357 -0.386
   - k =   0.071  0.357 -0.399
   - k =   0.071  0.357 -0.411
   - k =   0.071  0.357 -0.424
   - k =   0.071  0.357 -0.437
   - k =   0.071  0.357 -0.449
   - k =   0.071  0.357 -0.462
   - k =   0.071  0.357 -0.475
   - k =   0.071  0.357 -0.487
   - k =   0.071  0.357 -0.500

  |-> Computing Wannier center evolution at k-point number:     39
 Using pol_lapack_version = 2
 Calculating Berry  term along reciprocal lattice vector 3:     0.000     0.000     0.840
 Calculating dipole term along reciprocal lattice vector 3:     0.000     0.000     0.840

  Treating all   80 k-points in band plot segment #  40:
   Sampling over :
   - k =   0.071  0.500  0.500
   - k =   0.071  0.500  0.487
   - k =   0.071  0.500  0.475
   - k =   0.071  0.500  0.462
   - k =   0.071  0.500  0.449
   - k =   0.071  0.500  0.437
   - k =   0.071  0.500  0.424
   - k =   0.071  0.500  0.411
   - k =   0.071  0.500  0.399
   - k =   0.071  0.500  0.386
   - k =   0.071  0.500  0.373
   - k =   0.071  0.500  0.361
   - k =   0.071  0.500  0.348
   - k =   0.071  0.500  0.335
   - k =   0.071  0.500  0.323
   - k =   0.071  0.500  0.310
   - k =   0.071  0.500  0.297
   - k =   0.071  0.500  0.285
   - k =   0.071  0.500  0.272
   - k =   0.071  0.500  0.259
   - k =   0.071  0.500  0.247
   - k =   0.071  0.500  0.234
   - k =   0.071  0.500  0.222
   - k =   0.071  0.500  0.209
   - k =   0.071  0.500  0.196
   - k =   0.071  0.500  0.184
   - k =   0.071  0.500  0.171
   - k =   0.071  0.500  0.158
   - k =   0.071  0.500  0.146
   - k =   0.071  0.500  0.133
   - k =   0.071  0.500  0.120
   - k =   0.071  0.500  0.108
   - k =   0.071  0.500  0.095
   - k =   0.071  0.500  0.082
   - k =   0.071  0.500  0.070
   - k =   0.071  0.500  0.057
   - k =   0.071  0.500  0.044
   - k =   0.071  0.500  0.032
   - k =   0.071  0.500  0.019
   - k =   0.071  0.500  0.006
   - k =   0.071  0.500 -0.006
   - k =   0.071  0.500 -0.019
   - k =   0.071  0.500 -0.032
   - k =   0.071  0.500 -0.044
   - k =   0.071  0.500 -0.057
   - k =   0.071  0.500 -0.070
   - k =   0.071  0.500 -0.082
   - k =   0.071  0.500 -0.095
   - k =   0.071  0.500 -0.108
   - k =   0.071  0.500 -0.120
   - k =   0.071  0.500 -0.133
   - k =   0.071  0.500 -0.146
   - k =   0.071  0.500 -0.158
   - k =   0.071  0.500 -0.171
   - k =   0.071  0.500 -0.184
   - k =   0.071  0.500 -0.196
   - k =   0.071  0.500 -0.209
   - k =   0.071  0.500 -0.222
   - k =   0.071  0.500 -0.234
   - k =   0.071  0.500 -0.247
   - k =   0.071  0.500 -0.259
   - k =   0.071  0.500 -0.272
   - k =   0.071  0.500 -0.285
   - k =   0.071  0.500 -0.297
   - k =   0.071  0.500 -0.310
   - k =   0.071  0.500 -0.323
   - k =   0.071  0.500 -0.335
   - k =   0.071  0.500 -0.348
   - k =   0.071  0.500 -0.361
   - k =   0.071  0.500 -0.373
   - k =   0.071  0.500 -0.386
   - k =   0.071  0.500 -0.399
   - k =   0.071  0.500 -0.411
   - k =   0.071  0.500 -0.424
   - k =   0.071  0.500 -0.437
   - k =   0.071  0.500 -0.449
   - k =   0.071  0.500 -0.462
   - k =   0.071  0.500 -0.475
   - k =   0.071  0.500 -0.487
   - k =   0.071  0.500 -0.500

  |-> Computing Wannier center evolution at k-point number:     40
 Using pol_lapack_version = 2
 Calculating Berry  term along reciprocal lattice vector 3:     0.000     0.000     0.840
 Calculating dipole term along reciprocal lattice vector 3:     0.000     0.000     0.840

  Treating all   80 k-points in band plot segment #  41:
   Sampling over :
   - k =   0.214 -0.500  0.500
   - k =   0.214 -0.500  0.487
   - k =   0.214 -0.500  0.475
   - k =   0.214 -0.500  0.462
   - k =   0.214 -0.500  0.449
   - k =   0.214 -0.500  0.437
   - k =   0.214 -0.500  0.424
   - k =   0.214 -0.500  0.411
   - k =   0.214 -0.500  0.399
   - k =   0.214 -0.500  0.386
   - k =   0.214 -0.500  0.373
   - k =   0.214 -0.500  0.361
   - k =   0.214 -0.500  0.348
   - k =   0.214 -0.500  0.335
   - k =   0.214 -0.500  0.323
   - k =   0.214 -0.500  0.310
   - k =   0.214 -0.500  0.297
   - k =   0.214 -0.500  0.285
   - k =   0.214 -0.500  0.272
   - k =   0.214 -0.500  0.259
   - k =   0.214 -0.500  0.247
   - k =   0.214 -0.500  0.234
   - k =   0.214 -0.500  0.222
   - k =   0.214 -0.500  0.209
   - k =   0.214 -0.500  0.196
   - k =   0.214 -0.500  0.184
   - k =   0.214 -0.500  0.171
   - k =   0.214 -0.500  0.158
   - k =   0.214 -0.500  0.146
   - k =   0.214 -0.500  0.133
   - k =   0.214 -0.500  0.120
   - k =   0.214 -0.500  0.108
   - k =   0.214 -0.500  0.095
   - k =   0.214 -0.500  0.082
   - k =   0.214 -0.500  0.070
   - k =   0.214 -0.500  0.057
   - k =   0.214 -0.500  0.044
   - k =   0.214 -0.500  0.032
   - k =   0.214 -0.500  0.019
   - k =   0.214 -0.500  0.006
   - k =   0.214 -0.500 -0.006
   - k =   0.214 -0.500 -0.019
   - k =   0.214 -0.500 -0.032
   - k =   0.214 -0.500 -0.044
   - k =   0.214 -0.500 -0.057
   - k =   0.214 -0.500 -0.070
   - k =   0.214 -0.500 -0.082
   - k =   0.214 -0.500 -0.095
   - k =   0.214 -0.500 -0.108
   - k =   0.214 -0.500 -0.120
   - k =   0.214 -0.500 -0.133
   - k =   0.214 -0.500 -0.146
   - k =   0.214 -0.500 -0.158
   - k =   0.214 -0.500 -0.171
   - k =   0.214 -0.500 -0.184
   - k =   0.214 -0.500 -0.196
   - k =   0.214 -0.500 -0.209
   - k =   0.214 -0.500 -0.222
   - k =   0.214 -0.500 -0.234
   - k =   0.214 -0.500 -0.247
   - k =   0.214 -0.500 -0.259
   - k =   0.214 -0.500 -0.272
   - k =   0.214 -0.500 -0.285
   - k =   0.214 -0.500 -0.297
   - k =   0.214 -0.500 -0.310
   - k =   0.214 -0.500 -0.323
   - k =   0.214 -0.500 -0.335
   - k =   0.214 -0.500 -0.348
   - k =   0.214 -0.500 -0.361
   - k =   0.214 -0.500 -0.373
   - k =   0.214 -0.500 -0.386
   - k =   0.214 -0.500 -0.399
   - k =   0.214 -0.500 -0.411
   - k =   0.214 -0.500 -0.424
   - k =   0.214 -0.500 -0.437
   - k =   0.214 -0.500 -0.449
   - k =   0.214 -0.500 -0.462
   - k =   0.214 -0.500 -0.475
   - k =   0.214 -0.500 -0.487
   - k =   0.214 -0.500 -0.500

  |-> Computing Wannier center evolution at k-point number:     41
 Using pol_lapack_version = 2
 Calculating Berry  term along reciprocal lattice vector 3:     0.000     0.000     0.840
 Calculating dipole term along reciprocal lattice vector 3:     0.000     0.000     0.840

  Treating all   80 k-points in band plot segment #  42:
   Sampling over :
   - k =   0.214 -0.357  0.500
   - k =   0.214 -0.357  0.487
   - k =   0.214 -0.357  0.475
   - k =   0.214 -0.357  0.462
   - k =   0.214 -0.357  0.449
   - k =   0.214 -0.357  0.437
   - k =   0.214 -0.357  0.424
   - k =   0.214 -0.357  0.411
   - k =   0.214 -0.357  0.399
   - k =   0.214 -0.357  0.386
   - k =   0.214 -0.357  0.373
   - k =   0.214 -0.357  0.361
   - k =   0.214 -0.357  0.348
   - k =   0.214 -0.357  0.335
   - k =   0.214 -0.357  0.323
   - k =   0.214 -0.357  0.310
   - k =   0.214 -0.357  0.297
   - k =   0.214 -0.357  0.285
   - k =   0.214 -0.357  0.272
   - k =   0.214 -0.357  0.259
   - k =   0.214 -0.357  0.247
   - k =   0.214 -0.357  0.234
   - k =   0.214 -0.357  0.222
   - k =   0.214 -0.357  0.209
   - k =   0.214 -0.357  0.196
   - k =   0.214 -0.357  0.184
   - k =   0.214 -0.357  0.171
   - k =   0.214 -0.357  0.158
   - k =   0.214 -0.357  0.146
   - k =   0.214 -0.357  0.133
   - k =   0.214 -0.357  0.120
   - k =   0.214 -0.357  0.108
   - k =   0.214 -0.357  0.095
   - k =   0.214 -0.357  0.082
   - k =   0.214 -0.357  0.070
   - k =   0.214 -0.357  0.057
   - k =   0.214 -0.357  0.044
   - k =   0.214 -0.357  0.032
   - k =   0.214 -0.357  0.019
   - k =   0.214 -0.357  0.006
   - k =   0.214 -0.357 -0.006
   - k =   0.214 -0.357 -0.019
   - k =   0.214 -0.357 -0.032
   - k =   0.214 -0.357 -0.044
   - k =   0.214 -0.357 -0.057
   - k =   0.214 -0.357 -0.070
   - k =   0.214 -0.357 -0.082
   - k =   0.214 -0.357 -0.095
   - k =   0.214 -0.357 -0.108
   - k =   0.214 -0.357 -0.120
   - k =   0.214 -0.357 -0.133
   - k =   0.214 -0.357 -0.146
   - k =   0.214 -0.357 -0.158
   - k =   0.214 -0.357 -0.171
   - k =   0.214 -0.357 -0.184
   - k =   0.214 -0.357 -0.196
   - k =   0.214 -0.357 -0.209
   - k =   0.214 -0.357 -0.222
   - k =   0.214 -0.357 -0.234
   - k =   0.214 -0.357 -0.247
   - k =   0.214 -0.357 -0.259
   - k =   0.214 -0.357 -0.272
   - k =   0.214 -0.357 -0.285
   - k =   0.214 -0.357 -0.297
   - k =   0.214 -0.357 -0.310
   - k =   0.214 -0.357 -0.323
   - k =   0.214 -0.357 -0.335
   - k =   0.214 -0.357 -0.348
   - k =   0.214 -0.357 -0.361
   - k =   0.214 -0.357 -0.373
   - k =   0.214 -0.357 -0.386
   - k =   0.214 -0.357 -0.399
   - k =   0.214 -0.357 -0.411
   - k =   0.214 -0.357 -0.424
   - k =   0.214 -0.357 -0.437
   - k =   0.214 -0.357 -0.449
   - k =   0.214 -0.357 -0.462
   - k =   0.214 -0.357 -0.475
   - k =   0.214 -0.357 -0.487
   - k =   0.214 -0.357 -0.500

  |-> Computing Wannier center evolution at k-point number:     42
 Using pol_lapack_version = 2
 Calculating Berry  term along reciprocal lattice vector 3:     0.000     0.000     0.840
 Calculating dipole term along reciprocal lattice vector 3:     0.000     0.000     0.840

  Treating all   80 k-points in band plot segment #  43:
   Sampling over :
   - k =   0.214 -0.214  0.500
   - k =   0.214 -0.214  0.487
   - k =   0.214 -0.214  0.475
   - k =   0.214 -0.214  0.462
   - k =   0.214 -0.214  0.449
   - k =   0.214 -0.214  0.437
   - k =   0.214 -0.214  0.424
   - k =   0.214 -0.214  0.411
   - k =   0.214 -0.214  0.399
   - k =   0.214 -0.214  0.386
   - k =   0.214 -0.214  0.373
   - k =   0.214 -0.214  0.361
   - k =   0.214 -0.214  0.348
   - k =   0.214 -0.214  0.335
   - k =   0.214 -0.214  0.323
   - k =   0.214 -0.214  0.310
   - k =   0.214 -0.214  0.297
   - k =   0.214 -0.214  0.285
   - k =   0.214 -0.214  0.272
   - k =   0.214 -0.214  0.259
   - k =   0.214 -0.214  0.247
   - k =   0.214 -0.214  0.234
   - k =   0.214 -0.214  0.222
   - k =   0.214 -0.214  0.209
   - k =   0.214 -0.214  0.196
   - k =   0.214 -0.214  0.184
   - k =   0.214 -0.214  0.171
   - k =   0.214 -0.214  0.158
   - k =   0.214 -0.214  0.146
   - k =   0.214 -0.214  0.133
   - k =   0.214 -0.214  0.120
   - k =   0.214 -0.214  0.108
   - k =   0.214 -0.214  0.095
   - k =   0.214 -0.214  0.082
   - k =   0.214 -0.214  0.070
   - k =   0.214 -0.214  0.057
   - k =   0.214 -0.214  0.044
   - k =   0.214 -0.214  0.032
   - k =   0.214 -0.214  0.019
   - k =   0.214 -0.214  0.006
   - k =   0.214 -0.214 -0.006
   - k =   0.214 -0.214 -0.019
   - k =   0.214 -0.214 -0.032
   - k =   0.214 -0.214 -0.044
   - k =   0.214 -0.214 -0.057
   - k =   0.214 -0.214 -0.070
   - k =   0.214 -0.214 -0.082
   - k =   0.214 -0.214 -0.095
   - k =   0.214 -0.214 -0.108
   - k =   0.214 -0.214 -0.120
   - k =   0.214 -0.214 -0.133
   - k =   0.214 -0.214 -0.146
   - k =   0.214 -0.214 -0.158
   - k =   0.214 -0.214 -0.171
   - k =   0.214 -0.214 -0.184
   - k =   0.214 -0.214 -0.196
   - k =   0.214 -0.214 -0.209
   - k =   0.214 -0.214 -0.222
   - k =   0.214 -0.214 -0.234
   - k =   0.214 -0.214 -0.247
   - k =   0.214 -0.214 -0.259
   - k =   0.214 -0.214 -0.272
   - k =   0.214 -0.214 -0.285
   - k =   0.214 -0.214 -0.297
   - k =   0.214 -0.214 -0.310
   - k =   0.214 -0.214 -0.323
   - k =   0.214 -0.214 -0.335
   - k =   0.214 -0.214 -0.348
   - k =   0.214 -0.214 -0.361
   - k =   0.214 -0.214 -0.373
   - k =   0.214 -0.214 -0.386
   - k =   0.214 -0.214 -0.399
   - k =   0.214 -0.214 -0.411
   - k =   0.214 -0.214 -0.424
   - k =   0.214 -0.214 -0.437
   - k =   0.214 -0.214 -0.449
   - k =   0.214 -0.214 -0.462
   - k =   0.214 -0.214 -0.475
   - k =   0.214 -0.214 -0.487
   - k =   0.214 -0.214 -0.500

  |-> Computing Wannier center evolution at k-point number:     43
 Using pol_lapack_version = 2
 Calculating Berry  term along reciprocal lattice vector 3:     0.000     0.000     0.840
 Calculating dipole term along reciprocal lattice vector 3:     0.000     0.000     0.840

  Treating all   80 k-points in band plot segment #  44:
   Sampling over :
   - k =   0.214 -0.071  0.500
   - k =   0.214 -0.071  0.487
   - k =   0.214 -0.071  0.475
   - k =   0.214 -0.071  0.462
   - k =   0.214 -0.071  0.449
   - k =   0.214 -0.071  0.437
   - k =   0.214 -0.071  0.424
   - k =   0.214 -0.071  0.411
   - k =   0.214 -0.071  0.399
   - k =   0.214 -0.071  0.386
   - k =   0.214 -0.071  0.373
   - k =   0.214 -0.071  0.361
   - k =   0.214 -0.071  0.348
   - k =   0.214 -0.071  0.335
   - k =   0.214 -0.071  0.323
   - k =   0.214 -0.071  0.310
   - k =   0.214 -0.071  0.297
   - k =   0.214 -0.071  0.285
   - k =   0.214 -0.071  0.272
   - k =   0.214 -0.071  0.259
   - k =   0.214 -0.071  0.247
   - k =   0.214 -0.071  0.234
   - k =   0.214 -0.071  0.222
   - k =   0.214 -0.071  0.209
   - k =   0.214 -0.071  0.196
   - k =   0.214 -0.071  0.184
   - k =   0.214 -0.071  0.171
   - k =   0.214 -0.071  0.158
   - k =   0.214 -0.071  0.146
   - k =   0.214 -0.071  0.133
   - k =   0.214 -0.071  0.120
   - k =   0.214 -0.071  0.108
   - k =   0.214 -0.071  0.095
   - k =   0.214 -0.071  0.082
   - k =   0.214 -0.071  0.070
   - k =   0.214 -0.071  0.057
   - k =   0.214 -0.071  0.044
   - k =   0.214 -0.071  0.032
   - k =   0.214 -0.071  0.019
   - k =   0.214 -0.071  0.006
   - k =   0.214 -0.071 -0.006
   - k =   0.214 -0.071 -0.019
   - k =   0.214 -0.071 -0.032
   - k =   0.214 -0.071 -0.044
   - k =   0.214 -0.071 -0.057
   - k =   0.214 -0.071 -0.070
   - k =   0.214 -0.071 -0.082
   - k =   0.214 -0.071 -0.095
   - k =   0.214 -0.071 -0.108
   - k =   0.214 -0.071 -0.120
   - k =   0.214 -0.071 -0.133
   - k =   0.214 -0.071 -0.146
   - k =   0.214 -0.071 -0.158
   - k =   0.214 -0.071 -0.171
   - k =   0.214 -0.071 -0.184
   - k =   0.214 -0.071 -0.196
   - k =   0.214 -0.071 -0.209
   - k =   0.214 -0.071 -0.222
   - k =   0.214 -0.071 -0.234
   - k =   0.214 -0.071 -0.247
   - k =   0.214 -0.071 -0.259
   - k =   0.214 -0.071 -0.272
   - k =   0.214 -0.071 -0.285
   - k =   0.214 -0.071 -0.297
   - k =   0.214 -0.071 -0.310
   - k =   0.214 -0.071 -0.323
   - k =   0.214 -0.071 -0.335
   - k =   0.214 -0.071 -0.348
   - k =   0.214 -0.071 -0.361
   - k =   0.214 -0.071 -0.373
   - k =   0.214 -0.071 -0.386
   - k =   0.214 -0.071 -0.399
   - k =   0.214 -0.071 -0.411
   - k =   0.214 -0.071 -0.424
   - k =   0.214 -0.071 -0.437
   - k =   0.214 -0.071 -0.449
   - k =   0.214 -0.071 -0.462
   - k =   0.214 -0.071 -0.475
   - k =   0.214 -0.071 -0.487
   - k =   0.214 -0.071 -0.500

  |-> Computing Wannier center evolution at k-point number:     44
 Using pol_lapack_version = 2
 Calculating Berry  term along reciprocal lattice vector 3:     0.000     0.000     0.840
 Calculating dipole term along reciprocal lattice vector 3:     0.000     0.000     0.840

  Treating all   80 k-points in band plot segment #  45:
   Sampling over :
   - k =   0.214  0.071  0.500
   - k =   0.214  0.071  0.487
   - k =   0.214  0.071  0.475
   - k =   0.214  0.071  0.462
   - k =   0.214  0.071  0.449
   - k =   0.214  0.071  0.437
   - k =   0.214  0.071  0.424
   - k =   0.214  0.071  0.411
   - k =   0.214  0.071  0.399
   - k =   0.214  0.071  0.386
   - k =   0.214  0.071  0.373
   - k =   0.214  0.071  0.361
   - k =   0.214  0.071  0.348
   - k =   0.214  0.071  0.335
   - k =   0.214  0.071  0.323
   - k =   0.214  0.071  0.310
   - k =   0.214  0.071  0.297
   - k =   0.214  0.071  0.285
   - k =   0.214  0.071  0.272
   - k =   0.214  0.071  0.259
   - k =   0.214  0.071  0.247
   - k =   0.214  0.071  0.234
   - k =   0.214  0.071  0.222
   - k =   0.214  0.071  0.209
   - k =   0.214  0.071  0.196
   - k =   0.214  0.071  0.184
   - k =   0.214  0.071  0.171
   - k =   0.214  0.071  0.158
   - k =   0.214  0.071  0.146
   - k =   0.214  0.071  0.133
   - k =   0.214  0.071  0.120
   - k =   0.214  0.071  0.108
   - k =   0.214  0.071  0.095
   - k =   0.214  0.071  0.082
   - k =   0.214  0.071  0.070
   - k =   0.214  0.071  0.057
   - k =   0.214  0.071  0.044
   - k =   0.214  0.071  0.032
   - k =   0.214  0.071  0.019
   - k =   0.214  0.071  0.006
   - k =   0.214  0.071 -0.006
   - k =   0.214  0.071 -0.019
   - k =   0.214  0.071 -0.032
   - k =   0.214  0.071 -0.044
   - k =   0.214  0.071 -0.057
   - k =   0.214  0.071 -0.070
   - k =   0.214  0.071 -0.082
   - k =   0.214  0.071 -0.095
   - k =   0.214  0.071 -0.108
   - k =   0.214  0.071 -0.120
   - k =   0.214  0.071 -0.133
   - k =   0.214  0.071 -0.146
   - k =   0.214  0.071 -0.158
   - k =   0.214  0.071 -0.171
   - k =   0.214  0.071 -0.184
   - k =   0.214  0.071 -0.196
   - k =   0.214  0.071 -0.209
   - k =   0.214  0.071 -0.222
   - k =   0.214  0.071 -0.234
   - k =   0.214  0.071 -0.247
   - k =   0.214  0.071 -0.259
   - k =   0.214  0.071 -0.272
   - k =   0.214  0.071 -0.285
   - k =   0.214  0.071 -0.297
   - k =   0.214  0.071 -0.310
   - k =   0.214  0.071 -0.323
   - k =   0.214  0.071 -0.335
   - k =   0.214  0.071 -0.348
   - k =   0.214  0.071 -0.361
   - k =   0.214  0.071 -0.373
   - k =   0.214  0.071 -0.386
   - k =   0.214  0.071 -0.399
   - k =   0.214  0.071 -0.411
   - k =   0.214  0.071 -0.424
   - k =   0.214  0.071 -0.437
   - k =   0.214  0.071 -0.449
   - k =   0.214  0.071 -0.462
   - k =   0.214  0.071 -0.475
   - k =   0.214  0.071 -0.487
   - k =   0.214  0.071 -0.500

  |-> Computing Wannier center evolution at k-point number:     45
 Using pol_lapack_version = 2
 Calculating Berry  term along reciprocal lattice vector 3:     0.000     0.000     0.840
 Calculating dipole term along reciprocal lattice vector 3:     0.000     0.000     0.840

  Treating all   80 k-points in band plot segment #  46:
   Sampling over :
   - k =   0.214  0.214  0.500
   - k =   0.214  0.214  0.487
   - k =   0.214  0.214  0.475
   - k =   0.214  0.214  0.462
   - k =   0.214  0.214  0.449
   - k =   0.214  0.214  0.437
   - k =   0.214  0.214  0.424
   - k =   0.214  0.214  0.411
   - k =   0.214  0.214  0.399
   - k =   0.214  0.214  0.386
   - k =   0.214  0.214  0.373
   - k =   0.214  0.214  0.361
   - k =   0.214  0.214  0.348
   - k =   0.214  0.214  0.335
   - k =   0.214  0.214  0.323
   - k =   0.214  0.214  0.310
   - k =   0.214  0.214  0.297
   - k =   0.214  0.214  0.285
   - k =   0.214  0.214  0.272
   - k =   0.214  0.214  0.259
   - k =   0.214  0.214  0.247
   - k =   0.214  0.214  0.234
   - k =   0.214  0.214  0.222
   - k =   0.214  0.214  0.209
   - k =   0.214  0.214  0.196
   - k =   0.214  0.214  0.184
   - k =   0.214  0.214  0.171
   - k =   0.214  0.214  0.158
   - k =   0.214  0.214  0.146
   - k =   0.214  0.214  0.133
   - k =   0.214  0.214  0.120
   - k =   0.214  0.214  0.108
   - k =   0.214  0.214  0.095
   - k =   0.214  0.214  0.082
   - k =   0.214  0.214  0.070
   - k =   0.214  0.214  0.057
   - k =   0.214  0.214  0.044
   - k =   0.214  0.214  0.032
   - k =   0.214  0.214  0.019
   - k =   0.214  0.214  0.006
   - k =   0.214  0.214 -0.006
   - k =   0.214  0.214 -0.019
   - k =   0.214  0.214 -0.032
   - k =   0.214  0.214 -0.044
   - k =   0.214  0.214 -0.057
   - k =   0.214  0.214 -0.070
   - k =   0.214  0.214 -0.082
   - k =   0.214  0.214 -0.095
   - k =   0.214  0.214 -0.108
   - k =   0.214  0.214 -0.120
   - k =   0.214  0.214 -0.133
   - k =   0.214  0.214 -0.146
   - k =   0.214  0.214 -0.158
   - k =   0.214  0.214 -0.171
   - k =   0.214  0.214 -0.184
   - k =   0.214  0.214 -0.196
   - k =   0.214  0.214 -0.209
   - k =   0.214  0.214 -0.222
   - k =   0.214  0.214 -0.234
   - k =   0.214  0.214 -0.247
   - k =   0.214  0.214 -0.259
   - k =   0.214  0.214 -0.272
   - k =   0.214  0.214 -0.285
   - k =   0.214  0.214 -0.297
   - k =   0.214  0.214 -0.310
   - k =   0.214  0.214 -0.323
   - k =   0.214  0.214 -0.335
   - k =   0.214  0.214 -0.348
   - k =   0.214  0.214 -0.361
   - k =   0.214  0.214 -0.373
   - k =   0.214  0.214 -0.386
   - k =   0.214  0.214 -0.399
   - k =   0.214  0.214 -0.411
   - k =   0.214  0.214 -0.424
   - k =   0.214  0.214 -0.437
   - k =   0.214  0.214 -0.449
   - k =   0.214  0.214 -0.462
   - k =   0.214  0.214 -0.475
   - k =   0.214  0.214 -0.487
   - k =   0.214  0.214 -0.500

  |-> Computing Wannier center evolution at k-point number:     46
 Using pol_lapack_version = 2
 Calculating Berry  term along reciprocal lattice vector 3:     0.000     0.000     0.840
 Calculating dipole term along reciprocal lattice vector 3:     0.000     0.000     0.840

  Treating all   80 k-points in band plot segment #  47:
   Sampling over :
   - k =   0.214  0.357  0.500
   - k =   0.214  0.357  0.487
   - k =   0.214  0.357  0.475
   - k =   0.214  0.357  0.462
   - k =   0.214  0.357  0.449
   - k =   0.214  0.357  0.437
   - k =   0.214  0.357  0.424
   - k =   0.214  0.357  0.411
   - k =   0.214  0.357  0.399
   - k =   0.214  0.357  0.386
   - k =   0.214  0.357  0.373
   - k =   0.214  0.357  0.361
   - k =   0.214  0.357  0.348
   - k =   0.214  0.357  0.335
   - k =   0.214  0.357  0.323
   - k =   0.214  0.357  0.310
   - k =   0.214  0.357  0.297
   - k =   0.214  0.357  0.285
   - k =   0.214  0.357  0.272
   - k =   0.214  0.357  0.259
   - k =   0.214  0.357  0.247
   - k =   0.214  0.357  0.234
   - k =   0.214  0.357  0.222
   - k =   0.214  0.357  0.209
   - k =   0.214  0.357  0.196
   - k =   0.214  0.357  0.184
   - k =   0.214  0.357  0.171
   - k =   0.214  0.357  0.158
   - k =   0.214  0.357  0.146
   - k =   0.214  0.357  0.133
   - k =   0.214  0.357  0.120
   - k =   0.214  0.357  0.108
   - k =   0.214  0.357  0.095
   - k =   0.214  0.357  0.082
   - k =   0.214  0.357  0.070
   - k =   0.214  0.357  0.057
   - k =   0.214  0.357  0.044
   - k =   0.214  0.357  0.032
   - k =   0.214  0.357  0.019
   - k =   0.214  0.357  0.006
   - k =   0.214  0.357 -0.006
   - k =   0.214  0.357 -0.019
   - k =   0.214  0.357 -0.032
   - k =   0.214  0.357 -0.044
   - k =   0.214  0.357 -0.057
   - k =   0.214  0.357 -0.070
   - k =   0.214  0.357 -0.082
   - k =   0.214  0.357 -0.095
   - k =   0.214  0.357 -0.108
   - k =   0.214  0.357 -0.120
   - k =   0.214  0.357 -0.133
   - k =   0.214  0.357 -0.146
   - k =   0.214  0.357 -0.158
   - k =   0.214  0.357 -0.171
   - k =   0.214  0.357 -0.184
   - k =   0.214  0.357 -0.196
   - k =   0.214  0.357 -0.209
   - k =   0.214  0.357 -0.222
   - k =   0.214  0.357 -0.234
   - k =   0.214  0.357 -0.247
   - k =   0.214  0.357 -0.259
   - k =   0.214  0.357 -0.272
   - k =   0.214  0.357 -0.285
   - k =   0.214  0.357 -0.297
   - k =   0.214  0.357 -0.310
   - k =   0.214  0.357 -0.323
   - k =   0.214  0.357 -0.335
   - k =   0.214  0.357 -0.348
   - k =   0.214  0.357 -0.361
   - k =   0.214  0.357 -0.373
   - k =   0.214  0.357 -0.386
   - k =   0.214  0.357 -0.399
   - k =   0.214  0.357 -0.411
   - k =   0.214  0.357 -0.424
   - k =   0.214  0.357 -0.437
   - k =   0.214  0.357 -0.449
   - k =   0.214  0.357 -0.462
   - k =   0.214  0.357 -0.475
   - k =   0.214  0.357 -0.487
   - k =   0.214  0.357 -0.500

  |-> Computing Wannier center evolution at k-point number:     47
 Using pol_lapack_version = 2
 Calculating Berry  term along reciprocal lattice vector 3:     0.000     0.000     0.840
 Calculating dipole term along reciprocal lattice vector 3:     0.000     0.000     0.840

  Treating all   80 k-points in band plot segment #  48:
   Sampling over :
   - k =   0.214  0.500  0.500
   - k =   0.214  0.500  0.487
   - k =   0.214  0.500  0.475
   - k =   0.214  0.500  0.462
   - k =   0.214  0.500  0.449
   - k =   0.214  0.500  0.437
   - k =   0.214  0.500  0.424
   - k =   0.214  0.500  0.411
   - k =   0.214  0.500  0.399
   - k =   0.214  0.500  0.386
   - k =   0.214  0.500  0.373
   - k =   0.214  0.500  0.361
   - k =   0.214  0.500  0.348
   - k =   0.214  0.500  0.335
   - k =   0.214  0.500  0.323
   - k =   0.214  0.500  0.310
   - k =   0.214  0.500  0.297
   - k =   0.214  0.500  0.285
   - k =   0.214  0.500  0.272
   - k =   0.214  0.500  0.259
   - k =   0.214  0.500  0.247
   - k =   0.214  0.500  0.234
   - k =   0.214  0.500  0.222
   - k =   0.214  0.500  0.209
   - k =   0.214  0.500  0.196
   - k =   0.214  0.500  0.184
   - k =   0.214  0.500  0.171
   - k =   0.214  0.500  0.158
   - k =   0.214  0.500  0.146
   - k =   0.214  0.500  0.133
   - k =   0.214  0.500  0.120
   - k =   0.214  0.500  0.108
   - k =   0.214  0.500  0.095
   - k =   0.214  0.500  0.082
   - k =   0.214  0.500  0.070
   - k =   0.214  0.500  0.057
   - k =   0.214  0.500  0.044
   - k =   0.214  0.500  0.032
   - k =   0.214  0.500  0.019
   - k =   0.214  0.500  0.006
   - k =   0.214  0.500 -0.006
   - k =   0.214  0.500 -0.019
   - k =   0.214  0.500 -0.032
   - k =   0.214  0.500 -0.044
   - k =   0.214  0.500 -0.057
   - k =   0.214  0.500 -0.070
   - k =   0.214  0.500 -0.082
   - k =   0.214  0.500 -0.095
   - k =   0.214  0.500 -0.108
   - k =   0.214  0.500 -0.120
   - k =   0.214  0.500 -0.133
   - k =   0.214  0.500 -0.146
   - k =   0.214  0.500 -0.158
   - k =   0.214  0.500 -0.171
   - k =   0.214  0.500 -0.184
   - k =   0.214  0.500 -0.196
   - k =   0.214  0.500 -0.209
   - k =   0.214  0.500 -0.222
   - k =   0.214  0.500 -0.234
   - k =   0.214  0.500 -0.247
   - k =   0.214  0.500 -0.259
   - k =   0.214  0.500 -0.272
   - k =   0.214  0.500 -0.285
   - k =   0.214  0.500 -0.297
   - k =   0.214  0.500 -0.310
   - k =   0.214  0.500 -0.323
   - k =   0.214  0.500 -0.335
   - k =   0.214  0.500 -0.348
   - k =   0.214  0.500 -0.361
   - k =   0.214  0.500 -0.373
   - k =   0.214  0.500 -0.386
   - k =   0.214  0.500 -0.399
   - k =   0.214  0.500 -0.411
   - k =   0.214  0.500 -0.424
   - k =   0.214  0.500 -0.437
   - k =   0.214  0.500 -0.449
   - k =   0.214  0.500 -0.462
   - k =   0.214  0.500 -0.475
   - k =   0.214  0.500 -0.487
   - k =   0.214  0.500 -0.500

  |-> Computing Wannier center evolution at k-point number:     48
 Using pol_lapack_version = 2
 Calculating Berry  term along reciprocal lattice vector 3:     0.000     0.000     0.840
 Calculating dipole term along reciprocal lattice vector 3:     0.000     0.000     0.840

  Treating all   80 k-points in band plot segment #  49:
   Sampling over :
   - k =   0.357 -0.500  0.500
   - k =   0.357 -0.500  0.487
   - k =   0.357 -0.500  0.475
   - k =   0.357 -0.500  0.462
   - k =   0.357 -0.500  0.449
   - k =   0.357 -0.500  0.437
   - k =   0.357 -0.500  0.424
   - k =   0.357 -0.500  0.411
   - k =   0.357 -0.500  0.399
   - k =   0.357 -0.500  0.386
   - k =   0.357 -0.500  0.373
   - k =   0.357 -0.500  0.361
   - k =   0.357 -0.500  0.348
   - k =   0.357 -0.500  0.335
   - k =   0.357 -0.500  0.323
   - k =   0.357 -0.500  0.310
   - k =   0.357 -0.500  0.297
   - k =   0.357 -0.500  0.285
   - k =   0.357 -0.500  0.272
   - k =   0.357 -0.500  0.259
   - k =   0.357 -0.500  0.247
   - k =   0.357 -0.500  0.234
   - k =   0.357 -0.500  0.222
   - k =   0.357 -0.500  0.209
   - k =   0.357 -0.500  0.196
   - k =   0.357 -0.500  0.184
   - k =   0.357 -0.500  0.171
   - k =   0.357 -0.500  0.158
   - k =   0.357 -0.500  0.146
   - k =   0.357 -0.500  0.133
   - k =   0.357 -0.500  0.120
   - k =   0.357 -0.500  0.108
   - k =   0.357 -0.500  0.095
   - k =   0.357 -0.500  0.082
   - k =   0.357 -0.500  0.070
   - k =   0.357 -0.500  0.057
   - k =   0.357 -0.500  0.044
   - k =   0.357 -0.500  0.032
   - k =   0.357 -0.500  0.019
   - k =   0.357 -0.500  0.006
   - k =   0.357 -0.500 -0.006
   - k =   0.357 -0.500 -0.019
   - k =   0.357 -0.500 -0.032
   - k =   0.357 -0.500 -0.044
   - k =   0.357 -0.500 -0.057
   - k =   0.357 -0.500 -0.070
   - k =   0.357 -0.500 -0.082
   - k =   0.357 -0.500 -0.095
   - k =   0.357 -0.500 -0.108
   - k =   0.357 -0.500 -0.120
   - k =   0.357 -0.500 -0.133
   - k =   0.357 -0.500 -0.146
   - k =   0.357 -0.500 -0.158
   - k =   0.357 -0.500 -0.171
   - k =   0.357 -0.500 -0.184
   - k =   0.357 -0.500 -0.196
   - k =   0.357 -0.500 -0.209
   - k =   0.357 -0.500 -0.222
   - k =   0.357 -0.500 -0.234
   - k =   0.357 -0.500 -0.247
   - k =   0.357 -0.500 -0.259
   - k =   0.357 -0.500 -0.272
   - k =   0.357 -0.500 -0.285
   - k =   0.357 -0.500 -0.297
   - k =   0.357 -0.500 -0.310
   - k =   0.357 -0.500 -0.323
   - k =   0.357 -0.500 -0.335
   - k =   0.357 -0.500 -0.348
   - k =   0.357 -0.500 -0.361
   - k =   0.357 -0.500 -0.373
   - k =   0.357 -0.500 -0.386
   - k =   0.357 -0.500 -0.399
   - k =   0.357 -0.500 -0.411
   - k =   0.357 -0.500 -0.424
   - k =   0.357 -0.500 -0.437
   - k =   0.357 -0.500 -0.449
   - k =   0.357 -0.500 -0.462
   - k =   0.357 -0.500 -0.475
   - k =   0.357 -0.500 -0.487
   - k =   0.357 -0.500 -0.500

  |-> Computing Wannier center evolution at k-point number:     49
 Using pol_lapack_version = 2
 Calculating Berry  term along reciprocal lattice vector 3:     0.000     0.000     0.840
 Calculating dipole term along reciprocal lattice vector 3:     0.000     0.000     0.840

  Treating all   80 k-points in band plot segment #  50:
   Sampling over :
   - k =   0.357 -0.357  0.500
   - k =   0.357 -0.357  0.487
   - k =   0.357 -0.357  0.475
   - k =   0.357 -0.357  0.462
   - k =   0.357 -0.357  0.449
   - k =   0.357 -0.357  0.437
   - k =   0.357 -0.357  0.424
   - k =   0.357 -0.357  0.411
   - k =   0.357 -0.357  0.399
   - k =   0.357 -0.357  0.386
   - k =   0.357 -0.357  0.373
   - k =   0.357 -0.357  0.361
   - k =   0.357 -0.357  0.348
   - k =   0.357 -0.357  0.335
   - k =   0.357 -0.357  0.323
   - k =   0.357 -0.357  0.310
   - k =   0.357 -0.357  0.297
   - k =   0.357 -0.357  0.285
   - k =   0.357 -0.357  0.272
   - k =   0.357 -0.357  0.259
   - k =   0.357 -0.357  0.247
   - k =   0.357 -0.357  0.234
   - k =   0.357 -0.357  0.222
   - k =   0.357 -0.357  0.209
   - k =   0.357 -0.357  0.196
   - k =   0.357 -0.357  0.184
   - k =   0.357 -0.357  0.171
   - k =   0.357 -0.357  0.158
   - k =   0.357 -0.357  0.146
   - k =   0.357 -0.357  0.133
   - k =   0.357 -0.357  0.120
   - k =   0.357 -0.357  0.108
   - k =   0.357 -0.357  0.095
   - k =   0.357 -0.357  0.082
   - k =   0.357 -0.357  0.070
   - k =   0.357 -0.357  0.057
   - k =   0.357 -0.357  0.044
   - k =   0.357 -0.357  0.032
   - k =   0.357 -0.357  0.019
   - k =   0.357 -0.357  0.006
   - k =   0.357 -0.357 -0.006
   - k =   0.357 -0.357 -0.019
   - k =   0.357 -0.357 -0.032
   - k =   0.357 -0.357 -0.044
   - k =   0.357 -0.357 -0.057
   - k =   0.357 -0.357 -0.070
   - k =   0.357 -0.357 -0.082
   - k =   0.357 -0.357 -0.095
   - k =   0.357 -0.357 -0.108
   - k =   0.357 -0.357 -0.120
   - k =   0.357 -0.357 -0.133
   - k =   0.357 -0.357 -0.146
   - k =   0.357 -0.357 -0.158
   - k =   0.357 -0.357 -0.171
   - k =   0.357 -0.357 -0.184
   - k =   0.357 -0.357 -0.196
   - k =   0.357 -0.357 -0.209
   - k =   0.357 -0.357 -0.222
   - k =   0.357 -0.357 -0.234
   - k =   0.357 -0.357 -0.247
   - k =   0.357 -0.357 -0.259
   - k =   0.357 -0.357 -0.272
   - k =   0.357 -0.357 -0.285
   - k =   0.357 -0.357 -0.297
   - k =   0.357 -0.357 -0.310
   - k =   0.357 -0.357 -0.323
   - k =   0.357 -0.357 -0.335
   - k =   0.357 -0.357 -0.348
   - k =   0.357 -0.357 -0.361
   - k =   0.357 -0.357 -0.373
   - k =   0.357 -0.357 -0.386
   - k =   0.357 -0.357 -0.399
   - k =   0.357 -0.357 -0.411
   - k =   0.357 -0.357 -0.424
   - k =   0.357 -0.357 -0.437
   - k =   0.357 -0.357 -0.449
   - k =   0.357 -0.357 -0.462
   - k =   0.357 -0.357 -0.475
   - k =   0.357 -0.357 -0.487
   - k =   0.357 -0.357 -0.500

  |-> Computing Wannier center evolution at k-point number:     50
 Using pol_lapack_version = 2
 Calculating Berry  term along reciprocal lattice vector 3:     0.000     0.000     0.840
 Calculating dipole term along reciprocal lattice vector 3:     0.000     0.000     0.840

  Treating all   80 k-points in band plot segment #  51:
   Sampling over :
   - k =   0.357 -0.214  0.500
   - k =   0.357 -0.214  0.487
   - k =   0.357 -0.214  0.475
   - k =   0.357 -0.214  0.462
   - k =   0.357 -0.214  0.449
   - k =   0.357 -0.214  0.437
   - k =   0.357 -0.214  0.424
   - k =   0.357 -0.214  0.411
   - k =   0.357 -0.214  0.399
   - k =   0.357 -0.214  0.386
   - k =   0.357 -0.214  0.373
   - k =   0.357 -0.214  0.361
   - k =   0.357 -0.214  0.348
   - k =   0.357 -0.214  0.335
   - k =   0.357 -0.214  0.323
   - k =   0.357 -0.214  0.310
   - k =   0.357 -0.214  0.297
   - k =   0.357 -0.214  0.285
   - k =   0.357 -0.214  0.272
   - k =   0.357 -0.214  0.259
   - k =   0.357 -0.214  0.247
   - k =   0.357 -0.214  0.234
   - k =   0.357 -0.214  0.222
   - k =   0.357 -0.214  0.209
   - k =   0.357 -0.214  0.196
   - k =   0.357 -0.214  0.184
   - k =   0.357 -0.214  0.171
   - k =   0.357 -0.214  0.158
   - k =   0.357 -0.214  0.146
   - k =   0.357 -0.214  0.133
   - k =   0.357 -0.214  0.120
   - k =   0.357 -0.214  0.108
   - k =   0.357 -0.214  0.095
   - k =   0.357 -0.214  0.082
   - k =   0.357 -0.214  0.070
   - k =   0.357 -0.214  0.057
   - k =   0.357 -0.214  0.044
   - k =   0.357 -0.214  0.032
   - k =   0.357 -0.214  0.019
   - k =   0.357 -0.214  0.006
   - k =   0.357 -0.214 -0.006
   - k =   0.357 -0.214 -0.019
   - k =   0.357 -0.214 -0.032
   - k =   0.357 -0.214 -0.044
   - k =   0.357 -0.214 -0.057
   - k =   0.357 -0.214 -0.070
   - k =   0.357 -0.214 -0.082
   - k =   0.357 -0.214 -0.095
   - k =   0.357 -0.214 -0.108
   - k =   0.357 -0.214 -0.120
   - k =   0.357 -0.214 -0.133
   - k =   0.357 -0.214 -0.146
   - k =   0.357 -0.214 -0.158
   - k =   0.357 -0.214 -0.171
   - k =   0.357 -0.214 -0.184
   - k =   0.357 -0.214 -0.196
   - k =   0.357 -0.214 -0.209
   - k =   0.357 -0.214 -0.222
   - k =   0.357 -0.214 -0.234
   - k =   0.357 -0.214 -0.247
   - k =   0.357 -0.214 -0.259
   - k =   0.357 -0.214 -0.272
   - k =   0.357 -0.214 -0.285
   - k =   0.357 -0.214 -0.297
   - k =   0.357 -0.214 -0.310
   - k =   0.357 -0.214 -0.323
   - k =   0.357 -0.214 -0.335
   - k =   0.357 -0.214 -0.348
   - k =   0.357 -0.214 -0.361
   - k =   0.357 -0.214 -0.373
   - k =   0.357 -0.214 -0.386
   - k =   0.357 -0.214 -0.399
   - k =   0.357 -0.214 -0.411
   - k =   0.357 -0.214 -0.424
   - k =   0.357 -0.214 -0.437
   - k =   0.357 -0.214 -0.449
   - k =   0.357 -0.214 -0.462
   - k =   0.357 -0.214 -0.475
   - k =   0.357 -0.214 -0.487
   - k =   0.357 -0.214 -0.500

  |-> Computing Wannier center evolution at k-point number:     51
 Using pol_lapack_version = 2
 Calculating Berry  term along reciprocal lattice vector 3:     0.000     0.000     0.840
 Calculating dipole term along reciprocal lattice vector 3:     0.000     0.000     0.840

  Treating all   80 k-points in band plot segment #  52:
   Sampling over :
   - k =   0.357 -0.071  0.500
   - k =   0.357 -0.071  0.487
   - k =   0.357 -0.071  0.475
   - k =   0.357 -0.071  0.462
   - k =   0.357 -0.071  0.449
   - k =   0.357 -0.071  0.437
   - k =   0.357 -0.071  0.424
   - k =   0.357 -0.071  0.411
   - k =   0.357 -0.071  0.399
   - k =   0.357 -0.071  0.386
   - k =   0.357 -0.071  0.373
   - k =   0.357 -0.071  0.361
   - k =   0.357 -0.071  0.348
   - k =   0.357 -0.071  0.335
   - k =   0.357 -0.071  0.323
   - k =   0.357 -0.071  0.310
   - k =   0.357 -0.071  0.297
   - k =   0.357 -0.071  0.285
   - k =   0.357 -0.071  0.272
   - k =   0.357 -0.071  0.259
   - k =   0.357 -0.071  0.247
   - k =   0.357 -0.071  0.234
   - k =   0.357 -0.071  0.222
   - k =   0.357 -0.071  0.209
   - k =   0.357 -0.071  0.196
   - k =   0.357 -0.071  0.184
   - k =   0.357 -0.071  0.171
   - k =   0.357 -0.071  0.158
   - k =   0.357 -0.071  0.146
   - k =   0.357 -0.071  0.133
   - k =   0.357 -0.071  0.120
   - k =   0.357 -0.071  0.108
   - k =   0.357 -0.071  0.095
   - k =   0.357 -0.071  0.082
   - k =   0.357 -0.071  0.070
   - k =   0.357 -0.071  0.057
   - k =   0.357 -0.071  0.044
   - k =   0.357 -0.071  0.032
   - k =   0.357 -0.071  0.019
   - k =   0.357 -0.071  0.006
   - k =   0.357 -0.071 -0.006
   - k =   0.357 -0.071 -0.019
   - k =   0.357 -0.071 -0.032
   - k =   0.357 -0.071 -0.044
   - k =   0.357 -0.071 -0.057
   - k =   0.357 -0.071 -0.070
   - k =   0.357 -0.071 -0.082
   - k =   0.357 -0.071 -0.095
   - k =   0.357 -0.071 -0.108
   - k =   0.357 -0.071 -0.120
   - k =   0.357 -0.071 -0.133
   - k =   0.357 -0.071 -0.146
   - k =   0.357 -0.071 -0.158
   - k =   0.357 -0.071 -0.171
   - k =   0.357 -0.071 -0.184
   - k =   0.357 -0.071 -0.196
   - k =   0.357 -0.071 -0.209
   - k =   0.357 -0.071 -0.222
   - k =   0.357 -0.071 -0.234
   - k =   0.357 -0.071 -0.247
   - k =   0.357 -0.071 -0.259
   - k =   0.357 -0.071 -0.272
   - k =   0.357 -0.071 -0.285
   - k =   0.357 -0.071 -0.297
   - k =   0.357 -0.071 -0.310
   - k =   0.357 -0.071 -0.323
   - k =   0.357 -0.071 -0.335
   - k =   0.357 -0.071 -0.348
   - k =   0.357 -0.071 -0.361
   - k =   0.357 -0.071 -0.373
   - k =   0.357 -0.071 -0.386
   - k =   0.357 -0.071 -0.399
   - k =   0.357 -0.071 -0.411
   - k =   0.357 -0.071 -0.424
   - k =   0.357 -0.071 -0.437
   - k =   0.357 -0.071 -0.449
   - k =   0.357 -0.071 -0.462
   - k =   0.357 -0.071 -0.475
   - k =   0.357 -0.071 -0.487
   - k =   0.357 -0.071 -0.500

  |-> Computing Wannier center evolution at k-point number:     52
 Using pol_lapack_version = 2
 Calculating Berry  term along reciprocal lattice vector 3:     0.000     0.000     0.840
 Calculating dipole term along reciprocal lattice vector 3:     0.000     0.000     0.840

  Treating all   80 k-points in band plot segment #  53:
   Sampling over :
   - k =   0.357  0.071  0.500
   - k =   0.357  0.071  0.487
   - k =   0.357  0.071  0.475
   - k =   0.357  0.071  0.462
   - k =   0.357  0.071  0.449
   - k =   0.357  0.071  0.437
   - k =   0.357  0.071  0.424
   - k =   0.357  0.071  0.411
   - k =   0.357  0.071  0.399
   - k =   0.357  0.071  0.386
   - k =   0.357  0.071  0.373
   - k =   0.357  0.071  0.361
   - k =   0.357  0.071  0.348
   - k =   0.357  0.071  0.335
   - k =   0.357  0.071  0.323
   - k =   0.357  0.071  0.310
   - k =   0.357  0.071  0.297
   - k =   0.357  0.071  0.285
   - k =   0.357  0.071  0.272
   - k =   0.357  0.071  0.259
   - k =   0.357  0.071  0.247
   - k =   0.357  0.071  0.234
   - k =   0.357  0.071  0.222
   - k =   0.357  0.071  0.209
   - k =   0.357  0.071  0.196
   - k =   0.357  0.071  0.184
   - k =   0.357  0.071  0.171
   - k =   0.357  0.071  0.158
   - k =   0.357  0.071  0.146
   - k =   0.357  0.071  0.133
   - k =   0.357  0.071  0.120
   - k =   0.357  0.071  0.108
   - k =   0.357  0.071  0.095
   - k =   0.357  0.071  0.082
   - k =   0.357  0.071  0.070
   - k =   0.357  0.071  0.057
   - k =   0.357  0.071  0.044
   - k =   0.357  0.071  0.032
   - k =   0.357  0.071  0.019
   - k =   0.357  0.071  0.006
   - k =   0.357  0.071 -0.006
   - k =   0.357  0.071 -0.019
   - k =   0.357  0.071 -0.032
   - k =   0.357  0.071 -0.044
   - k =   0.357  0.071 -0.057
   - k =   0.357  0.071 -0.070
   - k =   0.357  0.071 -0.082
   - k =   0.357  0.071 -0.095
   - k =   0.357  0.071 -0.108
   - k =   0.357  0.071 -0.120
   - k =   0.357  0.071 -0.133
   - k =   0.357  0.071 -0.146
   - k =   0.357  0.071 -0.158
   - k =   0.357  0.071 -0.171
   - k =   0.357  0.071 -0.184
   - k =   0.357  0.071 -0.196
   - k =   0.357  0.071 -0.209
   - k =   0.357  0.071 -0.222
   - k =   0.357  0.071 -0.234
   - k =   0.357  0.071 -0.247
   - k =   0.357  0.071 -0.259
   - k =   0.357  0.071 -0.272
   - k =   0.357  0.071 -0.285
   - k =   0.357  0.071 -0.297
   - k =   0.357  0.071 -0.310
   - k =   0.357  0.071 -0.323
   - k =   0.357  0.071 -0.335
   - k =   0.357  0.071 -0.348
   - k =   0.357  0.071 -0.361
   - k =   0.357  0.071 -0.373
   - k =   0.357  0.071 -0.386
   - k =   0.357  0.071 -0.399
   - k =   0.357  0.071 -0.411
   - k =   0.357  0.071 -0.424
   - k =   0.357  0.071 -0.437
   - k =   0.357  0.071 -0.449
   - k =   0.357  0.071 -0.462
   - k =   0.357  0.071 -0.475
   - k =   0.357  0.071 -0.487
   - k =   0.357  0.071 -0.500

  |-> Computing Wannier center evolution at k-point number:     53
 Using pol_lapack_version = 2
 Calculating Berry  term along reciprocal lattice vector 3:     0.000     0.000     0.840
 Calculating dipole term along reciprocal lattice vector 3:     0.000     0.000     0.840

  Treating all   80 k-points in band plot segment #  54:
   Sampling over :
   - k =   0.357  0.214  0.500
   - k =   0.357  0.214  0.487
   - k =   0.357  0.214  0.475
   - k =   0.357  0.214  0.462
   - k =   0.357  0.214  0.449
   - k =   0.357  0.214  0.437
   - k =   0.357  0.214  0.424
   - k =   0.357  0.214  0.411
   - k =   0.357  0.214  0.399
   - k =   0.357  0.214  0.386
   - k =   0.357  0.214  0.373
   - k =   0.357  0.214  0.361
   - k =   0.357  0.214  0.348
   - k =   0.357  0.214  0.335
   - k =   0.357  0.214  0.323
   - k =   0.357  0.214  0.310
   - k =   0.357  0.214  0.297
   - k =   0.357  0.214  0.285
   - k =   0.357  0.214  0.272
   - k =   0.357  0.214  0.259
   - k =   0.357  0.214  0.247
   - k =   0.357  0.214  0.234
   - k =   0.357  0.214  0.222
   - k =   0.357  0.214  0.209
   - k =   0.357  0.214  0.196
   - k =   0.357  0.214  0.184
   - k =   0.357  0.214  0.171
   - k =   0.357  0.214  0.158
   - k =   0.357  0.214  0.146
   - k =   0.357  0.214  0.133
   - k =   0.357  0.214  0.120
   - k =   0.357  0.214  0.108
   - k =   0.357  0.214  0.095
   - k =   0.357  0.214  0.082
   - k =   0.357  0.214  0.070
   - k =   0.357  0.214  0.057
   - k =   0.357  0.214  0.044
   - k =   0.357  0.214  0.032
   - k =   0.357  0.214  0.019
   - k =   0.357  0.214  0.006
   - k =   0.357  0.214 -0.006
   - k =   0.357  0.214 -0.019
   - k =   0.357  0.214 -0.032
   - k =   0.357  0.214 -0.044
   - k =   0.357  0.214 -0.057
   - k =   0.357  0.214 -0.070
   - k =   0.357  0.214 -0.082
   - k =   0.357  0.214 -0.095
   - k =   0.357  0.214 -0.108
   - k =   0.357  0.214 -0.120
   - k =   0.357  0.214 -0.133
   - k =   0.357  0.214 -0.146
   - k =   0.357  0.214 -0.158
   - k =   0.357  0.214 -0.171
   - k =   0.357  0.214 -0.184
   - k =   0.357  0.214 -0.196
   - k =   0.357  0.214 -0.209
   - k =   0.357  0.214 -0.222
   - k =   0.357  0.214 -0.234
   - k =   0.357  0.214 -0.247
   - k =   0.357  0.214 -0.259
   - k =   0.357  0.214 -0.272
   - k =   0.357  0.214 -0.285
   - k =   0.357  0.214 -0.297
   - k =   0.357  0.214 -0.310
   - k =   0.357  0.214 -0.323
   - k =   0.357  0.214 -0.335
   - k =   0.357  0.214 -0.348
   - k =   0.357  0.214 -0.361
   - k =   0.357  0.214 -0.373
   - k =   0.357  0.214 -0.386
   - k =   0.357  0.214 -0.399
   - k =   0.357  0.214 -0.411
   - k =   0.357  0.214 -0.424
   - k =   0.357  0.214 -0.437
   - k =   0.357  0.214 -0.449
   - k =   0.357  0.214 -0.462
   - k =   0.357  0.214 -0.475
   - k =   0.357  0.214 -0.487
   - k =   0.357  0.214 -0.500

  |-> Computing Wannier center evolution at k-point number:     54
 Using pol_lapack_version = 2
 Calculating Berry  term along reciprocal lattice vector 3:     0.000     0.000     0.840
 Calculating dipole term along reciprocal lattice vector 3:     0.000     0.000     0.840

  Treating all   80 k-points in band plot segment #  55:
   Sampling over :
   - k =   0.357  0.357  0.500
   - k =   0.357  0.357  0.487
   - k =   0.357  0.357  0.475
   - k =   0.357  0.357  0.462
   - k =   0.357  0.357  0.449
   - k =   0.357  0.357  0.437
   - k =   0.357  0.357  0.424
   - k =   0.357  0.357  0.411
   - k =   0.357  0.357  0.399
   - k =   0.357  0.357  0.386
   - k =   0.357  0.357  0.373
   - k =   0.357  0.357  0.361
   - k =   0.357  0.357  0.348
   - k =   0.357  0.357  0.335
   - k =   0.357  0.357  0.323
   - k =   0.357  0.357  0.310
   - k =   0.357  0.357  0.297
   - k =   0.357  0.357  0.285
   - k =   0.357  0.357  0.272
   - k =   0.357  0.357  0.259
   - k =   0.357  0.357  0.247
   - k =   0.357  0.357  0.234
   - k =   0.357  0.357  0.222
   - k =   0.357  0.357  0.209
   - k =   0.357  0.357  0.196
   - k =   0.357  0.357  0.184
   - k =   0.357  0.357  0.171
   - k =   0.357  0.357  0.158
   - k =   0.357  0.357  0.146
   - k =   0.357  0.357  0.133
   - k =   0.357  0.357  0.120
   - k =   0.357  0.357  0.108
   - k =   0.357  0.357  0.095
   - k =   0.357  0.357  0.082
   - k =   0.357  0.357  0.070
   - k =   0.357  0.357  0.057
   - k =   0.357  0.357  0.044
   - k =   0.357  0.357  0.032
   - k =   0.357  0.357  0.019
   - k =   0.357  0.357  0.006
   - k =   0.357  0.357 -0.006
   - k =   0.357  0.357 -0.019
   - k =   0.357  0.357 -0.032
   - k =   0.357  0.357 -0.044
   - k =   0.357  0.357 -0.057
   - k =   0.357  0.357 -0.070
   - k =   0.357  0.357 -0.082
   - k =   0.357  0.357 -0.095
   - k =   0.357  0.357 -0.108
   - k =   0.357  0.357 -0.120
   - k =   0.357  0.357 -0.133
   - k =   0.357  0.357 -0.146
   - k =   0.357  0.357 -0.158
   - k =   0.357  0.357 -0.171
   - k =   0.357  0.357 -0.184
   - k =   0.357  0.357 -0.196
   - k =   0.357  0.357 -0.209
   - k =   0.357  0.357 -0.222
   - k =   0.357  0.357 -0.234
   - k =   0.357  0.357 -0.247
   - k =   0.357  0.357 -0.259
   - k =   0.357  0.357 -0.272
   - k =   0.357  0.357 -0.285
   - k =   0.357  0.357 -0.297
   - k =   0.357  0.357 -0.310
   - k =   0.357  0.357 -0.323
   - k =   0.357  0.357 -0.335
   - k =   0.357  0.357 -0.348
   - k =   0.357  0.357 -0.361
   - k =   0.357  0.357 -0.373
   - k =   0.357  0.357 -0.386
   - k =   0.357  0.357 -0.399
   - k =   0.357  0.357 -0.411
   - k =   0.357  0.357 -0.424
   - k =   0.357  0.357 -0.437
   - k =   0.357  0.357 -0.449
   - k =   0.357  0.357 -0.462
   - k =   0.357  0.357 -0.475
   - k =   0.357  0.357 -0.487
   - k =   0.357  0.357 -0.500

  |-> Computing Wannier center evolution at k-point number:     55
 Using pol_lapack_version = 2
 Calculating Berry  term along reciprocal lattice vector 3:     0.000     0.000     0.840
 Calculating dipole term along reciprocal lattice vector 3:     0.000     0.000     0.840

  Treating all   80 k-points in band plot segment #  56:
   Sampling over :
   - k =   0.357  0.500  0.500
   - k =   0.357  0.500  0.487
   - k =   0.357  0.500  0.475
   - k =   0.357  0.500  0.462
   - k =   0.357  0.500  0.449
   - k =   0.357  0.500  0.437
   - k =   0.357  0.500  0.424
   - k =   0.357  0.500  0.411
   - k =   0.357  0.500  0.399
   - k =   0.357  0.500  0.386
   - k =   0.357  0.500  0.373
   - k =   0.357  0.500  0.361
   - k =   0.357  0.500  0.348
   - k =   0.357  0.500  0.335
   - k =   0.357  0.500  0.323
   - k =   0.357  0.500  0.310
   - k =   0.357  0.500  0.297
   - k =   0.357  0.500  0.285
   - k =   0.357  0.500  0.272
   - k =   0.357  0.500  0.259
   - k =   0.357  0.500  0.247
   - k =   0.357  0.500  0.234
   - k =   0.357  0.500  0.222
   - k =   0.357  0.500  0.209
   - k =   0.357  0.500  0.196
   - k =   0.357  0.500  0.184
   - k =   0.357  0.500  0.171
   - k =   0.357  0.500  0.158
   - k =   0.357  0.500  0.146
   - k =   0.357  0.500  0.133
   - k =   0.357  0.500  0.120
   - k =   0.357  0.500  0.108
   - k =   0.357  0.500  0.095
   - k =   0.357  0.500  0.082
   - k =   0.357  0.500  0.070
   - k =   0.357  0.500  0.057
   - k =   0.357  0.500  0.044
   - k =   0.357  0.500  0.032
   - k =   0.357  0.500  0.019
   - k =   0.357  0.500  0.006
   - k =   0.357  0.500 -0.006
   - k =   0.357  0.500 -0.019
   - k =   0.357  0.500 -0.032
   - k =   0.357  0.500 -0.044
   - k =   0.357  0.500 -0.057
   - k =   0.357  0.500 -0.070
   - k =   0.357  0.500 -0.082
   - k =   0.357  0.500 -0.095
   - k =   0.357  0.500 -0.108
   - k =   0.357  0.500 -0.120
   - k =   0.357  0.500 -0.133
   - k =   0.357  0.500 -0.146
   - k =   0.357  0.500 -0.158
   - k =   0.357  0.500 -0.171
   - k =   0.357  0.500 -0.184
   - k =   0.357  0.500 -0.196
   - k =   0.357  0.500 -0.209
   - k =   0.357  0.500 -0.222
   - k =   0.357  0.500 -0.234
   - k =   0.357  0.500 -0.247
   - k =   0.357  0.500 -0.259
   - k =   0.357  0.500 -0.272
   - k =   0.357  0.500 -0.285
   - k =   0.357  0.500 -0.297
   - k =   0.357  0.500 -0.310
   - k =   0.357  0.500 -0.323
   - k =   0.357  0.500 -0.335
   - k =   0.357  0.500 -0.348
   - k =   0.357  0.500 -0.361
   - k =   0.357  0.500 -0.373
   - k =   0.357  0.500 -0.386
   - k =   0.357  0.500 -0.399
   - k =   0.357  0.500 -0.411
   - k =   0.357  0.500 -0.424
   - k =   0.357  0.500 -0.437
   - k =   0.357  0.500 -0.449
   - k =   0.357  0.500 -0.462
   - k =   0.357  0.500 -0.475
   - k =   0.357  0.500 -0.487
   - k =   0.357  0.500 -0.500

  |-> Computing Wannier center evolution at k-point number:     56
 Using pol_lapack_version = 2
 Calculating Berry  term along reciprocal lattice vector 3:     0.000     0.000     0.840
 Calculating dipole term along reciprocal lattice vector 3:     0.000     0.000     0.840

  Treating all   80 k-points in band plot segment #  57:
   Sampling over :
   - k =   0.500 -0.500  0.500
   - k =   0.500 -0.500  0.487
   - k =   0.500 -0.500  0.475
   - k =   0.500 -0.500  0.462
   - k =   0.500 -0.500  0.449
   - k =   0.500 -0.500  0.437
   - k =   0.500 -0.500  0.424
   - k =   0.500 -0.500  0.411
   - k =   0.500 -0.500  0.399
   - k =   0.500 -0.500  0.386
   - k =   0.500 -0.500  0.373
   - k =   0.500 -0.500  0.361
   - k =   0.500 -0.500  0.348
   - k =   0.500 -0.500  0.335
   - k =   0.500 -0.500  0.323
   - k =   0.500 -0.500  0.310
   - k =   0.500 -0.500  0.297
   - k =   0.500 -0.500  0.285
   - k =   0.500 -0.500  0.272
   - k =   0.500 -0.500  0.259
   - k =   0.500 -0.500  0.247
   - k =   0.500 -0.500  0.234
   - k =   0.500 -0.500  0.222
   - k =   0.500 -0.500  0.209
   - k =   0.500 -0.500  0.196
   - k =   0.500 -0.500  0.184
   - k =   0.500 -0.500  0.171
   - k =   0.500 -0.500  0.158
   - k =   0.500 -0.500  0.146
   - k =   0.500 -0.500  0.133
   - k =   0.500 -0.500  0.120
   - k =   0.500 -0.500  0.108
   - k =   0.500 -0.500  0.095
   - k =   0.500 -0.500  0.082
   - k =   0.500 -0.500  0.070
   - k =   0.500 -0.500  0.057
   - k =   0.500 -0.500  0.044
   - k =   0.500 -0.500  0.032
   - k =   0.500 -0.500  0.019
   - k =   0.500 -0.500  0.006
   - k =   0.500 -0.500 -0.006
   - k =   0.500 -0.500 -0.019
   - k =   0.500 -0.500 -0.032
   - k =   0.500 -0.500 -0.044
   - k =   0.500 -0.500 -0.057
   - k =   0.500 -0.500 -0.070
   - k =   0.500 -0.500 -0.082
   - k =   0.500 -0.500 -0.095
   - k =   0.500 -0.500 -0.108
   - k =   0.500 -0.500 -0.120
   - k =   0.500 -0.500 -0.133
   - k =   0.500 -0.500 -0.146
   - k =   0.500 -0.500 -0.158
   - k =   0.500 -0.500 -0.171
   - k =   0.500 -0.500 -0.184
   - k =   0.500 -0.500 -0.196
   - k =   0.500 -0.500 -0.209
   - k =   0.500 -0.500 -0.222
   - k =   0.500 -0.500 -0.234
   - k =   0.500 -0.500 -0.247
   - k =   0.500 -0.500 -0.259
   - k =   0.500 -0.500 -0.272
   - k =   0.500 -0.500 -0.285
   - k =   0.500 -0.500 -0.297
   - k =   0.500 -0.500 -0.310
   - k =   0.500 -0.500 -0.323
   - k =   0.500 -0.500 -0.335
   - k =   0.500 -0.500 -0.348
   - k =   0.500 -0.500 -0.361
   - k =   0.500 -0.500 -0.373
   - k =   0.500 -0.500 -0.386
   - k =   0.500 -0.500 -0.399
   - k =   0.500 -0.500 -0.411
   - k =   0.500 -0.500 -0.424
   - k =   0.500 -0.500 -0.437
   - k =   0.500 -0.500 -0.449
   - k =   0.500 -0.500 -0.462
   - k =   0.500 -0.500 -0.475
   - k =   0.500 -0.500 -0.487
   - k =   0.500 -0.500 -0.500

  |-> Computing Wannier center evolution at k-point number:     57
 Using pol_lapack_version = 2
 Calculating Berry  term along reciprocal lattice vector 3:     0.000     0.000     0.840
 Calculating dipole term along reciprocal lattice vector 3:     0.000     0.000     0.840

  Treating all   80 k-points in band plot segment #  58:
   Sampling over :
   - k =   0.500 -0.357  0.500
   - k =   0.500 -0.357  0.487
   - k =   0.500 -0.357  0.475
   - k =   0.500 -0.357  0.462
   - k =   0.500 -0.357  0.449
   - k =   0.500 -0.357  0.437
   - k =   0.500 -0.357  0.424
   - k =   0.500 -0.357  0.411
   - k =   0.500 -0.357  0.399
   - k =   0.500 -0.357  0.386
   - k =   0.500 -0.357  0.373
   - k =   0.500 -0.357  0.361
   - k =   0.500 -0.357  0.348
   - k =   0.500 -0.357  0.335
   - k =   0.500 -0.357  0.323
   - k =   0.500 -0.357  0.310
   - k =   0.500 -0.357  0.297
   - k =   0.500 -0.357  0.285
   - k =   0.500 -0.357  0.272
   - k =   0.500 -0.357  0.259
   - k =   0.500 -0.357  0.247
   - k =   0.500 -0.357  0.234
   - k =   0.500 -0.357  0.222
   - k =   0.500 -0.357  0.209
   - k =   0.500 -0.357  0.196
   - k =   0.500 -0.357  0.184
   - k =   0.500 -0.357  0.171
   - k =   0.500 -0.357  0.158
   - k =   0.500 -0.357  0.146
   - k =   0.500 -0.357  0.133
   - k =   0.500 -0.357  0.120
   - k =   0.500 -0.357  0.108
   - k =   0.500 -0.357  0.095
   - k =   0.500 -0.357  0.082
   - k =   0.500 -0.357  0.070
   - k =   0.500 -0.357  0.057
   - k =   0.500 -0.357  0.044
   - k =   0.500 -0.357  0.032
   - k =   0.500 -0.357  0.019
   - k =   0.500 -0.357  0.006
   - k =   0.500 -0.357 -0.006
   - k =   0.500 -0.357 -0.019
   - k =   0.500 -0.357 -0.032
   - k =   0.500 -0.357 -0.044
   - k =   0.500 -0.357 -0.057
   - k =   0.500 -0.357 -0.070
   - k =   0.500 -0.357 -0.082
   - k =   0.500 -0.357 -0.095
   - k =   0.500 -0.357 -0.108
   - k =   0.500 -0.357 -0.120
   - k =   0.500 -0.357 -0.133
   - k =   0.500 -0.357 -0.146
   - k =   0.500 -0.357 -0.158
   - k =   0.500 -0.357 -0.171
   - k =   0.500 -0.357 -0.184
   - k =   0.500 -0.357 -0.196
   - k =   0.500 -0.357 -0.209
   - k =   0.500 -0.357 -0.222
   - k =   0.500 -0.357 -0.234
   - k =   0.500 -0.357 -0.247
   - k =   0.500 -0.357 -0.259
   - k =   0.500 -0.357 -0.272
   - k =   0.500 -0.357 -0.285
   - k =   0.500 -0.357 -0.297
   - k =   0.500 -0.357 -0.310
   - k =   0.500 -0.357 -0.323
   - k =   0.500 -0.357 -0.335
   - k =   0.500 -0.357 -0.348
   - k =   0.500 -0.357 -0.361
   - k =   0.500 -0.357 -0.373
   - k =   0.500 -0.357 -0.386
   - k =   0.500 -0.357 -0.399
   - k =   0.500 -0.357 -0.411
   - k =   0.500 -0.357 -0.424
   - k =   0.500 -0.357 -0.437
   - k =   0.500 -0.357 -0.449
   - k =   0.500 -0.357 -0.462
   - k =   0.500 -0.357 -0.475
   - k =   0.500 -0.357 -0.487
   - k =   0.500 -0.357 -0.500

  |-> Computing Wannier center evolution at k-point number:     58
 Using pol_lapack_version = 2
 Calculating Berry  term along reciprocal lattice vector 3:     0.000     0.000     0.840
 Calculating dipole term along reciprocal lattice vector 3:     0.000     0.000     0.840

  Treating all   80 k-points in band plot segment #  59:
   Sampling over :
   - k =   0.500 -0.214  0.500
   - k =   0.500 -0.214  0.487
   - k =   0.500 -0.214  0.475
   - k =   0.500 -0.214  0.462
   - k =   0.500 -0.214  0.449
   - k =   0.500 -0.214  0.437
   - k =   0.500 -0.214  0.424
   - k =   0.500 -0.214  0.411
   - k =   0.500 -0.214  0.399
   - k =   0.500 -0.214  0.386
   - k =   0.500 -0.214  0.373
   - k =   0.500 -0.214  0.361
   - k =   0.500 -0.214  0.348
   - k =   0.500 -0.214  0.335
   - k =   0.500 -0.214  0.323
   - k =   0.500 -0.214  0.310
   - k =   0.500 -0.214  0.297
   - k =   0.500 -0.214  0.285
   - k =   0.500 -0.214  0.272
   - k =   0.500 -0.214  0.259
   - k =   0.500 -0.214  0.247
   - k =   0.500 -0.214  0.234
   - k =   0.500 -0.214  0.222
   - k =   0.500 -0.214  0.209
   - k =   0.500 -0.214  0.196
   - k =   0.500 -0.214  0.184
   - k =   0.500 -0.214  0.171
   - k =   0.500 -0.214  0.158
   - k =   0.500 -0.214  0.146
   - k =   0.500 -0.214  0.133
   - k =   0.500 -0.214  0.120
   - k =   0.500 -0.214  0.108
   - k =   0.500 -0.214  0.095
   - k =   0.500 -0.214  0.082
   - k =   0.500 -0.214  0.070
   - k =   0.500 -0.214  0.057
   - k =   0.500 -0.214  0.044
   - k =   0.500 -0.214  0.032
   - k =   0.500 -0.214  0.019
   - k =   0.500 -0.214  0.006
   - k =   0.500 -0.214 -0.006
   - k =   0.500 -0.214 -0.019
   - k =   0.500 -0.214 -0.032
   - k =   0.500 -0.214 -0.044
   - k =   0.500 -0.214 -0.057
   - k =   0.500 -0.214 -0.070
   - k =   0.500 -0.214 -0.082
   - k =   0.500 -0.214 -0.095
   - k =   0.500 -0.214 -0.108
   - k =   0.500 -0.214 -0.120
   - k =   0.500 -0.214 -0.133
   - k =   0.500 -0.214 -0.146
   - k =   0.500 -0.214 -0.158
   - k =   0.500 -0.214 -0.171
   - k =   0.500 -0.214 -0.184
   - k =   0.500 -0.214 -0.196
   - k =   0.500 -0.214 -0.209
   - k =   0.500 -0.214 -0.222
   - k =   0.500 -0.214 -0.234
   - k =   0.500 -0.214 -0.247
   - k =   0.500 -0.214 -0.259
   - k =   0.500 -0.214 -0.272
   - k =   0.500 -0.214 -0.285
   - k =   0.500 -0.214 -0.297
   - k =   0.500 -0.214 -0.310
   - k =   0.500 -0.214 -0.323
   - k =   0.500 -0.214 -0.335
   - k =   0.500 -0.214 -0.348
   - k =   0.500 -0.214 -0.361
   - k =   0.500 -0.214 -0.373
   - k =   0.500 -0.214 -0.386
   - k =   0.500 -0.214 -0.399
   - k =   0.500 -0.214 -0.411
   - k =   0.500 -0.214 -0.424
   - k =   0.500 -0.214 -0.437
   - k =   0.500 -0.214 -0.449
   - k =   0.500 -0.214 -0.462
   - k =   0.500 -0.214 -0.475
   - k =   0.500 -0.214 -0.487
   - k =   0.500 -0.214 -0.500

  |-> Computing Wannier center evolution at k-point number:     59
 Using pol_lapack_version = 2
 Calculating Berry  term along reciprocal lattice vector 3:     0.000     0.000     0.840
 Calculating dipole term along reciprocal lattice vector 3:     0.000     0.000     0.840

  Treating all   80 k-points in band plot segment #  60:
   Sampling over :
   - k =   0.500 -0.071  0.500
   - k =   0.500 -0.071  0.487
   - k =   0.500 -0.071  0.475
   - k =   0.500 -0.071  0.462
   - k =   0.500 -0.071  0.449
   - k =   0.500 -0.071  0.437
   - k =   0.500 -0.071  0.424
   - k =   0.500 -0.071  0.411
   - k =   0.500 -0.071  0.399
   - k =   0.500 -0.071  0.386
   - k =   0.500 -0.071  0.373
   - k =   0.500 -0.071  0.361
   - k =   0.500 -0.071  0.348
   - k =   0.500 -0.071  0.335
   - k =   0.500 -0.071  0.323
   - k =   0.500 -0.071  0.310
   - k =   0.500 -0.071  0.297
   - k =   0.500 -0.071  0.285
   - k =   0.500 -0.071  0.272
   - k =   0.500 -0.071  0.259
   - k =   0.500 -0.071  0.247
   - k =   0.500 -0.071  0.234
   - k =   0.500 -0.071  0.222
   - k =   0.500 -0.071  0.209
   - k =   0.500 -0.071  0.196
   - k =   0.500 -0.071  0.184
   - k =   0.500 -0.071  0.171
   - k =   0.500 -0.071  0.158
   - k =   0.500 -0.071  0.146
   - k =   0.500 -0.071  0.133
   - k =   0.500 -0.071  0.120
   - k =   0.500 -0.071  0.108
   - k =   0.500 -0.071  0.095
   - k =   0.500 -0.071  0.082
   - k =   0.500 -0.071  0.070
   - k =   0.500 -0.071  0.057
   - k =   0.500 -0.071  0.044
   - k =   0.500 -0.071  0.032
   - k =   0.500 -0.071  0.019
   - k =   0.500 -0.071  0.006
   - k =   0.500 -0.071 -0.006
   - k =   0.500 -0.071 -0.019
   - k =   0.500 -0.071 -0.032
   - k =   0.500 -0.071 -0.044
   - k =   0.500 -0.071 -0.057
   - k =   0.500 -0.071 -0.070
   - k =   0.500 -0.071 -0.082
   - k =   0.500 -0.071 -0.095
   - k =   0.500 -0.071 -0.108
   - k =   0.500 -0.071 -0.120
   - k =   0.500 -0.071 -0.133
   - k =   0.500 -0.071 -0.146
   - k =   0.500 -0.071 -0.158
   - k =   0.500 -0.071 -0.171
   - k =   0.500 -0.071 -0.184
   - k =   0.500 -0.071 -0.196
   - k =   0.500 -0.071 -0.209
   - k =   0.500 -0.071 -0.222
   - k =   0.500 -0.071 -0.234
   - k =   0.500 -0.071 -0.247
   - k =   0.500 -0.071 -0.259
   - k =   0.500 -0.071 -0.272
   - k =   0.500 -0.071 -0.285
   - k =   0.500 -0.071 -0.297
   - k =   0.500 -0.071 -0.310
   - k =   0.500 -0.071 -0.323
   - k =   0.500 -0.071 -0.335
   - k =   0.500 -0.071 -0.348
   - k =   0.500 -0.071 -0.361
   - k =   0.500 -0.071 -0.373
   - k =   0.500 -0.071 -0.386
   - k =   0.500 -0.071 -0.399
   - k =   0.500 -0.071 -0.411
   - k =   0.500 -0.071 -0.424
   - k =   0.500 -0.071 -0.437
   - k =   0.500 -0.071 -0.449
   - k =   0.500 -0.071 -0.462
   - k =   0.500 -0.071 -0.475
   - k =   0.500 -0.071 -0.487
   - k =   0.500 -0.071 -0.500

  |-> Computing Wannier center evolution at k-point number:     60
 Using pol_lapack_version = 2
 Calculating Berry  term along reciprocal lattice vector 3:     0.000     0.000     0.840
 Calculating dipole term along reciprocal lattice vector 3:     0.000     0.000     0.840

  Treating all   80 k-points in band plot segment #  61:
   Sampling over :
   - k =   0.500  0.071  0.500
   - k =   0.500  0.071  0.487
   - k =   0.500  0.071  0.475
   - k =   0.500  0.071  0.462
   - k =   0.500  0.071  0.449
   - k =   0.500  0.071  0.437
   - k =   0.500  0.071  0.424
   - k =   0.500  0.071  0.411
   - k =   0.500  0.071  0.399
   - k =   0.500  0.071  0.386
   - k =   0.500  0.071  0.373
   - k =   0.500  0.071  0.361
   - k =   0.500  0.071  0.348
   - k =   0.500  0.071  0.335
   - k =   0.500  0.071  0.323
   - k =   0.500  0.071  0.310
   - k =   0.500  0.071  0.297
   - k =   0.500  0.071  0.285
   - k =   0.500  0.071  0.272
   - k =   0.500  0.071  0.259
   - k =   0.500  0.071  0.247
   - k =   0.500  0.071  0.234
   - k =   0.500  0.071  0.222
   - k =   0.500  0.071  0.209
   - k =   0.500  0.071  0.196
   - k =   0.500  0.071  0.184
   - k =   0.500  0.071  0.171
   - k =   0.500  0.071  0.158
   - k =   0.500  0.071  0.146
   - k =   0.500  0.071  0.133
   - k =   0.500  0.071  0.120
   - k =   0.500  0.071  0.108
   - k =   0.500  0.071  0.095
   - k =   0.500  0.071  0.082
   - k =   0.500  0.071  0.070
   - k =   0.500  0.071  0.057
   - k =   0.500  0.071  0.044
   - k =   0.500  0.071  0.032
   - k =   0.500  0.071  0.019
   - k =   0.500  0.071  0.006
   - k =   0.500  0.071 -0.006
   - k =   0.500  0.071 -0.019
   - k =   0.500  0.071 -0.032
   - k =   0.500  0.071 -0.044
   - k =   0.500  0.071 -0.057
   - k =   0.500  0.071 -0.070
   - k =   0.500  0.071 -0.082
   - k =   0.500  0.071 -0.095
   - k =   0.500  0.071 -0.108
   - k =   0.500  0.071 -0.120
   - k =   0.500  0.071 -0.133
   - k =   0.500  0.071 -0.146
   - k =   0.500  0.071 -0.158
   - k =   0.500  0.071 -0.171
   - k =   0.500  0.071 -0.184
   - k =   0.500  0.071 -0.196
   - k =   0.500  0.071 -0.209
   - k =   0.500  0.071 -0.222
   - k =   0.500  0.071 -0.234
   - k =   0.500  0.071 -0.247
   - k =   0.500  0.071 -0.259
   - k =   0.500  0.071 -0.272
   - k =   0.500  0.071 -0.285
   - k =   0.500  0.071 -0.297
   - k =   0.500  0.071 -0.310
   - k =   0.500  0.071 -0.323
   - k =   0.500  0.071 -0.335
   - k =   0.500  0.071 -0.348
   - k =   0.500  0.071 -0.361
   - k =   0.500  0.071 -0.373
   - k =   0.500  0.071 -0.386
   - k =   0.500  0.071 -0.399
   - k =   0.500  0.071 -0.411
   - k =   0.500  0.071 -0.424
   - k =   0.500  0.071 -0.437
   - k =   0.500  0.071 -0.449
   - k =   0.500  0.071 -0.462
   - k =   0.500  0.071 -0.475
   - k =   0.500  0.071 -0.487
   - k =   0.500  0.071 -0.500

  |-> Computing Wannier center evolution at k-point number:     61
 Using pol_lapack_version = 2
 Calculating Berry  term along reciprocal lattice vector 3:     0.000     0.000     0.840
 Calculating dipole term along reciprocal lattice vector 3:     0.000     0.000     0.840

  Treating all   80 k-points in band plot segment #  62:
   Sampling over :
   - k =   0.500  0.214  0.500
   - k =   0.500  0.214  0.487
   - k =   0.500  0.214  0.475
   - k =   0.500  0.214  0.462
   - k =   0.500  0.214  0.449
   - k =   0.500  0.214  0.437
   - k =   0.500  0.214  0.424
   - k =   0.500  0.214  0.411
   - k =   0.500  0.214  0.399
   - k =   0.500  0.214  0.386
   - k =   0.500  0.214  0.373
   - k =   0.500  0.214  0.361
   - k =   0.500  0.214  0.348
   - k =   0.500  0.214  0.335
   - k =   0.500  0.214  0.323
   - k =   0.500  0.214  0.310
   - k =   0.500  0.214  0.297
   - k =   0.500  0.214  0.285
   - k =   0.500  0.214  0.272
   - k =   0.500  0.214  0.259
   - k =   0.500  0.214  0.247
   - k =   0.500  0.214  0.234
   - k =   0.500  0.214  0.222
   - k =   0.500  0.214  0.209
   - k =   0.500  0.214  0.196
   - k =   0.500  0.214  0.184
   - k =   0.500  0.214  0.171
   - k =   0.500  0.214  0.158
   - k =   0.500  0.214  0.146
   - k =   0.500  0.214  0.133
   - k =   0.500  0.214  0.120
   - k =   0.500  0.214  0.108
   - k =   0.500  0.214  0.095
   - k =   0.500  0.214  0.082
   - k =   0.500  0.214  0.070
   - k =   0.500  0.214  0.057
   - k =   0.500  0.214  0.044
   - k =   0.500  0.214  0.032
   - k =   0.500  0.214  0.019
   - k =   0.500  0.214  0.006
   - k =   0.500  0.214 -0.006
   - k =   0.500  0.214 -0.019
   - k =   0.500  0.214 -0.032
   - k =   0.500  0.214 -0.044
   - k =   0.500  0.214 -0.057
   - k =   0.500  0.214 -0.070
   - k =   0.500  0.214 -0.082
   - k =   0.500  0.214 -0.095
   - k =   0.500  0.214 -0.108
   - k =   0.500  0.214 -0.120
   - k =   0.500  0.214 -0.133
   - k =   0.500  0.214 -0.146
   - k =   0.500  0.214 -0.158
   - k =   0.500  0.214 -0.171
   - k =   0.500  0.214 -0.184
   - k =   0.500  0.214 -0.196
   - k =   0.500  0.214 -0.209
   - k =   0.500  0.214 -0.222
   - k =   0.500  0.214 -0.234
   - k =   0.500  0.214 -0.247
   - k =   0.500  0.214 -0.259
   - k =   0.500  0.214 -0.272
   - k =   0.500  0.214 -0.285
   - k =   0.500  0.214 -0.297
   - k =   0.500  0.214 -0.310
   - k =   0.500  0.214 -0.323
   - k =   0.500  0.214 -0.335
   - k =   0.500  0.214 -0.348
   - k =   0.500  0.214 -0.361
   - k =   0.500  0.214 -0.373
   - k =   0.500  0.214 -0.386
   - k =   0.500  0.214 -0.399
   - k =   0.500  0.214 -0.411
   - k =   0.500  0.214 -0.424
   - k =   0.500  0.214 -0.437
   - k =   0.500  0.214 -0.449
   - k =   0.500  0.214 -0.462
   - k =   0.500  0.214 -0.475
   - k =   0.500  0.214 -0.487
   - k =   0.500  0.214 -0.500

  |-> Computing Wannier center evolution at k-point number:     62
 Using pol_lapack_version = 2
 Calculating Berry  term along reciprocal lattice vector 3:     0.000     0.000     0.840
 Calculating dipole term along reciprocal lattice vector 3:     0.000     0.000     0.840

  Treating all   80 k-points in band plot segment #  63:
   Sampling over :
   - k =   0.500  0.357  0.500
   - k =   0.500  0.357  0.487
   - k =   0.500  0.357  0.475
   - k =   0.500  0.357  0.462
   - k =   0.500  0.357  0.449
   - k =   0.500  0.357  0.437
   - k =   0.500  0.357  0.424
   - k =   0.500  0.357  0.411
   - k =   0.500  0.357  0.399
   - k =   0.500  0.357  0.386
   - k =   0.500  0.357  0.373
   - k =   0.500  0.357  0.361
   - k =   0.500  0.357  0.348
   - k =   0.500  0.357  0.335
   - k =   0.500  0.357  0.323
   - k =   0.500  0.357  0.310
   - k =   0.500  0.357  0.297
   - k =   0.500  0.357  0.285
   - k =   0.500  0.357  0.272
   - k =   0.500  0.357  0.259
   - k =   0.500  0.357  0.247
   - k =   0.500  0.357  0.234
   - k =   0.500  0.357  0.222
   - k =   0.500  0.357  0.209
   - k =   0.500  0.357  0.196
   - k =   0.500  0.357  0.184
   - k =   0.500  0.357  0.171
   - k =   0.500  0.357  0.158
   - k =   0.500  0.357  0.146
   - k =   0.500  0.357  0.133
   - k =   0.500  0.357  0.120
   - k =   0.500  0.357  0.108
   - k =   0.500  0.357  0.095
   - k =   0.500  0.357  0.082
   - k =   0.500  0.357  0.070
   - k =   0.500  0.357  0.057
   - k =   0.500  0.357  0.044
   - k =   0.500  0.357  0.032
   - k =   0.500  0.357  0.019
   - k =   0.500  0.357  0.006
   - k =   0.500  0.357 -0.006
   - k =   0.500  0.357 -0.019
   - k =   0.500  0.357 -0.032
   - k =   0.500  0.357 -0.044
   - k =   0.500  0.357 -0.057
   - k =   0.500  0.357 -0.070
   - k =   0.500  0.357 -0.082
   - k =   0.500  0.357 -0.095
   - k =   0.500  0.357 -0.108
   - k =   0.500  0.357 -0.120
   - k =   0.500  0.357 -0.133
   - k =   0.500  0.357 -0.146
   - k =   0.500  0.357 -0.158
   - k =   0.500  0.357 -0.171
   - k =   0.500  0.357 -0.184
   - k =   0.500  0.357 -0.196
   - k =   0.500  0.357 -0.209
   - k =   0.500  0.357 -0.222
   - k =   0.500  0.357 -0.234
   - k =   0.500  0.357 -0.247
   - k =   0.500  0.357 -0.259
   - k =   0.500  0.357 -0.272
   - k =   0.500  0.357 -0.285
   - k =   0.500  0.357 -0.297
   - k =   0.500  0.357 -0.310
   - k =   0.500  0.357 -0.323
   - k =   0.500  0.357 -0.335
   - k =   0.500  0.357 -0.348
   - k =   0.500  0.357 -0.361
   - k =   0.500  0.357 -0.373
   - k =   0.500  0.357 -0.386
   - k =   0.500  0.357 -0.399
   - k =   0.500  0.357 -0.411
   - k =   0.500  0.357 -0.424
   - k =   0.500  0.357 -0.437
   - k =   0.500  0.357 -0.449
   - k =   0.500  0.357 -0.462
   - k =   0.500  0.357 -0.475
   - k =   0.500  0.357 -0.487
   - k =   0.500  0.357 -0.500

  |-> Computing Wannier center evolution at k-point number:     63
 Using pol_lapack_version = 2
 Calculating Berry  term along reciprocal lattice vector 3:     0.000     0.000     0.840
 Calculating dipole term along reciprocal lattice vector 3:     0.000     0.000     0.840

  Treating all   80 k-points in band plot segment #  64:
   Sampling over :
   - k =   0.500  0.500  0.500
   - k =   0.500  0.500  0.487
   - k =   0.500  0.500  0.475
   - k =   0.500  0.500  0.462
   - k =   0.500  0.500  0.449
   - k =   0.500  0.500  0.437
   - k =   0.500  0.500  0.424
   - k =   0.500  0.500  0.411
   - k =   0.500  0.500  0.399
   - k =   0.500  0.500  0.386
   - k =   0.500  0.500  0.373
   - k =   0.500  0.500  0.361
   - k =   0.500  0.500  0.348
   - k =   0.500  0.500  0.335
   - k =   0.500  0.500  0.323
   - k =   0.500  0.500  0.310
   - k =   0.500  0.500  0.297
   - k =   0.500  0.500  0.285
   - k =   0.500  0.500  0.272
   - k =   0.500  0.500  0.259
   - k =   0.500  0.500  0.247
   - k =   0.500  0.500  0.234
   - k =   0.500  0.500  0.222
   - k =   0.500  0.500  0.209
   - k =   0.500  0.500  0.196
   - k =   0.500  0.500  0.184
   - k =   0.500  0.500  0.171
   - k =   0.500  0.500  0.158
   - k =   0.500  0.500  0.146
   - k =   0.500  0.500  0.133
   - k =   0.500  0.500  0.120
   - k =   0.500  0.500  0.108
   - k =   0.500  0.500  0.095
   - k =   0.500  0.500  0.082
   - k =   0.500  0.500  0.070
   - k =   0.500  0.500  0.057
   - k =   0.500  0.500  0.044
   - k =   0.500  0.500  0.032
   - k =   0.500  0.500  0.019
   - k =   0.500  0.500  0.006
   - k =   0.500  0.500 -0.006
   - k =   0.500  0.500 -0.019
   - k =   0.500  0.500 -0.032
   - k =   0.500  0.500 -0.044
   - k =   0.500  0.500 -0.057
   - k =   0.500  0.500 -0.070
   - k =   0.500  0.500 -0.082
   - k =   0.500  0.500 -0.095
   - k =   0.500  0.500 -0.108
   - k =   0.500  0.500 -0.120
   - k =   0.500  0.500 -0.133
   - k =   0.500  0.500 -0.146
   - k =   0.500  0.500 -0.158
   - k =   0.500  0.500 -0.171
   - k =   0.500  0.500 -0.184
   - k =   0.500  0.500 -0.196
   - k =   0.500  0.500 -0.209
   - k =   0.500  0.500 -0.222
   - k =   0.500  0.500 -0.234
   - k =   0.500  0.500 -0.247
   - k =   0.500  0.500 -0.259
   - k =   0.500  0.500 -0.272
   - k =   0.500  0.500 -0.285
   - k =   0.500  0.500 -0.297
   - k =   0.500  0.500 -0.310
   - k =   0.500  0.500 -0.323
   - k =   0.500  0.500 -0.335
   - k =   0.500  0.500 -0.348
   - k =   0.500  0.500 -0.361
   - k =   0.500  0.500 -0.373
   - k =   0.500  0.500 -0.386
   - k =   0.500  0.500 -0.399
   - k =   0.500  0.500 -0.411
   - k =   0.500  0.500 -0.424
   - k =   0.500  0.500 -0.437
   - k =   0.500  0.500 -0.449
   - k =   0.500  0.500 -0.462
   - k =   0.500  0.500 -0.475
   - k =   0.500  0.500 -0.487
   - k =   0.500  0.500 -0.500

  |-> Computing Wannier center evolution at k-point number:     64
 Using pol_lapack_version = 2
 Calculating Berry  term along reciprocal lattice vector 3:     0.000     0.000     0.840
 Calculating dipole term along reciprocal lattice vector 3:     0.000     0.000     0.840
  *-> Finished with polarization directive nr.   3
  | Evaluation of the polarization for directive nr.     3
   - Ionic      polarization along rec. latt. vec.    3 is:       -7.266897E-15 C/m^2
   - Berry term: Preliminary Electronic polarization along rec. latt. vec.    3 is:     -575.282730E-03 C/m^2 before branch-mapping
   --> Detailed listing before/after branch mapping in terms of the polarization quantum P0=       -1.022725E+00 C/m^2
     | k-string    1 :        58.619776E-15 /        58.619776E-15 P0
     | k-string    2 :         1.000000E+00 /      -195.449500E-15 P0
     | k-string    3 :         1.000000E+00 /      -213.263316E-15 P0
     | k-string    4 :         1.000000E+00 /      -383.732798E-15 P0
     | k-string    5 :         1.000000E+00 /      -447.731892E-15 P0
     | k-string    6 :         1.000000E+00 /      -335.427569E-15 P0
     | k-string    7 :         1.000000E+00 /      -245.105662E-15 P0
     | k-string    8 :        63.948846E-15 /        63.948846E-15 P0
     | k-string    9 :         1.000000E+00 /      -122.618870E-15 P0
     | k-string   10 :         1.000000E+00 /      -321.621083E-15 P0
     | k-string   11 :         1.000000E+00 /      -515.183204E-15 P0
     | k-string   12 :         1.000000E+00 /      -361.578585E-15 P0
     | k-string   13 :         1.000000E+00 /      -156.903707E-15 P0
     | k-string   14 :         1.000000E+00 /       -33.719199E-15 P0
     | k-string   15 :         1.000000E+00 /       -71.072940E-15 P0
     | k-string   16 :         1.000000E+00 /      -151.059245E-15 P0
     | k-string   17 :         7.105427E-15 /         7.105427E-15 P0
     | k-string   18 :         1.000000E+00 /      -302.919089E-15 P0
     | k-string   19 :         1.000000E+00 /      -255.895880E-15 P0
     | k-string   20 :         1.000000E+00 /      -194.217727E-15 P0
     | k-string   21 :       351.718654E-15 /       351.718654E-15 P0
     | k-string   22 :       458.300065E-15 /       458.300065E-15 P0
     | k-string   23 :       479.616347E-15 /       479.616347E-15 P0
     | k-string   24 :        24.868996E-15 /        24.868996E-15 P0
     | k-string   25 :       677.680134E-15 /       677.680134E-15 P0
     | k-string   26 :       438.760139E-15 /       438.760139E-15 P0
     | k-string   27 :         1.000000E+00 /      -184.791359E-15 P0
     | k-string   28 :       142.108547E-15 /       142.108547E-15 P0
     | k-string   29 :       294.875235E-15 /       294.875235E-15 P0
     | k-string   30 :       461.408689E-15 /       461.408689E-15 P0
     | k-string   31 :       724.753590E-15 /       724.753590E-15 P0
     | k-string   32 :       677.680134E-15 /       677.680134E-15 P0
     | k-string   33 :       689.226454E-15 /       689.226454E-15 P0
     | k-string   34 :       748.734408E-15 /       748.734408E-15 P0
     | k-string   35 :       571.098724E-15 /       571.098724E-15 P0
     | k-string   36 :       127.897692E-15 /       127.897692E-15 P0
     | k-string   37 :       171.467237E-15 /       171.467237E-15 P0
     | k-string   38 :       174.082970E-15 /       174.082970E-15 P0
     | k-string   39 :       415.667500E-15 /       415.667500E-15 P0
     | k-string   40 :       679.649196E-15 /       679.649196E-15 P0
     | k-string   41 :        10.658141E-15 /        10.658141E-15 P0
     | k-string   42 :       389.910326E-15 /       389.910326E-15 P0
     | k-string   43 :       454.747351E-15 /       454.747351E-15 P0
     | k-string   44 :       191.846539E-15 /       191.846539E-15 P0
     | k-string   45 :         1.000000E+00 /      -202.554927E-15 P0
     | k-string   46 :         1.000000E+00 /      -220.368743E-15 P0
     | k-string   47 :         1.000000E+00 /      -323.336665E-15 P0
     | k-string   48 :        10.658141E-15 /        10.658141E-15 P0
     | k-string   49 :         1.000000E+00 /      -129.724297E-15 P0
     | k-string   50 :         1.000000E+00 /       -97.800121E-15 P0
     | k-string   51 :         1.000000E+00 /        -7.256170E-15 P0
     | k-string   52 :         1.000000E+00 /      -270.096208E-15 P0
     | k-string   53 :         1.000000E+00 /      -238.172032E-15 P0
     | k-string   54 :         1.000000E+00 /      -616.475264E-15 P0
     | k-string   55 :         1.000000E+00 /      -356.289235E-15 P0
     | k-string   56 :         1.000000E+00 /      -113.644729E-15 P0
     | k-string   57 :         1.000000E+00 /        -7.113566E-15 P0
     | k-string   58 :         1.000000E+00 /      -171.920911E-15 P0
     | k-string   59 :         1.000000E+00 /      -312.636416E-15 P0
     | k-string   60 :         1.000000E+00 /      -376.635510E-15 P0
     | k-string   61 :         1.000000E+00 /      -355.369475E-15 P0
     | k-string   62 :         1.000000E+00 /      -298.576304E-15 P0
     | k-string   63 :         1.000000E+00 /      -213.139378E-15 P0
     | k-string   64 :        49.737992E-15 /        49.737992E-15 P0
   - Berry term: Electronic polarization along rec. latt. vec.    3 is:      -26.342502E-15 C/m^2 after branch-mapping

   - Dipole term: Preliminary Electronic polarization along rec. latt. vec.    3 is:     -463.422199E-03 C/m^2 before branch-mapping
   --> Detailed listing before/after branch mapping in terms of the polarization quantum P0=       -1.022725E+00 C/m^2
     | k-string    1 :         1.000000E+00 /      -438.921409E-15 P0
     | k-string    2 :        34.310879E-15 /        34.310879E-15 P0
     | k-string    3 :       225.006866E-15 /       225.006866E-15 P0
     | k-string    4 :       370.290268E-15 /       370.290267E-15 P0
     | k-string    5 :       412.455687E-15 /       412.455687E-15 P0
     | k-string    6 :       274.343559E-15 /       274.343559E-15 P0
     | k-string    7 :        53.726781E-15 /        53.726781E-15 P0
     | k-string    8 :         1.000000E+00 /      -457.914237E-15 P0
     | k-string    9 :        26.705082E-15 /        26.705082E-15 P0
     | k-string   10 :       284.328313E-15 /       284.328313E-15 P0
     | k-string   11 :       496.737087E-15 /       496.737087E-15 P0
     | k-string   12 :       340.162801E-15 /       340.162801E-15 P0
     | k-string   13 :       138.236809E-15 /       138.236809E-15 P0
     | k-string   14 :        16.654005E-15 /        16.654005E-15 P0
     | k-string   15 :        58.607494E-15 /        58.607494E-15 P0
     | k-string   16 :        57.022807E-15 /        57.022807E-15 P0
     | k-string   17 :         1.000000E+00 /       -44.612847E-15 P0
     | k-string   18 :       292.212415E-15 /       292.212415E-15 P0
     | k-string   19 :       237.507481E-15 /       237.507481E-15 P0
     | k-string   20 :       148.647397E-15 /       148.647397E-15 P0
     | k-string   21 :         1.000000E+00 /      -373.873806E-15 P0
     | k-string   22 :         1.000000E+00 /      -493.828140E-15 P0
     | k-string   23 :         1.000000E+00 /      -464.124410E-15 P0
     | k-string   24 :         1.000000E+00 /       -48.507158E-15 P0
     | k-string   25 :         1.000000E+00 /      -701.146499E-15 P0
     | k-string   26 :         1.000000E+00 /      -464.053109E-15 P0
     | k-string   27 :       149.985367E-15 /       149.985367E-15 P0
     | k-string   28 :         1.000000E+00 /      -136.724465E-15 P0
     | k-string   29 :         1.000000E+00 /      -272.443967E-15 P0
     | k-string   30 :         1.000000E+00 /      -454.348746E-15 P0
     | k-string   31 :         1.000000E+00 /      -736.173597E-15 P0
     | k-string   32 :         1.000000E+00 /      -716.905964E-15 P0
     | k-string   33 :         1.000000E+00 /      -706.298070E-15 P0
     | k-string   34 :         1.000000E+00 /      -777.624636E-15 P0
     | k-string   35 :         1.000000E+00 /      -598.484888E-15 P0
     | k-string   36 :         1.000000E+00 /      -143.343695E-15 P0
     | k-string   37 :         1.000000E+00 /      -174.036098E-15 P0
     | k-string   38 :         1.000000E+00 /      -171.865900E-15 P0
     | k-string   39 :         1.000000E+00 /      -426.490287E-15 P0
     | k-string   40 :         1.000000E+00 /      -713.089097E-15 P0
     | k-string   41 :         1.000000E+00 /       -14.364973E-15 P0
     | k-string   42 :         1.000000E+00 /      -415.538799E-15 P0
     | k-string   43 :         1.000000E+00 /      -492.860570E-15 P0
     | k-string   44 :         1.000000E+00 /      -199.811939E-15 P0
     | k-string   45 :       199.670908E-15 /       199.670908E-15 P0
     | k-string   46 :       207.331344E-15 /       207.331344E-15 P0
     | k-string   47 :       319.006611E-15 /       319.006611E-15 P0
     | k-string   48 :         1.000000E+00 /        -7.449205E-15 P0
     | k-string   49 :        64.520014E-15 /        64.520014E-15 P0
     | k-string   50 :        93.275167E-15 /        93.275167E-15 P0
     | k-string   51 :         5.659210E-15 /         5.659210E-15 P0
     | k-string   52 :       271.239046E-15 /       271.239046E-15 P0
     | k-string   53 :       234.780540E-15 /       234.780540E-15 P0
     | k-string   54 :       599.853526E-15 /       599.853526E-15 P0
     | k-string   55 :       293.853459E-15 /       293.853459E-15 P0
     | k-string   56 :        37.852872E-15 /        37.852872E-15 P0
     | k-string   57 :         1.000000E+00 /      -438.594075E-15 P0
     | k-string   58 :        20.354986E-15 /        20.354986E-15 P0
     | k-string   59 :       283.505584E-15 /       283.505584E-15 P0
     | k-string   60 :       375.233438E-15 /       375.233438E-15 P0
     | k-string   61 :       352.760563E-15 /       352.760563E-15 P0
     | k-string   62 :       280.661444E-15 /       280.661444E-15 P0
     | k-string   63 :        36.425964E-15 /        36.425964E-15 P0
     | k-string   64 :         1.000000E+00 /      -438.022582E-15 P0
   - Dipole term: Electronic polarization along rec. latt. vec.    3 is:       60.008674E-15 C/m^2 after branch-mapping



  Wannier center evolution                                :  max(cpu_time) wall_clock(cpu1)
  | Total Time                                            :          5.009            5.076
------------------------------------------------------------

  Summary for all Polarization Directives:

  * Ionic Polarization along rec. latt. vecs. is (C/m^2):        -7.266897E-15       -7.266897E-15       -7.266897E-15
  * Electronic Contributions:
    Summarizing all directives:
    - Directive    1 in direction of rec. latt. vec.  1 yields the electronic polarization (Berry term):        -134.778233E-15 (C/m^2)
    - Directive    2 in direction of rec. latt. vec.  2 yields the electronic polarization (Berry term):        -160.098828E-15 (C/m^2)
    - Directive    3 in direction of rec. latt. vec.  3 yields the electronic polarization (Berry term):         -26.342502E-15 (C/m^2)
    - Directive    1 in direction of rec. latt. vec.  1 yields the electronic polarization (Dipole term):        170.204357E-15 (C/m^2)
    - Directive    2 in direction of rec. latt. vec.  2 yields the electronic polarization (Dipole term):        193.481137E-15 (C/m^2)
    - Directive    3 in direction of rec. latt. vec.  3 yields the electronic polarization (Dipole term):         60.008674E-15 (C/m^2)
  * Full Polarizations (Electron + Ions):
    Summarizing all directives:
    - Directive    1 in direction of rec. latt. vec.  1 yields the full polarization      :        28.159226E-15 (C/m^2)
    - Directive    2 in direction of rec. latt. vec.  2 yields the full polarization      :        26.115412E-15 (C/m^2)
    - Directive    3 in direction of rec. latt. vec.  3 yields the full polarization      :        26.342502E-15 (C/m^2)
  | Cartesian Polarization                   28.159226E-15         26.115412E-15         26.342502E-15

------------------------------------------------------------


------------------------------------------------------------------------------
  Final output of selected total energy values:

  The following output summarizes some interesting total energy values
  at the end of a run (AFTER all relaxation, molecular dynamics, etc.).

  | Total energy of the DFT / Hartree-Fock s.c.f. calculation      :        -254338.306137509 eV
  | Final zero-broadening corrected energy (caution - metals only) :        -254338.306137509 eV
  | For reference only, the value of 1 Hartree used in FHI-aims is :             27.211384500 eV
  | For reference only, the overall average (free atom contribution
  | + realspace contribution) of the electrostatic potential after
  | s.c.f. convergence is                                          :            -23.290569043 eV

  Before relying on these values, please be sure to understand exactly which
  total energy value is referred to by a given number. Different objects may
  all carry the same name 'total energy'. Definitions:

  Total energy of the DFT / Hartree-Fock s.c.f. calculation:
  | Note that this energy does not include ANY quantities calculated after the
  | s.c.f. cycle, in particular not ANY RPA, MP2, etc. many-body perturbation terms.

  Final zero-broadening corrected energy:
  | For metallic systems only, a broadening of the occupation numbers at the Fermi
  | level can be extrapolated back to zero broadening by an electron-gas inspired
  | formula. For all systems that are not real metals, this value can be
  | meaningless and should be avoided.

------------------------------------------------------------------------------
  Methods described in the following list of references were used in this FHI-aims run.
  If you publish the results, please make sure to cite these reference if they apply.
  FHI-aims is an academic code, and for our developers (often, Ph.D. students
  and postdocs), scientific credit in the community is essential.
  Thank you for helping us!

  For any use of FHI-aims, please cite:

    Volker Blum, Ralf Gehrke, Felix Hanke, Paula Havu, Ville Havu,
    Xinguo Ren, Karsten Reuter, and Matthias Scheffler
    'Ab initio molecular simulations with numeric atom-centered orbitals'
    Computer Physics Communications 180, 2175-2196 (2009)
    http://doi.org/10.1016/j.cpc.2009.06.022


  The provided symmetry information was generated with SPGlib:

    Atsushi Togo, Yusuke Seto, Dimitar Pashov
    SPGlib 1.7.3 obtained from http://spglib.sourceforge.net
    Licence: New BSD license
    Copyright (C) 2008 Atsushi Togo


  The ELSI infrastructure was used in your run to solve the Kohn-Sham electronic structure.
  Please check out https://wordpress.elsi-interchange.org to learn more.
  If scalability is important for your project, please acknowledge ELSI by citing:

    V. W-z. Yu, F. Corsetti, A. Garcia, W. P. Huhn, M. Jacquelin, W. Jia,
    B. Lange, L. Lin, J. Lu, W. Mi, A. Seifitokaldani, A. Vazquez-Mayagoitia,
    C. Yang, H. Yang, and V. Blum
    'ELSI: A unified software interface for Kohn-Sham electronic structure solvers'
    Computer Physics Communications 222, 267-285 (2018).
    http://doi.org/10.1016/j.cpc.2017.09.007


  For the real-space grid partitioning and parallelization used in this calculation, please cite:

    Ville Havu, Volker Blum, Paula Havu, and Matthias Scheffler,
    'Efficient O(N) integration for all-electron electronic structure calculation'
    'using numerically tabulated basis functions'
    Journal of Computational Physics 228, 8367-8379 (2009).
    http://doi.org/10.1016/j.jcp.2009.08.008

  Of course, there are many other important community references, e.g., those cited in the
  above references. Our list is limited to references that describe implementations in the
  FHI-aims code. The reason is purely practical (length of this list) - please credit others as well.
------------------------------------------------------------
Warnings summary:

At least    0 warnings were raised during execution.

------------------------------------------------------------
          Leaving FHI-aims.
          Date     :  20260729, Time     :  141309.472

          Computational steps:
          | Number of self-consistency cycles          :           19
          | Number of SCF (re)initializations          :            1

          Detailed time accounting                     :  max(cpu_time)    wall_clock(cpu1)
          | Total time                                  :       48.277 s          48.924 s
          | Preparation time                            :        0.352 s           0.357 s
          | Boundary condition initalization            :        0.116 s           0.118 s
          | Grid partitioning                           :        0.027 s           0.027 s
          | Preloading free-atom quantities on grid     :        0.142 s           0.144 s
          | Free-atom superposition energy              :        0.008 s           0.008 s
          | Total time for integrations                 :       15.775 s          15.990 s
          | Total time for solution of K.-S. equations  :        1.180 s           1.195 s
          | Total time for density update               :       14.484 s          14.680 s
          | Total time for mixing                       :        0.008 s           0.007 s
          | Total time for Hartree multipole update     :        0.021 s           0.022 s
          | Total time for Hartree multipole sum        :        0.516 s           0.520 s
          | Total time for total energy evaluation      :        0.011 s           0.012 s
          | Total time for scaled ZORA corrections      :        0.000 s           0.000 s
          | Total time for Wannier Center Evolution     :       15.092 s          15.276 s

          Partial memory accounting:
          | Residual value for overall tracked memory usage across tasks:     0.000000 MB (should be 0.000000 MB)
          | Peak values for overall tracked memory usage:
          |   Minimum:       91.324 MB (on task  85 after allocating dipolemat_shell)
          |   Maximum:       96.630 MB (on task  54 after allocating dipolemat_shell)
          |   Average:       93.447 MB
          | Largest tracked array allocation:
          |   Minimum:       33.999 MB (hamiltonian_shell on task   6)
          |   Maximum:       38.693 MB (hamiltonian_shell on task  54)
          |   Average:       35.831 MB
          Note:  These values currently only include a subset of arrays which are explicitly tracked.
          The "true" memory usage will be greater.

          Have a nice day.
------------------------------------------------------------
